*Heading
** Job name: Cube_E216 Model name: Model-1
** Generated by: Abaqus/CAE 2020
*Preprint, echo=NO, model=NO, history=NO, contact=NO
**
** PARTS
**
*Part, name=Part-1
*Node
      1,          -5.,          -5.,          10.
      2,          -5.,  -3.33333325,          10.
      3,          -5.,  -1.66666663,          10.
      4,          -5.,           0.,          10.
      5,          -5.,   1.66666663,          10.
      6,          -5.,   3.33333325,          10.
      7,          -5.,           5.,          10.
      8,          -5.,          -5.,   8.33333302
      9,          -5.,  -3.33333325,   8.33333302
     10,          -5.,  -1.66666663,   8.33333302
     11,          -5.,           0.,   8.33333302
     12,          -5.,   1.66666663,   8.33333302
     13,          -5.,   3.33333325,   8.33333302
     14,          -5.,           5.,   8.33333302
     15,          -5.,          -5.,   6.66666651
     16,          -5.,  -3.33333325,   6.66666651
     17,          -5.,  -1.66666663,   6.66666651
     18,          -5.,           0.,   6.66666651
     19,          -5.,   1.66666663,   6.66666651
     20,          -5.,   3.33333325,   6.66666651
     21,          -5.,           5.,   6.66666651
     22,          -5.,          -5.,           5.
     23,          -5.,  -3.33333325,           5.
     24,          -5.,  -1.66666663,           5.
     25,          -5.,           0.,           5.
     26,          -5.,   1.66666663,           5.
     27,          -5.,   3.33333325,           5.
     28,          -5.,           5.,           5.
     29,          -5.,          -5.,   3.33333325
     30,          -5.,  -3.33333325,   3.33333325
     31,          -5.,  -1.66666663,   3.33333325
     32,          -5.,           0.,   3.33333325
     33,          -5.,   1.66666663,   3.33333325
     34,          -5.,   3.33333325,   3.33333325
     35,          -5.,           5.,   3.33333325
     36,          -5.,          -5.,   1.66666663
     37,          -5.,  -3.33333325,   1.66666663
     38,          -5.,  -1.66666663,   1.66666663
     39,          -5.,           0.,   1.66666663
     40,          -5.,   1.66666663,   1.66666663
     41,          -5.,   3.33333325,   1.66666663
     42,          -5.,           5.,   1.66666663
     43,          -5.,          -5.,           0.
     44,          -5.,  -3.33333325,           0.
     45,          -5.,  -1.66666663,           0.
     46,          -5.,           0.,           0.
     47,          -5.,   1.66666663,           0.
     48,          -5.,   3.33333325,           0.
     49,          -5.,           5.,           0.
     50,  -3.33333325,          -5.,          10.
     51,  -3.33333325,  -3.33333325,          10.
     52,  -3.33333325,  -1.66666663,          10.
     53,  -3.33333325,           0.,          10.
     54,  -3.33333325,   1.66666663,          10.
     55,  -3.33333325,   3.33333325,          10.
     56,  -3.33333325,           5.,          10.
     57,  -3.33333325,          -5.,   8.33333302
     58,  -3.33333325,  -3.33333325,   8.33333302
     59,  -3.33333325,  -1.66666663,   8.33333302
     60,  -3.33333325,           0.,   8.33333302
     61,  -3.33333325,   1.66666663,   8.33333302
     62,  -3.33333325,   3.33333325,   8.33333302
     63,  -3.33333325,           5.,   8.33333302
     64,  -3.33333325,          -5.,   6.66666651
     65,  -3.33333325,  -3.33333325,   6.66666651
     66,  -3.33333325,  -1.66666663,   6.66666651
     67,  -3.33333325,           0.,   6.66666651
     68,  -3.33333325,   1.66666663,   6.66666651
     69,  -3.33333325,   3.33333325,   6.66666651
     70,  -3.33333325,           5.,   6.66666651
     71,  -3.33333325,          -5.,           5.
     72,  -3.33333325,  -3.33333325,           5.
     73,  -3.33333325,  -1.66666663,           5.
     74,  -3.33333325,           0.,           5.
     75,  -3.33333325,   1.66666663,           5.
     76,  -3.33333325,   3.33333325,           5.
     77,  -3.33333325,           5.,           5.
     78,  -3.33333325,          -5.,   3.33333325
     79,  -3.33333325,  -3.33333325,   3.33333325
     80,  -3.33333325,  -1.66666663,   3.33333325
     81,  -3.33333325,           0.,   3.33333325
     82,  -3.33333325,   1.66666663,   3.33333325
     83,  -3.33333325,   3.33333325,   3.33333325
     84,  -3.33333325,           5.,   3.33333325
     85,  -3.33333325,          -5.,   1.66666663
     86,  -3.33333325,  -3.33333325,   1.66666663
     87,  -3.33333325,  -1.66666663,   1.66666663
     88,  -3.33333325,           0.,   1.66666663
     89,  -3.33333325,   1.66666663,   1.66666663
     90,  -3.33333325,   3.33333325,   1.66666663
     91,  -3.33333325,           5.,   1.66666663
     92,  -3.33333325,          -5.,           0.
     93,  -3.33333325,  -3.33333325,           0.
     94,  -3.33333325,  -1.66666663,           0.
     95,  -3.33333325,           0.,           0.
     96,  -3.33333325,   1.66666663,           0.
     97,  -3.33333325,   3.33333325,           0.
     98,  -3.33333325,           5.,           0.
     99,  -1.66666663,          -5.,          10.
    100,  -1.66666663,  -3.33333325,          10.
    101,  -1.66666663,  -1.66666663,          10.
    102,  -1.66666663,           0.,          10.
    103,  -1.66666663,   1.66666663,          10.
    104,  -1.66666663,   3.33333325,          10.
    105,  -1.66666663,           5.,          10.
    106,  -1.66666663,          -5.,   8.33333302
    107,  -1.66666663,  -3.33333325,   8.33333302
    108,  -1.66666663,  -1.66666663,   8.33333302
    109,  -1.66666663,           0.,   8.33333302
    110,  -1.66666663,   1.66666663,   8.33333302
    111,  -1.66666663,   3.33333325,   8.33333302
    112,  -1.66666663,           5.,   8.33333302
    113,  -1.66666663,          -5.,   6.66666651
    114,  -1.66666663,  -3.33333325,   6.66666651
    115,  -1.66666663,  -1.66666663,   6.66666651
    116,  -1.66666663,           0.,   6.66666651
    117,  -1.66666663,   1.66666663,   6.66666651
    118,  -1.66666663,   3.33333325,   6.66666651
    119,  -1.66666663,           5.,   6.66666651
    120,  -1.66666663,          -5.,           5.
    121,  -1.66666663,  -3.33333325,           5.
    122,  -1.66666663,  -1.66666663,           5.
    123,  -1.66666663,           0.,           5.
    124,  -1.66666663,   1.66666663,           5.
    125,  -1.66666663,   3.33333325,           5.
    126,  -1.66666663,           5.,           5.
    127,  -1.66666663,          -5.,   3.33333325
    128,  -1.66666663,  -3.33333325,   3.33333325
    129,  -1.66666663,  -1.66666663,   3.33333325
    130,  -1.66666663,           0.,   3.33333325
    131,  -1.66666663,   1.66666663,   3.33333325
    132,  -1.66666663,   3.33333325,   3.33333325
    133,  -1.66666663,           5.,   3.33333325
    134,  -1.66666663,          -5.,   1.66666663
    135,  -1.66666663,  -3.33333325,   1.66666663
    136,  -1.66666663,  -1.66666663,   1.66666663
    137,  -1.66666663,           0.,   1.66666663
    138,  -1.66666663,   1.66666663,   1.66666663
    139,  -1.66666663,   3.33333325,   1.66666663
    140,  -1.66666663,           5.,   1.66666663
    141,  -1.66666663,          -5.,           0.
    142,  -1.66666663,  -3.33333325,           0.
    143,  -1.66666663,  -1.66666663,           0.
    144,  -1.66666663,           0.,           0.
    145,  -1.66666663,   1.66666663,           0.
    146,  -1.66666663,   3.33333325,           0.
    147,  -1.66666663,           5.,           0.
    148,           0.,          -5.,          10.
    149,           0.,  -3.33333325,          10.
    150,           0.,  -1.66666663,          10.
    151,           0.,           0.,          10.
    152,           0.,   1.66666663,          10.
    153,           0.,   3.33333325,          10.
    154,           0.,           5.,          10.
    155,           0.,          -5.,   8.33333302
    156,           0.,  -3.33333325,   8.33333302
    157,           0.,  -1.66666663,   8.33333302
    158,           0.,           0.,   8.33333302
    159,           0.,   1.66666663,   8.33333302
    160,           0.,   3.33333325,   8.33333302
    161,           0.,           5.,   8.33333302
    162,           0.,          -5.,   6.66666651
    163,           0.,  -3.33333325,   6.66666651
    164,           0.,  -1.66666663,   6.66666651
    165,           0.,           0.,   6.66666651
    166,           0.,   1.66666663,   6.66666651
    167,           0.,   3.33333325,   6.66666651
    168,           0.,           5.,   6.66666651
    169,           0.,          -5.,           5.
    170,           0.,  -3.33333325,           5.
    171,           0.,  -1.66666663,           5.
    172,           0.,           0.,           5.
    173,           0.,   1.66666663,           5.
    174,           0.,   3.33333325,           5.
    175,           0.,           5.,           5.
    176,           0.,          -5.,   3.33333325
    177,           0.,  -3.33333325,   3.33333325
    178,           0.,  -1.66666663,   3.33333325
    179,           0.,           0.,   3.33333325
    180,           0.,   1.66666663,   3.33333325
    181,           0.,   3.33333325,   3.33333325
    182,           0.,           5.,   3.33333325
    183,           0.,          -5.,   1.66666663
    184,           0.,  -3.33333325,   1.66666663
    185,           0.,  -1.66666663,   1.66666663
    186,           0.,           0.,   1.66666663
    187,           0.,   1.66666663,   1.66666663
    188,           0.,   3.33333325,   1.66666663
    189,           0.,           5.,   1.66666663
    190,           0.,          -5.,           0.
    191,           0.,  -3.33333325,           0.
    192,           0.,  -1.66666663,           0.
    193,           0.,           0.,           0.
    194,           0.,   1.66666663,           0.
    195,           0.,   3.33333325,           0.
    196,           0.,           5.,           0.
    197,   1.66666663,          -5.,          10.
    198,   1.66666663,  -3.33333325,          10.
    199,   1.66666663,  -1.66666663,          10.
    200,   1.66666663,           0.,          10.
    201,   1.66666663,   1.66666663,          10.
    202,   1.66666663,   3.33333325,          10.
    203,   1.66666663,           5.,          10.
    204,   1.66666663,          -5.,   8.33333302
    205,   1.66666663,  -3.33333325,   8.33333302
    206,   1.66666663,  -1.66666663,   8.33333302
    207,   1.66666663,           0.,   8.33333302
    208,   1.66666663,   1.66666663,   8.33333302
    209,   1.66666663,   3.33333325,   8.33333302
    210,   1.66666663,           5.,   8.33333302
    211,   1.66666663,          -5.,   6.66666651
    212,   1.66666663,  -3.33333325,   6.66666651
    213,   1.66666663,  -1.66666663,   6.66666651
    214,   1.66666663,           0.,   6.66666651
    215,   1.66666663,   1.66666663,   6.66666651
    216,   1.66666663,   3.33333325,   6.66666651
    217,   1.66666663,           5.,   6.66666651
    218,   1.66666663,          -5.,           5.
    219,   1.66666663,  -3.33333325,           5.
    220,   1.66666663,  -1.66666663,           5.
    221,   1.66666663,           0.,           5.
    222,   1.66666663,   1.66666663,           5.
    223,   1.66666663,   3.33333325,           5.
    224,   1.66666663,           5.,           5.
    225,   1.66666663,          -5.,   3.33333325
    226,   1.66666663,  -3.33333325,   3.33333325
    227,   1.66666663,  -1.66666663,   3.33333325
    228,   1.66666663,           0.,   3.33333325
    229,   1.66666663,   1.66666663,   3.33333325
    230,   1.66666663,   3.33333325,   3.33333325
    231,   1.66666663,           5.,   3.33333325
    232,   1.66666663,          -5.,   1.66666663
    233,   1.66666663,  -3.33333325,   1.66666663
    234,   1.66666663,  -1.66666663,   1.66666663
    235,   1.66666663,           0.,   1.66666663
    236,   1.66666663,   1.66666663,   1.66666663
    237,   1.66666663,   3.33333325,   1.66666663
    238,   1.66666663,           5.,   1.66666663
    239,   1.66666663,          -5.,           0.
    240,   1.66666663,  -3.33333325,           0.
    241,   1.66666663,  -1.66666663,           0.
    242,   1.66666663,           0.,           0.
    243,   1.66666663,   1.66666663,           0.
    244,   1.66666663,   3.33333325,           0.
    245,   1.66666663,           5.,           0.
    246,   3.33333325,          -5.,          10.
    247,   3.33333325,  -3.33333325,          10.
    248,   3.33333325,  -1.66666663,          10.
    249,   3.33333325,           0.,          10.
    250,   3.33333325,   1.66666663,          10.
    251,   3.33333325,   3.33333325,          10.
    252,   3.33333325,           5.,          10.
    253,   3.33333325,          -5.,   8.33333302
    254,   3.33333325,  -3.33333325,   8.33333302
    255,   3.33333325,  -1.66666663,   8.33333302
    256,   3.33333325,           0.,   8.33333302
    257,   3.33333325,   1.66666663,   8.33333302
    258,   3.33333325,   3.33333325,   8.33333302
    259,   3.33333325,           5.,   8.33333302
    260,   3.33333325,          -5.,   6.66666651
    261,   3.33333325,  -3.33333325,   6.66666651
    262,   3.33333325,  -1.66666663,   6.66666651
    263,   3.33333325,           0.,   6.66666651
    264,   3.33333325,   1.66666663,   6.66666651
    265,   3.33333325,   3.33333325,   6.66666651
    266,   3.33333325,           5.,   6.66666651
    267,   3.33333325,          -5.,           5.
    268,   3.33333325,  -3.33333325,           5.
    269,   3.33333325,  -1.66666663,           5.
    270,   3.33333325,           0.,           5.
    271,   3.33333325,   1.66666663,           5.
    272,   3.33333325,   3.33333325,           5.
    273,   3.33333325,           5.,           5.
    274,   3.33333325,          -5.,   3.33333325
    275,   3.33333325,  -3.33333325,   3.33333325
    276,   3.33333325,  -1.66666663,   3.33333325
    277,   3.33333325,           0.,   3.33333325
    278,   3.33333325,   1.66666663,   3.33333325
    279,   3.33333325,   3.33333325,   3.33333325
    280,   3.33333325,           5.,   3.33333325
    281,   3.33333325,          -5.,   1.66666663
    282,   3.33333325,  -3.33333325,   1.66666663
    283,   3.33333325,  -1.66666663,   1.66666663
    284,   3.33333325,           0.,   1.66666663
    285,   3.33333325,   1.66666663,   1.66666663
    286,   3.33333325,   3.33333325,   1.66666663
    287,   3.33333325,           5.,   1.66666663
    288,   3.33333325,          -5.,           0.
    289,   3.33333325,  -3.33333325,           0.
    290,   3.33333325,  -1.66666663,           0.
    291,   3.33333325,           0.,           0.
    292,   3.33333325,   1.66666663,           0.
    293,   3.33333325,   3.33333325,           0.
    294,   3.33333325,           5.,           0.
    295,           5.,          -5.,          10.
    296,           5.,  -3.33333325,          10.
    297,           5.,  -1.66666663,          10.
    298,           5.,           0.,          10.
    299,           5.,   1.66666663,          10.
    300,           5.,   3.33333325,          10.
    301,           5.,           5.,          10.
    302,           5.,          -5.,   8.33333302
    303,           5.,  -3.33333325,   8.33333302
    304,           5.,  -1.66666663,   8.33333302
    305,           5.,           0.,   8.33333302
    306,           5.,   1.66666663,   8.33333302
    307,           5.,   3.33333325,   8.33333302
    308,           5.,           5.,   8.33333302
    309,           5.,          -5.,   6.66666651
    310,           5.,  -3.33333325,   6.66666651
    311,           5.,  -1.66666663,   6.66666651
    312,           5.,           0.,   6.66666651
    313,           5.,   1.66666663,   6.66666651
    314,           5.,   3.33333325,   6.66666651
    315,           5.,           5.,   6.66666651
    316,           5.,          -5.,           5.
    317,           5.,  -3.33333325,           5.
    318,           5.,  -1.66666663,           5.
    319,           5.,           0.,           5.
    320,           5.,   1.66666663,           5.
    321,           5.,   3.33333325,           5.
    322,           5.,           5.,           5.
    323,           5.,          -5.,   3.33333325
    324,           5.,  -3.33333325,   3.33333325
    325,           5.,  -1.66666663,   3.33333325
    326,           5.,           0.,   3.33333325
    327,           5.,   1.66666663,   3.33333325
    328,           5.,   3.33333325,   3.33333325
    329,           5.,           5.,   3.33333325
    330,           5.,          -5.,   1.66666663
    331,           5.,  -3.33333325,   1.66666663
    332,           5.,  -1.66666663,   1.66666663
    333,           5.,           0.,   1.66666663
    334,           5.,   1.66666663,   1.66666663
    335,           5.,   3.33333325,   1.66666663
    336,           5.,           5.,   1.66666663
    337,           5.,          -5.,           0.
    338,           5.,  -3.33333325,           0.
    339,           5.,  -1.66666663,           0.
    340,           5.,           0.,           0.
    341,           5.,   1.66666663,           0.
    342,           5.,   3.33333325,           0.
    343,           5.,           5.,           0.
*Element, type=C3D8R
  1,  50,  51,  58,  57,   1,   2,   9,   8
  2,  51,  52,  59,  58,   2,   3,  10,   9
  3,  52,  53,  60,  59,   3,   4,  11,  10
  4,  53,  54,  61,  60,   4,   5,  12,  11
  5,  54,  55,  62,  61,   5,   6,  13,  12
  6,  55,  56,  63,  62,   6,   7,  14,  13
  7,  57,  58,  65,  64,   8,   9,  16,  15
  8,  58,  59,  66,  65,   9,  10,  17,  16
  9,  59,  60,  67,  66,  10,  11,  18,  17
 10,  60,  61,  68,  67,  11,  12,  19,  18
 11,  61,  62,  69,  68,  12,  13,  20,  19
 12,  62,  63,  70,  69,  13,  14,  21,  20
 13,  64,  65,  72,  71,  15,  16,  23,  22
 14,  65,  66,  73,  72,  16,  17,  24,  23
 15,  66,  67,  74,  73,  17,  18,  25,  24
 16,  67,  68,  75,  74,  18,  19,  26,  25
 17,  68,  69,  76,  75,  19,  20,  27,  26
 18,  69,  70,  77,  76,  20,  21,  28,  27
 19,  71,  72,  79,  78,  22,  23,  30,  29
 20,  72,  73,  80,  79,  23,  24,  31,  30
 21,  73,  74,  81,  80,  24,  25,  32,  31
 22,  74,  75,  82,  81,  25,  26,  33,  32
 23,  75,  76,  83,  82,  26,  27,  34,  33
 24,  76,  77,  84,  83,  27,  28,  35,  34
 25,  78,  79,  86,  85,  29,  30,  37,  36
 26,  79,  80,  87,  86,  30,  31,  38,  37
 27,  80,  81,  88,  87,  31,  32,  39,  38
 28,  81,  82,  89,  88,  32,  33,  40,  39
 29,  82,  83,  90,  89,  33,  34,  41,  40
 30,  83,  84,  91,  90,  34,  35,  42,  41
 31,  85,  86,  93,  92,  36,  37,  44,  43
 32,  86,  87,  94,  93,  37,  38,  45,  44
 33,  87,  88,  95,  94,  38,  39,  46,  45
 34,  88,  89,  96,  95,  39,  40,  47,  46
 35,  89,  90,  97,  96,  40,  41,  48,  47
 36,  90,  91,  98,  97,  41,  42,  49,  48
 37,  99, 100, 107, 106,  50,  51,  58,  57
 38, 100, 101, 108, 107,  51,  52,  59,  58
 39, 101, 102, 109, 108,  52,  53,  60,  59
 40, 102, 103, 110, 109,  53,  54,  61,  60
 41, 103, 104, 111, 110,  54,  55,  62,  61
 42, 104, 105, 112, 111,  55,  56,  63,  62
 43, 106, 107, 114, 113,  57,  58,  65,  64
 44, 107, 108, 115, 114,  58,  59,  66,  65
 45, 108, 109, 116, 115,  59,  60,  67,  66
 46, 109, 110, 117, 116,  60,  61,  68,  67
 47, 110, 111, 118, 117,  61,  62,  69,  68
 48, 111, 112, 119, 118,  62,  63,  70,  69
 49, 113, 114, 121, 120,  64,  65,  72,  71
 50, 114, 115, 122, 121,  65,  66,  73,  72
 51, 115, 116, 123, 122,  66,  67,  74,  73
 52, 116, 117, 124, 123,  67,  68,  75,  74
 53, 117, 118, 125, 124,  68,  69,  76,  75
 54, 118, 119, 126, 125,  69,  70,  77,  76
 55, 120, 121, 128, 127,  71,  72,  79,  78
 56, 121, 122, 129, 128,  72,  73,  80,  79
 57, 122, 123, 130, 129,  73,  74,  81,  80
 58, 123, 124, 131, 130,  74,  75,  82,  81
 59, 124, 125, 132, 131,  75,  76,  83,  82
 60, 125, 126, 133, 132,  76,  77,  84,  83
 61, 127, 128, 135, 134,  78,  79,  86,  85
 62, 128, 129, 136, 135,  79,  80,  87,  86
 63, 129, 130, 137, 136,  80,  81,  88,  87
 64, 130, 131, 138, 137,  81,  82,  89,  88
 65, 131, 132, 139, 138,  82,  83,  90,  89
 66, 132, 133, 140, 139,  83,  84,  91,  90
 67, 134, 135, 142, 141,  85,  86,  93,  92
 68, 135, 136, 143, 142,  86,  87,  94,  93
 69, 136, 137, 144, 143,  87,  88,  95,  94
 70, 137, 138, 145, 144,  88,  89,  96,  95
 71, 138, 139, 146, 145,  89,  90,  97,  96
 72, 139, 140, 147, 146,  90,  91,  98,  97
 73, 148, 149, 156, 155,  99, 100, 107, 106
 74, 149, 150, 157, 156, 100, 101, 108, 107
 75, 150, 151, 158, 157, 101, 102, 109, 108
 76, 151, 152, 159, 158, 102, 103, 110, 109
 77, 152, 153, 160, 159, 103, 104, 111, 110
 78, 153, 154, 161, 160, 104, 105, 112, 111
 79, 155, 156, 163, 162, 106, 107, 114, 113
 80, 156, 157, 164, 163, 107, 108, 115, 114
 81, 157, 158, 165, 164, 108, 109, 116, 115
 82, 158, 159, 166, 165, 109, 110, 117, 116
 83, 159, 160, 167, 166, 110, 111, 118, 117
 84, 160, 161, 168, 167, 111, 112, 119, 118
 85, 162, 163, 170, 169, 113, 114, 121, 120
 86, 163, 164, 171, 170, 114, 115, 122, 121
 87, 164, 165, 172, 171, 115, 116, 123, 122
 88, 165, 166, 173, 172, 116, 117, 124, 123
 89, 166, 167, 174, 173, 117, 118, 125, 124
 90, 167, 168, 175, 174, 118, 119, 126, 125
 91, 169, 170, 177, 176, 120, 121, 128, 127
 92, 170, 171, 178, 177, 121, 122, 129, 128
 93, 171, 172, 179, 178, 122, 123, 130, 129
 94, 172, 173, 180, 179, 123, 124, 131, 130
 95, 173, 174, 181, 180, 124, 125, 132, 131
 96, 174, 175, 182, 181, 125, 126, 133, 132
 97, 176, 177, 184, 183, 127, 128, 135, 134
 98, 177, 178, 185, 184, 128, 129, 136, 135
 99, 178, 179, 186, 185, 129, 130, 137, 136
100, 179, 180, 187, 186, 130, 131, 138, 137
101, 180, 181, 188, 187, 131, 132, 139, 138
102, 181, 182, 189, 188, 132, 133, 140, 139
103, 183, 184, 191, 190, 134, 135, 142, 141
104, 184, 185, 192, 191, 135, 136, 143, 142
105, 185, 186, 193, 192, 136, 137, 144, 143
106, 186, 187, 194, 193, 137, 138, 145, 144
107, 187, 188, 195, 194, 138, 139, 146, 145
108, 188, 189, 196, 195, 139, 140, 147, 146
109, 197, 198, 205, 204, 148, 149, 156, 155
110, 198, 199, 206, 205, 149, 150, 157, 156
111, 199, 200, 207, 206, 150, 151, 158, 157
112, 200, 201, 208, 207, 151, 152, 159, 158
113, 201, 202, 209, 208, 152, 153, 160, 159
114, 202, 203, 210, 209, 153, 154, 161, 160
115, 204, 205, 212, 211, 155, 156, 163, 162
116, 205, 206, 213, 212, 156, 157, 164, 163
117, 206, 207, 214, 213, 157, 158, 165, 164
118, 207, 208, 215, 214, 158, 159, 166, 165
119, 208, 209, 216, 215, 159, 160, 167, 166
120, 209, 210, 217, 216, 160, 161, 168, 167
121, 211, 212, 219, 218, 162, 163, 170, 169
122, 212, 213, 220, 219, 163, 164, 171, 170
123, 213, 214, 221, 220, 164, 165, 172, 171
124, 214, 215, 222, 221, 165, 166, 173, 172
125, 215, 216, 223, 222, 166, 167, 174, 173
126, 216, 217, 224, 223, 167, 168, 175, 174
127, 218, 219, 226, 225, 169, 170, 177, 176
128, 219, 220, 227, 226, 170, 171, 178, 177
129, 220, 221, 228, 227, 171, 172, 179, 178
130, 221, 222, 229, 228, 172, 173, 180, 179
131, 222, 223, 230, 229, 173, 174, 181, 180
132, 223, 224, 231, 230, 174, 175, 182, 181
133, 225, 226, 233, 232, 176, 177, 184, 183
134, 226, 227, 234, 233, 177, 178, 185, 184
135, 227, 228, 235, 234, 178, 179, 186, 185
136, 228, 229, 236, 235, 179, 180, 187, 186
137, 229, 230, 237, 236, 180, 181, 188, 187
138, 230, 231, 238, 237, 181, 182, 189, 188
139, 232, 233, 240, 239, 183, 184, 191, 190
140, 233, 234, 241, 240, 184, 185, 192, 191
141, 234, 235, 242, 241, 185, 186, 193, 192
142, 235, 236, 243, 242, 186, 187, 194, 193
143, 236, 237, 244, 243, 187, 188, 195, 194
144, 237, 238, 245, 244, 188, 189, 196, 195
145, 246, 247, 254, 253, 197, 198, 205, 204
146, 247, 248, 255, 254, 198, 199, 206, 205
147, 248, 249, 256, 255, 199, 200, 207, 206
148, 249, 250, 257, 256, 200, 201, 208, 207
149, 250, 251, 258, 257, 201, 202, 209, 208
150, 251, 252, 259, 258, 202, 203, 210, 209
151, 253, 254, 261, 260, 204, 205, 212, 211
152, 254, 255, 262, 261, 205, 206, 213, 212
153, 255, 256, 263, 262, 206, 207, 214, 213
154, 256, 257, 264, 263, 207, 208, 215, 214
155, 257, 258, 265, 264, 208, 209, 216, 215
156, 258, 259, 266, 265, 209, 210, 217, 216
157, 260, 261, 268, 267, 211, 212, 219, 218
158, 261, 262, 269, 268, 212, 213, 220, 219
159, 262, 263, 270, 269, 213, 214, 221, 220
160, 263, 264, 271, 270, 214, 215, 222, 221
161, 264, 265, 272, 271, 215, 216, 223, 222
162, 265, 266, 273, 272, 216, 217, 224, 223
163, 267, 268, 275, 274, 218, 219, 226, 225
164, 268, 269, 276, 275, 219, 220, 227, 226
165, 269, 270, 277, 276, 220, 221, 228, 227
166, 270, 271, 278, 277, 221, 222, 229, 228
167, 271, 272, 279, 278, 222, 223, 230, 229
168, 272, 273, 280, 279, 223, 224, 231, 230
169, 274, 275, 282, 281, 225, 226, 233, 232
170, 275, 276, 283, 282, 226, 227, 234, 233
171, 276, 277, 284, 283, 227, 228, 235, 234
172, 277, 278, 285, 284, 228, 229, 236, 235
173, 278, 279, 286, 285, 229, 230, 237, 236
174, 279, 280, 287, 286, 230, 231, 238, 237
175, 281, 282, 289, 288, 232, 233, 240, 239
176, 282, 283, 290, 289, 233, 234, 241, 240
177, 283, 284, 291, 290, 234, 235, 242, 241
178, 284, 285, 292, 291, 235, 236, 243, 242
179, 285, 286, 293, 292, 236, 237, 244, 243
180, 286, 287, 294, 293, 237, 238, 245, 244
181, 295, 296, 303, 302, 246, 247, 254, 253
182, 296, 297, 304, 303, 247, 248, 255, 254
183, 297, 298, 305, 304, 248, 249, 256, 255
184, 298, 299, 306, 305, 249, 250, 257, 256
185, 299, 300, 307, 306, 250, 251, 258, 257
186, 300, 301, 308, 307, 251, 252, 259, 258
187, 302, 303, 310, 309, 253, 254, 261, 260
188, 303, 304, 311, 310, 254, 255, 262, 261
189, 304, 305, 312, 311, 255, 256, 263, 262
190, 305, 306, 313, 312, 256, 257, 264, 263
191, 306, 307, 314, 313, 257, 258, 265, 264
192, 307, 308, 315, 314, 258, 259, 266, 265
193, 309, 310, 317, 316, 260, 261, 268, 267
194, 310, 311, 318, 317, 261, 262, 269, 268
195, 311, 312, 319, 318, 262, 263, 270, 269
196, 312, 313, 320, 319, 263, 264, 271, 270
197, 313, 314, 321, 320, 264, 265, 272, 271
198, 314, 315, 322, 321, 265, 266, 273, 272
199, 316, 317, 324, 323, 267, 268, 275, 274
200, 317, 318, 325, 324, 268, 269, 276, 275
201, 318, 319, 326, 325, 269, 270, 277, 276
202, 319, 320, 327, 326, 270, 271, 278, 277
203, 320, 321, 328, 327, 271, 272, 279, 278
204, 321, 322, 329, 328, 272, 273, 280, 279
205, 323, 324, 331, 330, 274, 275, 282, 281
206, 324, 325, 332, 331, 275, 276, 283, 282
207, 325, 326, 333, 332, 276, 277, 284, 283
208, 326, 327, 334, 333, 277, 278, 285, 284
209, 327, 328, 335, 334, 278, 279, 286, 285
210, 328, 329, 336, 335, 279, 280, 287, 286
211, 330, 331, 338, 337, 281, 282, 289, 288
212, 331, 332, 339, 338, 282, 283, 290, 289
213, 332, 333, 340, 339, 283, 284, 291, 290
214, 333, 334, 341, 340, 284, 285, 292, 291
215, 334, 335, 342, 341, 285, 286, 293, 292
216, 335, 336, 343, 342, 286, 287, 294, 293
*Nset, nset=_PickedSet3, internal, generate
   1,  343,    1
*Elset, elset=_PickedSet3, internal, generate
   1,  216,    1
** Section: Section-1
*Solid Section, elset=_PickedSet3, material=Material-1
,
*End Part
**  
**
** ASSEMBLY
**
*Assembly, name=Assembly
**  
*Instance, name=Part-1-1, part=Part-1
*End Instance
**  
*End Assembly
** 
** MATERIALS
** 
*Material, name=Material-1
*Elastic
1., 0.3
