*Heading
** Job name: Cube_E27 Model name: Model-1
** Generated by: Abaqus/CAE 2020
*Preprint, echo=NO, model=NO, history=NO, contact=NO
**
** PARTS
**
*Part, name=Part-1
*Node
      1,          -5.,          -5.,          10.
      2,          -5.,  -1.66666663,          10.
      3,          -5.,   1.66666663,          10.
      4,          -5.,           5.,          10.
      5,          -5.,          -5.,   6.66666651
      6,          -5.,  -1.66666663,   6.66666651
      7,          -5.,   1.66666663,   6.66666651
      8,          -5.,           5.,   6.66666651
      9,          -5.,          -5.,   3.33333325
     10,          -5.,  -1.66666663,   3.33333325
     11,          -5.,   1.66666663,   3.33333325
     12,          -5.,           5.,   3.33333325
     13,          -5.,          -5.,           0.
     14,          -5.,  -1.66666663,           0.
     15,          -5.,   1.66666663,           0.
     16,          -5.,           5.,           0.
     17,  -1.66666663,          -5.,          10.
     18,  -1.66666663,  -1.66666663,          10.
     19,  -1.66666663,   1.66666663,          10.
     20,  -1.66666663,           5.,          10.
     21,  -1.66666663,          -5.,   6.66666651
     22,  -1.66666663,  -1.66666663,   6.66666651
     23,  -1.66666663,   1.66666663,   6.66666651
     24,  -1.66666663,           5.,   6.66666651
     25,  -1.66666663,          -5.,   3.33333325
     26,  -1.66666663,  -1.66666663,   3.33333325
     27,  -1.66666663,   1.66666663,   3.33333325
     28,  -1.66666663,           5.,   3.33333325
     29,  -1.66666663,          -5.,           0.
     30,  -1.66666663,  -1.66666663,           0.
     31,  -1.66666663,   1.66666663,           0.
     32,  -1.66666663,           5.,           0.
     33,   1.66666663,          -5.,          10.
     34,   1.66666663,  -1.66666663,          10.
     35,   1.66666663,   1.66666663,          10.
     36,   1.66666663,           5.,          10.
     37,   1.66666663,          -5.,   6.66666651
     38,   1.66666663,  -1.66666663,   6.66666651
     39,   1.66666663,   1.66666663,   6.66666651
     40,   1.66666663,           5.,   6.66666651
     41,   1.66666663,          -5.,   3.33333325
     42,   1.66666663,  -1.66666663,   3.33333325
     43,   1.66666663,   1.66666663,   3.33333325
     44,   1.66666663,           5.,   3.33333325
     45,   1.66666663,          -5.,           0.
     46,   1.66666663,  -1.66666663,           0.
     47,   1.66666663,   1.66666663,           0.
     48,   1.66666663,           5.,           0.
     49,           5.,          -5.,          10.
     50,           5.,  -1.66666663,          10.
     51,           5.,   1.66666663,          10.
     52,           5.,           5.,          10.
     53,           5.,          -5.,   6.66666651
     54,           5.,  -1.66666663,   6.66666651
     55,           5.,   1.66666663,   6.66666651
     56,           5.,           5.,   6.66666651
     57,           5.,          -5.,   3.33333325
     58,           5.,  -1.66666663,   3.33333325
     59,           5.,   1.66666663,   3.33333325
     60,           5.,           5.,   3.33333325
     61,           5.,          -5.,           0.
     62,           5.,  -1.66666663,           0.
     63,           5.,   1.66666663,           0.
     64,           5.,           5.,           0.
*Element, type=C3D8R
 1, 17, 18, 22, 21,  1,  2,  6,  5
 2, 18, 19, 23, 22,  2,  3,  7,  6
 3, 19, 20, 24, 23,  3,  4,  8,  7
 4, 21, 22, 26, 25,  5,  6, 10,  9
 5, 22, 23, 27, 26,  6,  7, 11, 10
 6, 23, 24, 28, 27,  7,  8, 12, 11
 7, 25, 26, 30, 29,  9, 10, 14, 13
 8, 26, 27, 31, 30, 10, 11, 15, 14
 9, 27, 28, 32, 31, 11, 12, 16, 15
10, 33, 34, 38, 37, 17, 18, 22, 21
11, 34, 35, 39, 38, 18, 19, 23, 22
12, 35, 36, 40, 39, 19, 20, 24, 23
13, 37, 38, 42, 41, 21, 22, 26, 25
14, 38, 39, 43, 42, 22, 23, 27, 26
15, 39, 40, 44, 43, 23, 24, 28, 27
16, 41, 42, 46, 45, 25, 26, 30, 29
17, 42, 43, 47, 46, 26, 27, 31, 30
18, 43, 44, 48, 47, 27, 28, 32, 31
19, 49, 50, 54, 53, 33, 34, 38, 37
20, 50, 51, 55, 54, 34, 35, 39, 38
21, 51, 52, 56, 55, 35, 36, 40, 39
22, 53, 54, 58, 57, 37, 38, 42, 41
23, 54, 55, 59, 58, 38, 39, 43, 42
24, 55, 56, 60, 59, 39, 40, 44, 43
25, 57, 58, 62, 61, 41, 42, 46, 45
26, 58, 59, 63, 62, 42, 43, 47, 46
27, 59, 60, 64, 63, 43, 44, 48, 47
*Nset, nset=_PickedSet3, internal, generate
  1,  64,   1
*Elset, elset=_PickedSet3, internal, generate
  1,  27,   1
** Section: Section-1
*Solid Section, elset=_PickedSet3, material=Material-1
,
*End Part
**  
**
** ASSEMBLY
**
*Assembly, name=Assembly
**  
*Instance, name=Part-1-1, part=Part-1
*End Instance
**  
*End Assembly
** 
** MATERIALS
** 
*Material, name=Material-1
*Elastic
1., 0.3
