*Heading
** Job name: Cube_E512 Model name: Model-1
** Generated by: Abaqus/CAE 2020
*Preprint, echo=NO, model=NO, history=NO, contact=NO
**
** PARTS
**
*Part, name=Part-1
*Node
      1,          -5.,          -5.,          10.
      2,          -5.,        -3.75,          10.
      3,          -5.,         -2.5,          10.
      4,          -5.,        -1.25,          10.
      5,          -5.,           0.,          10.
      6,          -5.,         1.25,          10.
      7,          -5.,          2.5,          10.
      8,          -5.,         3.75,          10.
      9,          -5.,           5.,          10.
     10,          -5.,          -5.,         8.75
     11,          -5.,        -3.75,         8.75
     12,          -5.,         -2.5,         8.75
     13,          -5.,        -1.25,         8.75
     14,          -5.,           0.,         8.75
     15,          -5.,         1.25,         8.75
     16,          -5.,          2.5,         8.75
     17,          -5.,         3.75,         8.75
     18,          -5.,           5.,         8.75
     19,          -5.,          -5.,          7.5
     20,          -5.,        -3.75,          7.5
     21,          -5.,         -2.5,          7.5
     22,          -5.,        -1.25,          7.5
     23,          -5.,           0.,          7.5
     24,          -5.,         1.25,          7.5
     25,          -5.,          2.5,          7.5
     26,          -5.,         3.75,          7.5
     27,          -5.,           5.,          7.5
     28,          -5.,          -5.,         6.25
     29,          -5.,        -3.75,         6.25
     30,          -5.,         -2.5,         6.25
     31,          -5.,        -1.25,         6.25
     32,          -5.,           0.,         6.25
     33,          -5.,         1.25,         6.25
     34,          -5.,          2.5,         6.25
     35,          -5.,         3.75,         6.25
     36,          -5.,           5.,         6.25
     37,          -5.,          -5.,           5.
     38,          -5.,        -3.75,           5.
     39,          -5.,         -2.5,           5.
     40,          -5.,        -1.25,           5.
     41,          -5.,           0.,           5.
     42,          -5.,         1.25,           5.
     43,          -5.,          2.5,           5.
     44,          -5.,         3.75,           5.
     45,          -5.,           5.,           5.
     46,          -5.,          -5.,         3.75
     47,          -5.,        -3.75,         3.75
     48,          -5.,         -2.5,         3.75
     49,          -5.,        -1.25,         3.75
     50,          -5.,           0.,         3.75
     51,          -5.,         1.25,         3.75
     52,          -5.,          2.5,         3.75
     53,          -5.,         3.75,         3.75
     54,          -5.,           5.,         3.75
     55,          -5.,          -5.,          2.5
     56,          -5.,        -3.75,          2.5
     57,          -5.,         -2.5,          2.5
     58,          -5.,        -1.25,          2.5
     59,          -5.,           0.,          2.5
     60,          -5.,         1.25,          2.5
     61,          -5.,          2.5,          2.5
     62,          -5.,         3.75,          2.5
     63,          -5.,           5.,          2.5
     64,          -5.,          -5.,         1.25
     65,          -5.,        -3.75,         1.25
     66,          -5.,         -2.5,         1.25
     67,          -5.,        -1.25,         1.25
     68,          -5.,           0.,         1.25
     69,          -5.,         1.25,         1.25
     70,          -5.,          2.5,         1.25
     71,          -5.,         3.75,         1.25
     72,          -5.,           5.,         1.25
     73,          -5.,          -5.,           0.
     74,          -5.,        -3.75,           0.
     75,          -5.,         -2.5,           0.
     76,          -5.,        -1.25,           0.
     77,          -5.,           0.,           0.
     78,          -5.,         1.25,           0.
     79,          -5.,          2.5,           0.
     80,          -5.,         3.75,           0.
     81,          -5.,           5.,           0.
     82,        -3.75,          -5.,          10.
     83,        -3.75,        -3.75,          10.
     84,        -3.75,         -2.5,          10.
     85,        -3.75,        -1.25,          10.
     86,        -3.75,           0.,          10.
     87,        -3.75,         1.25,          10.
     88,        -3.75,          2.5,          10.
     89,        -3.75,         3.75,          10.
     90,        -3.75,           5.,          10.
     91,        -3.75,          -5.,         8.75
     92,        -3.75,        -3.75,         8.75
     93,        -3.75,         -2.5,         8.75
     94,        -3.75,        -1.25,         8.75
     95,        -3.75,           0.,         8.75
     96,        -3.75,         1.25,         8.75
     97,        -3.75,          2.5,         8.75
     98,        -3.75,         3.75,         8.75
     99,        -3.75,           5.,         8.75
    100,        -3.75,          -5.,          7.5
    101,        -3.75,        -3.75,          7.5
    102,        -3.75,         -2.5,          7.5
    103,        -3.75,        -1.25,          7.5
    104,        -3.75,           0.,          7.5
    105,        -3.75,         1.25,          7.5
    106,        -3.75,          2.5,          7.5
    107,        -3.75,         3.75,          7.5
    108,        -3.75,           5.,          7.5
    109,        -3.75,          -5.,         6.25
    110,        -3.75,        -3.75,         6.25
    111,        -3.75,         -2.5,         6.25
    112,        -3.75,        -1.25,         6.25
    113,        -3.75,           0.,         6.25
    114,        -3.75,         1.25,         6.25
    115,        -3.75,          2.5,         6.25
    116,        -3.75,         3.75,         6.25
    117,        -3.75,           5.,         6.25
    118,        -3.75,          -5.,           5.
    119,        -3.75,        -3.75,           5.
    120,        -3.75,         -2.5,           5.
    121,        -3.75,        -1.25,           5.
    122,        -3.75,           0.,           5.
    123,        -3.75,         1.25,           5.
    124,        -3.75,          2.5,           5.
    125,        -3.75,         3.75,           5.
    126,        -3.75,           5.,           5.
    127,        -3.75,          -5.,         3.75
    128,        -3.75,        -3.75,         3.75
    129,        -3.75,         -2.5,         3.75
    130,        -3.75,        -1.25,         3.75
    131,        -3.75,           0.,         3.75
    132,        -3.75,         1.25,         3.75
    133,        -3.75,          2.5,         3.75
    134,        -3.75,         3.75,         3.75
    135,        -3.75,           5.,         3.75
    136,        -3.75,          -5.,          2.5
    137,        -3.75,        -3.75,          2.5
    138,        -3.75,         -2.5,          2.5
    139,        -3.75,        -1.25,          2.5
    140,        -3.75,           0.,          2.5
    141,        -3.75,         1.25,          2.5
    142,        -3.75,          2.5,          2.5
    143,        -3.75,         3.75,          2.5
    144,        -3.75,           5.,          2.5
    145,        -3.75,          -5.,         1.25
    146,        -3.75,        -3.75,         1.25
    147,        -3.75,         -2.5,         1.25
    148,        -3.75,        -1.25,         1.25
    149,        -3.75,           0.,         1.25
    150,        -3.75,         1.25,         1.25
    151,        -3.75,          2.5,         1.25
    152,        -3.75,         3.75,         1.25
    153,        -3.75,           5.,         1.25
    154,        -3.75,          -5.,           0.
    155,        -3.75,        -3.75,           0.
    156,        -3.75,         -2.5,           0.
    157,        -3.75,        -1.25,           0.
    158,        -3.75,           0.,           0.
    159,        -3.75,         1.25,           0.
    160,        -3.75,          2.5,           0.
    161,        -3.75,         3.75,           0.
    162,        -3.75,           5.,           0.
    163,         -2.5,          -5.,          10.
    164,         -2.5,        -3.75,          10.
    165,         -2.5,         -2.5,          10.
    166,         -2.5,        -1.25,          10.
    167,         -2.5,           0.,          10.
    168,         -2.5,         1.25,          10.
    169,         -2.5,          2.5,          10.
    170,         -2.5,         3.75,          10.
    171,         -2.5,           5.,          10.
    172,         -2.5,          -5.,         8.75
    173,         -2.5,        -3.75,         8.75
    174,         -2.5,         -2.5,         8.75
    175,         -2.5,        -1.25,         8.75
    176,         -2.5,           0.,         8.75
    177,         -2.5,         1.25,         8.75
    178,         -2.5,          2.5,         8.75
    179,         -2.5,         3.75,         8.75
    180,         -2.5,           5.,         8.75
    181,         -2.5,          -5.,          7.5
    182,         -2.5,        -3.75,          7.5
    183,         -2.5,         -2.5,          7.5
    184,         -2.5,        -1.25,          7.5
    185,         -2.5,           0.,          7.5
    186,         -2.5,         1.25,          7.5
    187,         -2.5,          2.5,          7.5
    188,         -2.5,         3.75,          7.5
    189,         -2.5,           5.,          7.5
    190,         -2.5,          -5.,         6.25
    191,         -2.5,        -3.75,         6.25
    192,         -2.5,         -2.5,         6.25
    193,         -2.5,        -1.25,         6.25
    194,         -2.5,           0.,         6.25
    195,         -2.5,         1.25,         6.25
    196,         -2.5,          2.5,         6.25
    197,         -2.5,         3.75,         6.25
    198,         -2.5,           5.,         6.25
    199,         -2.5,          -5.,           5.
    200,         -2.5,        -3.75,           5.
    201,         -2.5,         -2.5,           5.
    202,         -2.5,        -1.25,           5.
    203,         -2.5,           0.,           5.
    204,         -2.5,         1.25,           5.
    205,         -2.5,          2.5,           5.
    206,         -2.5,         3.75,           5.
    207,         -2.5,           5.,           5.
    208,         -2.5,          -5.,         3.75
    209,         -2.5,        -3.75,         3.75
    210,         -2.5,         -2.5,         3.75
    211,         -2.5,        -1.25,         3.75
    212,         -2.5,           0.,         3.75
    213,         -2.5,         1.25,         3.75
    214,         -2.5,          2.5,         3.75
    215,         -2.5,         3.75,         3.75
    216,         -2.5,           5.,         3.75
    217,         -2.5,          -5.,          2.5
    218,         -2.5,        -3.75,          2.5
    219,         -2.5,         -2.5,          2.5
    220,         -2.5,        -1.25,          2.5
    221,         -2.5,           0.,          2.5
    222,         -2.5,         1.25,          2.5
    223,         -2.5,          2.5,          2.5
    224,         -2.5,         3.75,          2.5
    225,         -2.5,           5.,          2.5
    226,         -2.5,          -5.,         1.25
    227,         -2.5,        -3.75,         1.25
    228,         -2.5,         -2.5,         1.25
    229,         -2.5,        -1.25,         1.25
    230,         -2.5,           0.,         1.25
    231,         -2.5,         1.25,         1.25
    232,         -2.5,          2.5,         1.25
    233,         -2.5,         3.75,         1.25
    234,         -2.5,           5.,         1.25
    235,         -2.5,          -5.,           0.
    236,         -2.5,        -3.75,           0.
    237,         -2.5,         -2.5,           0.
    238,         -2.5,        -1.25,           0.
    239,         -2.5,           0.,           0.
    240,         -2.5,         1.25,           0.
    241,         -2.5,          2.5,           0.
    242,         -2.5,         3.75,           0.
    243,         -2.5,           5.,           0.
    244,        -1.25,          -5.,          10.
    245,        -1.25,        -3.75,          10.
    246,        -1.25,         -2.5,          10.
    247,        -1.25,        -1.25,          10.
    248,        -1.25,           0.,          10.
    249,        -1.25,         1.25,          10.
    250,        -1.25,          2.5,          10.
    251,        -1.25,         3.75,          10.
    252,        -1.25,           5.,          10.
    253,        -1.25,          -5.,         8.75
    254,        -1.25,        -3.75,         8.75
    255,        -1.25,         -2.5,         8.75
    256,        -1.25,        -1.25,         8.75
    257,        -1.25,           0.,         8.75
    258,        -1.25,         1.25,         8.75
    259,        -1.25,          2.5,         8.75
    260,        -1.25,         3.75,         8.75
    261,        -1.25,           5.,         8.75
    262,        -1.25,          -5.,          7.5
    263,        -1.25,        -3.75,          7.5
    264,        -1.25,         -2.5,          7.5
    265,        -1.25,        -1.25,          7.5
    266,        -1.25,           0.,          7.5
    267,        -1.25,         1.25,          7.5
    268,        -1.25,          2.5,          7.5
    269,        -1.25,         3.75,          7.5
    270,        -1.25,           5.,          7.5
    271,        -1.25,          -5.,         6.25
    272,        -1.25,        -3.75,         6.25
    273,        -1.25,         -2.5,         6.25
    274,        -1.25,        -1.25,         6.25
    275,        -1.25,           0.,         6.25
    276,        -1.25,         1.25,         6.25
    277,        -1.25,          2.5,         6.25
    278,        -1.25,         3.75,         6.25
    279,        -1.25,           5.,         6.25
    280,        -1.25,          -5.,           5.
    281,        -1.25,        -3.75,           5.
    282,        -1.25,         -2.5,           5.
    283,        -1.25,        -1.25,           5.
    284,        -1.25,           0.,           5.
    285,        -1.25,         1.25,           5.
    286,        -1.25,          2.5,           5.
    287,        -1.25,         3.75,           5.
    288,        -1.25,           5.,           5.
    289,        -1.25,          -5.,         3.75
    290,        -1.25,        -3.75,         3.75
    291,        -1.25,         -2.5,         3.75
    292,        -1.25,        -1.25,         3.75
    293,        -1.25,           0.,         3.75
    294,        -1.25,         1.25,         3.75
    295,        -1.25,          2.5,         3.75
    296,        -1.25,         3.75,         3.75
    297,        -1.25,           5.,         3.75
    298,        -1.25,          -5.,          2.5
    299,        -1.25,        -3.75,          2.5
    300,        -1.25,         -2.5,          2.5
    301,        -1.25,        -1.25,          2.5
    302,        -1.25,           0.,          2.5
    303,        -1.25,         1.25,          2.5
    304,        -1.25,          2.5,          2.5
    305,        -1.25,         3.75,          2.5
    306,        -1.25,           5.,          2.5
    307,        -1.25,          -5.,         1.25
    308,        -1.25,        -3.75,         1.25
    309,        -1.25,         -2.5,         1.25
    310,        -1.25,        -1.25,         1.25
    311,        -1.25,           0.,         1.25
    312,        -1.25,         1.25,         1.25
    313,        -1.25,          2.5,         1.25
    314,        -1.25,         3.75,         1.25
    315,        -1.25,           5.,         1.25
    316,        -1.25,          -5.,           0.
    317,        -1.25,        -3.75,           0.
    318,        -1.25,         -2.5,           0.
    319,        -1.25,        -1.25,           0.
    320,        -1.25,           0.,           0.
    321,        -1.25,         1.25,           0.
    322,        -1.25,          2.5,           0.
    323,        -1.25,         3.75,           0.
    324,        -1.25,           5.,           0.
    325,           0.,          -5.,          10.
    326,           0.,        -3.75,          10.
    327,           0.,         -2.5,          10.
    328,           0.,        -1.25,          10.
    329,           0.,           0.,          10.
    330,           0.,         1.25,          10.
    331,           0.,          2.5,          10.
    332,           0.,         3.75,          10.
    333,           0.,           5.,          10.
    334,           0.,          -5.,         8.75
    335,           0.,        -3.75,         8.75
    336,           0.,         -2.5,         8.75
    337,           0.,        -1.25,         8.75
    338,           0.,           0.,         8.75
    339,           0.,         1.25,         8.75
    340,           0.,          2.5,         8.75
    341,           0.,         3.75,         8.75
    342,           0.,           5.,         8.75
    343,           0.,          -5.,          7.5
    344,           0.,        -3.75,          7.5
    345,           0.,         -2.5,          7.5
    346,           0.,        -1.25,          7.5
    347,           0.,           0.,          7.5
    348,           0.,         1.25,          7.5
    349,           0.,          2.5,          7.5
    350,           0.,         3.75,          7.5
    351,           0.,           5.,          7.5
    352,           0.,          -5.,         6.25
    353,           0.,        -3.75,         6.25
    354,           0.,         -2.5,         6.25
    355,           0.,        -1.25,         6.25
    356,           0.,           0.,         6.25
    357,           0.,         1.25,         6.25
    358,           0.,          2.5,         6.25
    359,           0.,         3.75,         6.25
    360,           0.,           5.,         6.25
    361,           0.,          -5.,           5.
    362,           0.,        -3.75,           5.
    363,           0.,         -2.5,           5.
    364,           0.,        -1.25,           5.
    365,           0.,           0.,           5.
    366,           0.,         1.25,           5.
    367,           0.,          2.5,           5.
    368,           0.,         3.75,           5.
    369,           0.,           5.,           5.
    370,           0.,          -5.,         3.75
    371,           0.,        -3.75,         3.75
    372,           0.,         -2.5,         3.75
    373,           0.,        -1.25,         3.75
    374,           0.,           0.,         3.75
    375,           0.,         1.25,         3.75
    376,           0.,          2.5,         3.75
    377,           0.,         3.75,         3.75
    378,           0.,           5.,         3.75
    379,           0.,          -5.,          2.5
    380,           0.,        -3.75,          2.5
    381,           0.,         -2.5,          2.5
    382,           0.,        -1.25,          2.5
    383,           0.,           0.,          2.5
    384,           0.,         1.25,          2.5
    385,           0.,          2.5,          2.5
    386,           0.,         3.75,          2.5
    387,           0.,           5.,          2.5
    388,           0.,          -5.,         1.25
    389,           0.,        -3.75,         1.25
    390,           0.,         -2.5,         1.25
    391,           0.,        -1.25,         1.25
    392,           0.,           0.,         1.25
    393,           0.,         1.25,         1.25
    394,           0.,          2.5,         1.25
    395,           0.,         3.75,         1.25
    396,           0.,           5.,         1.25
    397,           0.,          -5.,           0.
    398,           0.,        -3.75,           0.
    399,           0.,         -2.5,           0.
    400,           0.,        -1.25,           0.
    401,           0.,           0.,           0.
    402,           0.,         1.25,           0.
    403,           0.,          2.5,           0.
    404,           0.,         3.75,           0.
    405,           0.,           5.,           0.
    406,         1.25,          -5.,          10.
    407,         1.25,        -3.75,          10.
    408,         1.25,         -2.5,          10.
    409,         1.25,        -1.25,          10.
    410,         1.25,           0.,          10.
    411,         1.25,         1.25,          10.
    412,         1.25,          2.5,          10.
    413,         1.25,         3.75,          10.
    414,         1.25,           5.,          10.
    415,         1.25,          -5.,         8.75
    416,         1.25,        -3.75,         8.75
    417,         1.25,         -2.5,         8.75
    418,         1.25,        -1.25,         8.75
    419,         1.25,           0.,         8.75
    420,         1.25,         1.25,         8.75
    421,         1.25,          2.5,         8.75
    422,         1.25,         3.75,         8.75
    423,         1.25,           5.,         8.75
    424,         1.25,          -5.,          7.5
    425,         1.25,        -3.75,          7.5
    426,         1.25,         -2.5,          7.5
    427,         1.25,        -1.25,          7.5
    428,         1.25,           0.,          7.5
    429,         1.25,         1.25,          7.5
    430,         1.25,          2.5,          7.5
    431,         1.25,         3.75,          7.5
    432,         1.25,           5.,          7.5
    433,         1.25,          -5.,         6.25
    434,         1.25,        -3.75,         6.25
    435,         1.25,         -2.5,         6.25
    436,         1.25,        -1.25,         6.25
    437,         1.25,           0.,         6.25
    438,         1.25,         1.25,         6.25
    439,         1.25,          2.5,         6.25
    440,         1.25,         3.75,         6.25
    441,         1.25,           5.,         6.25
    442,         1.25,          -5.,           5.
    443,         1.25,        -3.75,           5.
    444,         1.25,         -2.5,           5.
    445,         1.25,        -1.25,           5.
    446,         1.25,           0.,           5.
    447,         1.25,         1.25,           5.
    448,         1.25,          2.5,           5.
    449,         1.25,         3.75,           5.
    450,         1.25,           5.,           5.
    451,         1.25,          -5.,         3.75
    452,         1.25,        -3.75,         3.75
    453,         1.25,         -2.5,         3.75
    454,         1.25,        -1.25,         3.75
    455,         1.25,           0.,         3.75
    456,         1.25,         1.25,         3.75
    457,         1.25,          2.5,         3.75
    458,         1.25,         3.75,         3.75
    459,         1.25,           5.,         3.75
    460,         1.25,          -5.,          2.5
    461,         1.25,        -3.75,          2.5
    462,         1.25,         -2.5,          2.5
    463,         1.25,        -1.25,          2.5
    464,         1.25,           0.,          2.5
    465,         1.25,         1.25,          2.5
    466,         1.25,          2.5,          2.5
    467,         1.25,         3.75,          2.5
    468,         1.25,           5.,          2.5
    469,         1.25,          -5.,         1.25
    470,         1.25,        -3.75,         1.25
    471,         1.25,         -2.5,         1.25
    472,         1.25,        -1.25,         1.25
    473,         1.25,           0.,         1.25
    474,         1.25,         1.25,         1.25
    475,         1.25,          2.5,         1.25
    476,         1.25,         3.75,         1.25
    477,         1.25,           5.,         1.25
    478,         1.25,          -5.,           0.
    479,         1.25,        -3.75,           0.
    480,         1.25,         -2.5,           0.
    481,         1.25,        -1.25,           0.
    482,         1.25,           0.,           0.
    483,         1.25,         1.25,           0.
    484,         1.25,          2.5,           0.
    485,         1.25,         3.75,           0.
    486,         1.25,           5.,           0.
    487,          2.5,          -5.,          10.
    488,          2.5,        -3.75,          10.
    489,          2.5,         -2.5,          10.
    490,          2.5,        -1.25,          10.
    491,          2.5,           0.,          10.
    492,          2.5,         1.25,          10.
    493,          2.5,          2.5,          10.
    494,          2.5,         3.75,          10.
    495,          2.5,           5.,          10.
    496,          2.5,          -5.,         8.75
    497,          2.5,        -3.75,         8.75
    498,          2.5,         -2.5,         8.75
    499,          2.5,        -1.25,         8.75
    500,          2.5,           0.,         8.75
    501,          2.5,         1.25,         8.75
    502,          2.5,          2.5,         8.75
    503,          2.5,         3.75,         8.75
    504,          2.5,           5.,         8.75
    505,          2.5,          -5.,          7.5
    506,          2.5,        -3.75,          7.5
    507,          2.5,         -2.5,          7.5
    508,          2.5,        -1.25,          7.5
    509,          2.5,           0.,          7.5
    510,          2.5,         1.25,          7.5
    511,          2.5,          2.5,          7.5
    512,          2.5,         3.75,          7.5
    513,          2.5,           5.,          7.5
    514,          2.5,          -5.,         6.25
    515,          2.5,        -3.75,         6.25
    516,          2.5,         -2.5,         6.25
    517,          2.5,        -1.25,         6.25
    518,          2.5,           0.,         6.25
    519,          2.5,         1.25,         6.25
    520,          2.5,          2.5,         6.25
    521,          2.5,         3.75,         6.25
    522,          2.5,           5.,         6.25
    523,          2.5,          -5.,           5.
    524,          2.5,        -3.75,           5.
    525,          2.5,         -2.5,           5.
    526,          2.5,        -1.25,           5.
    527,          2.5,           0.,           5.
    528,          2.5,         1.25,           5.
    529,          2.5,          2.5,           5.
    530,          2.5,         3.75,           5.
    531,          2.5,           5.,           5.
    532,          2.5,          -5.,         3.75
    533,          2.5,        -3.75,         3.75
    534,          2.5,         -2.5,         3.75
    535,          2.5,        -1.25,         3.75
    536,          2.5,           0.,         3.75
    537,          2.5,         1.25,         3.75
    538,          2.5,          2.5,         3.75
    539,          2.5,         3.75,         3.75
    540,          2.5,           5.,         3.75
    541,          2.5,          -5.,          2.5
    542,          2.5,        -3.75,          2.5
    543,          2.5,         -2.5,          2.5
    544,          2.5,        -1.25,          2.5
    545,          2.5,           0.,          2.5
    546,          2.5,         1.25,          2.5
    547,          2.5,          2.5,          2.5
    548,          2.5,         3.75,          2.5
    549,          2.5,           5.,          2.5
    550,          2.5,          -5.,         1.25
    551,          2.5,        -3.75,         1.25
    552,          2.5,         -2.5,         1.25
    553,          2.5,        -1.25,         1.25
    554,          2.5,           0.,         1.25
    555,          2.5,         1.25,         1.25
    556,          2.5,          2.5,         1.25
    557,          2.5,         3.75,         1.25
    558,          2.5,           5.,         1.25
    559,          2.5,          -5.,           0.
    560,          2.5,        -3.75,           0.
    561,          2.5,         -2.5,           0.
    562,          2.5,        -1.25,           0.
    563,          2.5,           0.,           0.
    564,          2.5,         1.25,           0.
    565,          2.5,          2.5,           0.
    566,          2.5,         3.75,           0.
    567,          2.5,           5.,           0.
    568,         3.75,          -5.,          10.
    569,         3.75,        -3.75,          10.
    570,         3.75,         -2.5,          10.
    571,         3.75,        -1.25,          10.
    572,         3.75,           0.,          10.
    573,         3.75,         1.25,          10.
    574,         3.75,          2.5,          10.
    575,         3.75,         3.75,          10.
    576,         3.75,           5.,          10.
    577,         3.75,          -5.,         8.75
    578,         3.75,        -3.75,         8.75
    579,         3.75,         -2.5,         8.75
    580,         3.75,        -1.25,         8.75
    581,         3.75,           0.,         8.75
    582,         3.75,         1.25,         8.75
    583,         3.75,          2.5,         8.75
    584,         3.75,         3.75,         8.75
    585,         3.75,           5.,         8.75
    586,         3.75,          -5.,          7.5
    587,         3.75,        -3.75,          7.5
    588,         3.75,         -2.5,          7.5
    589,         3.75,        -1.25,          7.5
    590,         3.75,           0.,          7.5
    591,         3.75,         1.25,          7.5
    592,         3.75,          2.5,          7.5
    593,         3.75,         3.75,          7.5
    594,         3.75,           5.,          7.5
    595,         3.75,          -5.,         6.25
    596,         3.75,        -3.75,         6.25
    597,         3.75,         -2.5,         6.25
    598,         3.75,        -1.25,         6.25
    599,         3.75,           0.,         6.25
    600,         3.75,         1.25,         6.25
    601,         3.75,          2.5,         6.25
    602,         3.75,         3.75,         6.25
    603,         3.75,           5.,         6.25
    604,         3.75,          -5.,           5.
    605,         3.75,        -3.75,           5.
    606,         3.75,         -2.5,           5.
    607,         3.75,        -1.25,           5.
    608,         3.75,           0.,           5.
    609,         3.75,         1.25,           5.
    610,         3.75,          2.5,           5.
    611,         3.75,         3.75,           5.
    612,         3.75,           5.,           5.
    613,         3.75,          -5.,         3.75
    614,         3.75,        -3.75,         3.75
    615,         3.75,         -2.5,         3.75
    616,         3.75,        -1.25,         3.75
    617,         3.75,           0.,         3.75
    618,         3.75,         1.25,         3.75
    619,         3.75,          2.5,         3.75
    620,         3.75,         3.75,         3.75
    621,         3.75,           5.,         3.75
    622,         3.75,          -5.,          2.5
    623,         3.75,        -3.75,          2.5
    624,         3.75,         -2.5,          2.5
    625,         3.75,        -1.25,          2.5
    626,         3.75,           0.,          2.5
    627,         3.75,         1.25,          2.5
    628,         3.75,          2.5,          2.5
    629,         3.75,         3.75,          2.5
    630,         3.75,           5.,          2.5
    631,         3.75,          -5.,         1.25
    632,         3.75,        -3.75,         1.25
    633,         3.75,         -2.5,         1.25
    634,         3.75,        -1.25,         1.25
    635,         3.75,           0.,         1.25
    636,         3.75,         1.25,         1.25
    637,         3.75,          2.5,         1.25
    638,         3.75,         3.75,         1.25
    639,         3.75,           5.,         1.25
    640,         3.75,          -5.,           0.
    641,         3.75,        -3.75,           0.
    642,         3.75,         -2.5,           0.
    643,         3.75,        -1.25,           0.
    644,         3.75,           0.,           0.
    645,         3.75,         1.25,           0.
    646,         3.75,          2.5,           0.
    647,         3.75,         3.75,           0.
    648,         3.75,           5.,           0.
    649,           5.,          -5.,          10.
    650,           5.,        -3.75,          10.
    651,           5.,         -2.5,          10.
    652,           5.,        -1.25,          10.
    653,           5.,           0.,          10.
    654,           5.,         1.25,          10.
    655,           5.,          2.5,          10.
    656,           5.,         3.75,          10.
    657,           5.,           5.,          10.
    658,           5.,          -5.,         8.75
    659,           5.,        -3.75,         8.75
    660,           5.,         -2.5,         8.75
    661,           5.,        -1.25,         8.75
    662,           5.,           0.,         8.75
    663,           5.,         1.25,         8.75
    664,           5.,          2.5,         8.75
    665,           5.,         3.75,         8.75
    666,           5.,           5.,         8.75
    667,           5.,          -5.,          7.5
    668,           5.,        -3.75,          7.5
    669,           5.,         -2.5,          7.5
    670,           5.,        -1.25,          7.5
    671,           5.,           0.,          7.5
    672,           5.,         1.25,          7.5
    673,           5.,          2.5,          7.5
    674,           5.,         3.75,          7.5
    675,           5.,           5.,          7.5
    676,           5.,          -5.,         6.25
    677,           5.,        -3.75,         6.25
    678,           5.,         -2.5,         6.25
    679,           5.,        -1.25,         6.25
    680,           5.,           0.,         6.25
    681,           5.,         1.25,         6.25
    682,           5.,          2.5,         6.25
    683,           5.,         3.75,         6.25
    684,           5.,           5.,         6.25
    685,           5.,          -5.,           5.
    686,           5.,        -3.75,           5.
    687,           5.,         -2.5,           5.
    688,           5.,        -1.25,           5.
    689,           5.,           0.,           5.
    690,           5.,         1.25,           5.
    691,           5.,          2.5,           5.
    692,           5.,         3.75,           5.
    693,           5.,           5.,           5.
    694,           5.,          -5.,         3.75
    695,           5.,        -3.75,         3.75
    696,           5.,         -2.5,         3.75
    697,           5.,        -1.25,         3.75
    698,           5.,           0.,         3.75
    699,           5.,         1.25,         3.75
    700,           5.,          2.5,         3.75
    701,           5.,         3.75,         3.75
    702,           5.,           5.,         3.75
    703,           5.,          -5.,          2.5
    704,           5.,        -3.75,          2.5
    705,           5.,         -2.5,          2.5
    706,           5.,        -1.25,          2.5
    707,           5.,           0.,          2.5
    708,           5.,         1.25,          2.5
    709,           5.,          2.5,          2.5
    710,           5.,         3.75,          2.5
    711,           5.,           5.,          2.5
    712,           5.,          -5.,         1.25
    713,           5.,        -3.75,         1.25
    714,           5.,         -2.5,         1.25
    715,           5.,        -1.25,         1.25
    716,           5.,           0.,         1.25
    717,           5.,         1.25,         1.25
    718,           5.,          2.5,         1.25
    719,           5.,         3.75,         1.25
    720,           5.,           5.,         1.25
    721,           5.,          -5.,           0.
    722,           5.,        -3.75,           0.
    723,           5.,         -2.5,           0.
    724,           5.,        -1.25,           0.
    725,           5.,           0.,           0.
    726,           5.,         1.25,           0.
    727,           5.,          2.5,           0.
    728,           5.,         3.75,           0.
    729,           5.,           5.,           0.
*Element, type=C3D8R
  1,  82,  83,  92,  91,   1,   2,  11,  10
  2,  83,  84,  93,  92,   2,   3,  12,  11
  3,  84,  85,  94,  93,   3,   4,  13,  12
  4,  85,  86,  95,  94,   4,   5,  14,  13
  5,  86,  87,  96,  95,   5,   6,  15,  14
  6,  87,  88,  97,  96,   6,   7,  16,  15
  7,  88,  89,  98,  97,   7,   8,  17,  16
  8,  89,  90,  99,  98,   8,   9,  18,  17
  9,  91,  92, 101, 100,  10,  11,  20,  19
 10,  92,  93, 102, 101,  11,  12,  21,  20
 11,  93,  94, 103, 102,  12,  13,  22,  21
 12,  94,  95, 104, 103,  13,  14,  23,  22
 13,  95,  96, 105, 104,  14,  15,  24,  23
 14,  96,  97, 106, 105,  15,  16,  25,  24
 15,  97,  98, 107, 106,  16,  17,  26,  25
 16,  98,  99, 108, 107,  17,  18,  27,  26
 17, 100, 101, 110, 109,  19,  20,  29,  28
 18, 101, 102, 111, 110,  20,  21,  30,  29
 19, 102, 103, 112, 111,  21,  22,  31,  30
 20, 103, 104, 113, 112,  22,  23,  32,  31
 21, 104, 105, 114, 113,  23,  24,  33,  32
 22, 105, 106, 115, 114,  24,  25,  34,  33
 23, 106, 107, 116, 115,  25,  26,  35,  34
 24, 107, 108, 117, 116,  26,  27,  36,  35
 25, 109, 110, 119, 118,  28,  29,  38,  37
 26, 110, 111, 120, 119,  29,  30,  39,  38
 27, 111, 112, 121, 120,  30,  31,  40,  39
 28, 112, 113, 122, 121,  31,  32,  41,  40
 29, 113, 114, 123, 122,  32,  33,  42,  41
 30, 114, 115, 124, 123,  33,  34,  43,  42
 31, 115, 116, 125, 124,  34,  35,  44,  43
 32, 116, 117, 126, 125,  35,  36,  45,  44
 33, 118, 119, 128, 127,  37,  38,  47,  46
 34, 119, 120, 129, 128,  38,  39,  48,  47
 35, 120, 121, 130, 129,  39,  40,  49,  48
 36, 121, 122, 131, 130,  40,  41,  50,  49
 37, 122, 123, 132, 131,  41,  42,  51,  50
 38, 123, 124, 133, 132,  42,  43,  52,  51
 39, 124, 125, 134, 133,  43,  44,  53,  52
 40, 125, 126, 135, 134,  44,  45,  54,  53
 41, 127, 128, 137, 136,  46,  47,  56,  55
 42, 128, 129, 138, 137,  47,  48,  57,  56
 43, 129, 130, 139, 138,  48,  49,  58,  57
 44, 130, 131, 140, 139,  49,  50,  59,  58
 45, 131, 132, 141, 140,  50,  51,  60,  59
 46, 132, 133, 142, 141,  51,  52,  61,  60
 47, 133, 134, 143, 142,  52,  53,  62,  61
 48, 134, 135, 144, 143,  53,  54,  63,  62
 49, 136, 137, 146, 145,  55,  56,  65,  64
 50, 137, 138, 147, 146,  56,  57,  66,  65
 51, 138, 139, 148, 147,  57,  58,  67,  66
 52, 139, 140, 149, 148,  58,  59,  68,  67
 53, 140, 141, 150, 149,  59,  60,  69,  68
 54, 141, 142, 151, 150,  60,  61,  70,  69
 55, 142, 143, 152, 151,  61,  62,  71,  70
 56, 143, 144, 153, 152,  62,  63,  72,  71
 57, 145, 146, 155, 154,  64,  65,  74,  73
 58, 146, 147, 156, 155,  65,  66,  75,  74
 59, 147, 148, 157, 156,  66,  67,  76,  75
 60, 148, 149, 158, 157,  67,  68,  77,  76
 61, 149, 150, 159, 158,  68,  69,  78,  77
 62, 150, 151, 160, 159,  69,  70,  79,  78
 63, 151, 152, 161, 160,  70,  71,  80,  79
 64, 152, 153, 162, 161,  71,  72,  81,  80
 65, 163, 164, 173, 172,  82,  83,  92,  91
 66, 164, 165, 174, 173,  83,  84,  93,  92
 67, 165, 166, 175, 174,  84,  85,  94,  93
 68, 166, 167, 176, 175,  85,  86,  95,  94
 69, 167, 168, 177, 176,  86,  87,  96,  95
 70, 168, 169, 178, 177,  87,  88,  97,  96
 71, 169, 170, 179, 178,  88,  89,  98,  97
 72, 170, 171, 180, 179,  89,  90,  99,  98
 73, 172, 173, 182, 181,  91,  92, 101, 100
 74, 173, 174, 183, 182,  92,  93, 102, 101
 75, 174, 175, 184, 183,  93,  94, 103, 102
 76, 175, 176, 185, 184,  94,  95, 104, 103
 77, 176, 177, 186, 185,  95,  96, 105, 104
 78, 177, 178, 187, 186,  96,  97, 106, 105
 79, 178, 179, 188, 187,  97,  98, 107, 106
 80, 179, 180, 189, 188,  98,  99, 108, 107
 81, 181, 182, 191, 190, 100, 101, 110, 109
 82, 182, 183, 192, 191, 101, 102, 111, 110
 83, 183, 184, 193, 192, 102, 103, 112, 111
 84, 184, 185, 194, 193, 103, 104, 113, 112
 85, 185, 186, 195, 194, 104, 105, 114, 113
 86, 186, 187, 196, 195, 105, 106, 115, 114
 87, 187, 188, 197, 196, 106, 107, 116, 115
 88, 188, 189, 198, 197, 107, 108, 117, 116
 89, 190, 191, 200, 199, 109, 110, 119, 118
 90, 191, 192, 201, 200, 110, 111, 120, 119
 91, 192, 193, 202, 201, 111, 112, 121, 120
 92, 193, 194, 203, 202, 112, 113, 122, 121
 93, 194, 195, 204, 203, 113, 114, 123, 122
 94, 195, 196, 205, 204, 114, 115, 124, 123
 95, 196, 197, 206, 205, 115, 116, 125, 124
 96, 197, 198, 207, 206, 116, 117, 126, 125
 97, 199, 200, 209, 208, 118, 119, 128, 127
 98, 200, 201, 210, 209, 119, 120, 129, 128
 99, 201, 202, 211, 210, 120, 121, 130, 129
100, 202, 203, 212, 211, 121, 122, 131, 130
101, 203, 204, 213, 212, 122, 123, 132, 131
102, 204, 205, 214, 213, 123, 124, 133, 132
103, 205, 206, 215, 214, 124, 125, 134, 133
104, 206, 207, 216, 215, 125, 126, 135, 134
105, 208, 209, 218, 217, 127, 128, 137, 136
106, 209, 210, 219, 218, 128, 129, 138, 137
107, 210, 211, 220, 219, 129, 130, 139, 138
108, 211, 212, 221, 220, 130, 131, 140, 139
109, 212, 213, 222, 221, 131, 132, 141, 140
110, 213, 214, 223, 222, 132, 133, 142, 141
111, 214, 215, 224, 223, 133, 134, 143, 142
112, 215, 216, 225, 224, 134, 135, 144, 143
113, 217, 218, 227, 226, 136, 137, 146, 145
114, 218, 219, 228, 227, 137, 138, 147, 146
115, 219, 220, 229, 228, 138, 139, 148, 147
116, 220, 221, 230, 229, 139, 140, 149, 148
117, 221, 222, 231, 230, 140, 141, 150, 149
118, 222, 223, 232, 231, 141, 142, 151, 150
119, 223, 224, 233, 232, 142, 143, 152, 151
120, 224, 225, 234, 233, 143, 144, 153, 152
121, 226, 227, 236, 235, 145, 146, 155, 154
122, 227, 228, 237, 236, 146, 147, 156, 155
123, 228, 229, 238, 237, 147, 148, 157, 156
124, 229, 230, 239, 238, 148, 149, 158, 157
125, 230, 231, 240, 239, 149, 150, 159, 158
126, 231, 232, 241, 240, 150, 151, 160, 159
127, 232, 233, 242, 241, 151, 152, 161, 160
128, 233, 234, 243, 242, 152, 153, 162, 161
129, 244, 245, 254, 253, 163, 164, 173, 172
130, 245, 246, 255, 254, 164, 165, 174, 173
131, 246, 247, 256, 255, 165, 166, 175, 174
132, 247, 248, 257, 256, 166, 167, 176, 175
133, 248, 249, 258, 257, 167, 168, 177, 176
134, 249, 250, 259, 258, 168, 169, 178, 177
135, 250, 251, 260, 259, 169, 170, 179, 178
136, 251, 252, 261, 260, 170, 171, 180, 179
137, 253, 254, 263, 262, 172, 173, 182, 181
138, 254, 255, 264, 263, 173, 174, 183, 182
139, 255, 256, 265, 264, 174, 175, 184, 183
140, 256, 257, 266, 265, 175, 176, 185, 184
141, 257, 258, 267, 266, 176, 177, 186, 185
142, 258, 259, 268, 267, 177, 178, 187, 186
143, 259, 260, 269, 268, 178, 179, 188, 187
144, 260, 261, 270, 269, 179, 180, 189, 188
145, 262, 263, 272, 271, 181, 182, 191, 190
146, 263, 264, 273, 272, 182, 183, 192, 191
147, 264, 265, 274, 273, 183, 184, 193, 192
148, 265, 266, 275, 274, 184, 185, 194, 193
149, 266, 267, 276, 275, 185, 186, 195, 194
150, 267, 268, 277, 276, 186, 187, 196, 195
151, 268, 269, 278, 277, 187, 188, 197, 196
152, 269, 270, 279, 278, 188, 189, 198, 197
153, 271, 272, 281, 280, 190, 191, 200, 199
154, 272, 273, 282, 281, 191, 192, 201, 200
155, 273, 274, 283, 282, 192, 193, 202, 201
156, 274, 275, 284, 283, 193, 194, 203, 202
157, 275, 276, 285, 284, 194, 195, 204, 203
158, 276, 277, 286, 285, 195, 196, 205, 204
159, 277, 278, 287, 286, 196, 197, 206, 205
160, 278, 279, 288, 287, 197, 198, 207, 206
161, 280, 281, 290, 289, 199, 200, 209, 208
162, 281, 282, 291, 290, 200, 201, 210, 209
163, 282, 283, 292, 291, 201, 202, 211, 210
164, 283, 284, 293, 292, 202, 203, 212, 211
165, 284, 285, 294, 293, 203, 204, 213, 212
166, 285, 286, 295, 294, 204, 205, 214, 213
167, 286, 287, 296, 295, 205, 206, 215, 214
168, 287, 288, 297, 296, 206, 207, 216, 215
169, 289, 290, 299, 298, 208, 209, 218, 217
170, 290, 291, 300, 299, 209, 210, 219, 218
171, 291, 292, 301, 300, 210, 211, 220, 219
172, 292, 293, 302, 301, 211, 212, 221, 220
173, 293, 294, 303, 302, 212, 213, 222, 221
174, 294, 295, 304, 303, 213, 214, 223, 222
175, 295, 296, 305, 304, 214, 215, 224, 223
176, 296, 297, 306, 305, 215, 216, 225, 224
177, 298, 299, 308, 307, 217, 218, 227, 226
178, 299, 300, 309, 308, 218, 219, 228, 227
179, 300, 301, 310, 309, 219, 220, 229, 228
180, 301, 302, 311, 310, 220, 221, 230, 229
181, 302, 303, 312, 311, 221, 222, 231, 230
182, 303, 304, 313, 312, 222, 223, 232, 231
183, 304, 305, 314, 313, 223, 224, 233, 232
184, 305, 306, 315, 314, 224, 225, 234, 233
185, 307, 308, 317, 316, 226, 227, 236, 235
186, 308, 309, 318, 317, 227, 228, 237, 236
187, 309, 310, 319, 318, 228, 229, 238, 237
188, 310, 311, 320, 319, 229, 230, 239, 238
189, 311, 312, 321, 320, 230, 231, 240, 239
190, 312, 313, 322, 321, 231, 232, 241, 240
191, 313, 314, 323, 322, 232, 233, 242, 241
192, 314, 315, 324, 323, 233, 234, 243, 242
193, 325, 326, 335, 334, 244, 245, 254, 253
194, 326, 327, 336, 335, 245, 246, 255, 254
195, 327, 328, 337, 336, 246, 247, 256, 255
196, 328, 329, 338, 337, 247, 248, 257, 256
197, 329, 330, 339, 338, 248, 249, 258, 257
198, 330, 331, 340, 339, 249, 250, 259, 258
199, 331, 332, 341, 340, 250, 251, 260, 259
200, 332, 333, 342, 341, 251, 252, 261, 260
201, 334, 335, 344, 343, 253, 254, 263, 262
202, 335, 336, 345, 344, 254, 255, 264, 263
203, 336, 337, 346, 345, 255, 256, 265, 264
204, 337, 338, 347, 346, 256, 257, 266, 265
205, 338, 339, 348, 347, 257, 258, 267, 266
206, 339, 340, 349, 348, 258, 259, 268, 267
207, 340, 341, 350, 349, 259, 260, 269, 268
208, 341, 342, 351, 350, 260, 261, 270, 269
209, 343, 344, 353, 352, 262, 263, 272, 271
210, 344, 345, 354, 353, 263, 264, 273, 272
211, 345, 346, 355, 354, 264, 265, 274, 273
212, 346, 347, 356, 355, 265, 266, 275, 274
213, 347, 348, 357, 356, 266, 267, 276, 275
214, 348, 349, 358, 357, 267, 268, 277, 276
215, 349, 350, 359, 358, 268, 269, 278, 277
216, 350, 351, 360, 359, 269, 270, 279, 278
217, 352, 353, 362, 361, 271, 272, 281, 280
218, 353, 354, 363, 362, 272, 273, 282, 281
219, 354, 355, 364, 363, 273, 274, 283, 282
220, 355, 356, 365, 364, 274, 275, 284, 283
221, 356, 357, 366, 365, 275, 276, 285, 284
222, 357, 358, 367, 366, 276, 277, 286, 285
223, 358, 359, 368, 367, 277, 278, 287, 286
224, 359, 360, 369, 368, 278, 279, 288, 287
225, 361, 362, 371, 370, 280, 281, 290, 289
226, 362, 363, 372, 371, 281, 282, 291, 290
227, 363, 364, 373, 372, 282, 283, 292, 291
228, 364, 365, 374, 373, 283, 284, 293, 292
229, 365, 366, 375, 374, 284, 285, 294, 293
230, 366, 367, 376, 375, 285, 286, 295, 294
231, 367, 368, 377, 376, 286, 287, 296, 295
232, 368, 369, 378, 377, 287, 288, 297, 296
233, 370, 371, 380, 379, 289, 290, 299, 298
234, 371, 372, 381, 380, 290, 291, 300, 299
235, 372, 373, 382, 381, 291, 292, 301, 300
236, 373, 374, 383, 382, 292, 293, 302, 301
237, 374, 375, 384, 383, 293, 294, 303, 302
238, 375, 376, 385, 384, 294, 295, 304, 303
239, 376, 377, 386, 385, 295, 296, 305, 304
240, 377, 378, 387, 386, 296, 297, 306, 305
241, 379, 380, 389, 388, 298, 299, 308, 307
242, 380, 381, 390, 389, 299, 300, 309, 308
243, 381, 382, 391, 390, 300, 301, 310, 309
244, 382, 383, 392, 391, 301, 302, 311, 310
245, 383, 384, 393, 392, 302, 303, 312, 311
246, 384, 385, 394, 393, 303, 304, 313, 312
247, 385, 386, 395, 394, 304, 305, 314, 313
248, 386, 387, 396, 395, 305, 306, 315, 314
249, 388, 389, 398, 397, 307, 308, 317, 316
250, 389, 390, 399, 398, 308, 309, 318, 317
251, 390, 391, 400, 399, 309, 310, 319, 318
252, 391, 392, 401, 400, 310, 311, 320, 319
253, 392, 393, 402, 401, 311, 312, 321, 320
254, 393, 394, 403, 402, 312, 313, 322, 321
255, 394, 395, 404, 403, 313, 314, 323, 322
256, 395, 396, 405, 404, 314, 315, 324, 323
257, 406, 407, 416, 415, 325, 326, 335, 334
258, 407, 408, 417, 416, 326, 327, 336, 335
259, 408, 409, 418, 417, 327, 328, 337, 336
260, 409, 410, 419, 418, 328, 329, 338, 337
261, 410, 411, 420, 419, 329, 330, 339, 338
262, 411, 412, 421, 420, 330, 331, 340, 339
263, 412, 413, 422, 421, 331, 332, 341, 340
264, 413, 414, 423, 422, 332, 333, 342, 341
265, 415, 416, 425, 424, 334, 335, 344, 343
266, 416, 417, 426, 425, 335, 336, 345, 344
267, 417, 418, 427, 426, 336, 337, 346, 345
268, 418, 419, 428, 427, 337, 338, 347, 346
269, 419, 420, 429, 428, 338, 339, 348, 347
270, 420, 421, 430, 429, 339, 340, 349, 348
271, 421, 422, 431, 430, 340, 341, 350, 349
272, 422, 423, 432, 431, 341, 342, 351, 350
273, 424, 425, 434, 433, 343, 344, 353, 352
274, 425, 426, 435, 434, 344, 345, 354, 353
275, 426, 427, 436, 435, 345, 346, 355, 354
276, 427, 428, 437, 436, 346, 347, 356, 355
277, 428, 429, 438, 437, 347, 348, 357, 356
278, 429, 430, 439, 438, 348, 349, 358, 357
279, 430, 431, 440, 439, 349, 350, 359, 358
280, 431, 432, 441, 440, 350, 351, 360, 359
281, 433, 434, 443, 442, 352, 353, 362, 361
282, 434, 435, 444, 443, 353, 354, 363, 362
283, 435, 436, 445, 444, 354, 355, 364, 363
284, 436, 437, 446, 445, 355, 356, 365, 364
285, 437, 438, 447, 446, 356, 357, 366, 365
286, 438, 439, 448, 447, 357, 358, 367, 366
287, 439, 440, 449, 448, 358, 359, 368, 367
288, 440, 441, 450, 449, 359, 360, 369, 368
289, 442, 443, 452, 451, 361, 362, 371, 370
290, 443, 444, 453, 452, 362, 363, 372, 371
291, 444, 445, 454, 453, 363, 364, 373, 372
292, 445, 446, 455, 454, 364, 365, 374, 373
293, 446, 447, 456, 455, 365, 366, 375, 374
294, 447, 448, 457, 456, 366, 367, 376, 375
295, 448, 449, 458, 457, 367, 368, 377, 376
296, 449, 450, 459, 458, 368, 369, 378, 377
297, 451, 452, 461, 460, 370, 371, 380, 379
298, 452, 453, 462, 461, 371, 372, 381, 380
299, 453, 454, 463, 462, 372, 373, 382, 381
300, 454, 455, 464, 463, 373, 374, 383, 382
301, 455, 456, 465, 464, 374, 375, 384, 383
302, 456, 457, 466, 465, 375, 376, 385, 384
303, 457, 458, 467, 466, 376, 377, 386, 385
304, 458, 459, 468, 467, 377, 378, 387, 386
305, 460, 461, 470, 469, 379, 380, 389, 388
306, 461, 462, 471, 470, 380, 381, 390, 389
307, 462, 463, 472, 471, 381, 382, 391, 390
308, 463, 464, 473, 472, 382, 383, 392, 391
309, 464, 465, 474, 473, 383, 384, 393, 392
310, 465, 466, 475, 474, 384, 385, 394, 393
311, 466, 467, 476, 475, 385, 386, 395, 394
312, 467, 468, 477, 476, 386, 387, 396, 395
313, 469, 470, 479, 478, 388, 389, 398, 397
314, 470, 471, 480, 479, 389, 390, 399, 398
315, 471, 472, 481, 480, 390, 391, 400, 399
316, 472, 473, 482, 481, 391, 392, 401, 400
317, 473, 474, 483, 482, 392, 393, 402, 401
318, 474, 475, 484, 483, 393, 394, 403, 402
319, 475, 476, 485, 484, 394, 395, 404, 403
320, 476, 477, 486, 485, 395, 396, 405, 404
321, 487, 488, 497, 496, 406, 407, 416, 415
322, 488, 489, 498, 497, 407, 408, 417, 416
323, 489, 490, 499, 498, 408, 409, 418, 417
324, 490, 491, 500, 499, 409, 410, 419, 418
325, 491, 492, 501, 500, 410, 411, 420, 419
326, 492, 493, 502, 501, 411, 412, 421, 420
327, 493, 494, 503, 502, 412, 413, 422, 421
328, 494, 495, 504, 503, 413, 414, 423, 422
329, 496, 497, 506, 505, 415, 416, 425, 424
330, 497, 498, 507, 506, 416, 417, 426, 425
331, 498, 499, 508, 507, 417, 418, 427, 426
332, 499, 500, 509, 508, 418, 419, 428, 427
333, 500, 501, 510, 509, 419, 420, 429, 428
334, 501, 502, 511, 510, 420, 421, 430, 429
335, 502, 503, 512, 511, 421, 422, 431, 430
336, 503, 504, 513, 512, 422, 423, 432, 431
337, 505, 506, 515, 514, 424, 425, 434, 433
338, 506, 507, 516, 515, 425, 426, 435, 434
339, 507, 508, 517, 516, 426, 427, 436, 435
340, 508, 509, 518, 517, 427, 428, 437, 436
341, 509, 510, 519, 518, 428, 429, 438, 437
342, 510, 511, 520, 519, 429, 430, 439, 438
343, 511, 512, 521, 520, 430, 431, 440, 439
344, 512, 513, 522, 521, 431, 432, 441, 440
345, 514, 515, 524, 523, 433, 434, 443, 442
346, 515, 516, 525, 524, 434, 435, 444, 443
347, 516, 517, 526, 525, 435, 436, 445, 444
348, 517, 518, 527, 526, 436, 437, 446, 445
349, 518, 519, 528, 527, 437, 438, 447, 446
350, 519, 520, 529, 528, 438, 439, 448, 447
351, 520, 521, 530, 529, 439, 440, 449, 448
352, 521, 522, 531, 530, 440, 441, 450, 449
353, 523, 524, 533, 532, 442, 443, 452, 451
354, 524, 525, 534, 533, 443, 444, 453, 452
355, 525, 526, 535, 534, 444, 445, 454, 453
356, 526, 527, 536, 535, 445, 446, 455, 454
357, 527, 528, 537, 536, 446, 447, 456, 455
358, 528, 529, 538, 537, 447, 448, 457, 456
359, 529, 530, 539, 538, 448, 449, 458, 457
360, 530, 531, 540, 539, 449, 450, 459, 458
361, 532, 533, 542, 541, 451, 452, 461, 460
362, 533, 534, 543, 542, 452, 453, 462, 461
363, 534, 535, 544, 543, 453, 454, 463, 462
364, 535, 536, 545, 544, 454, 455, 464, 463
365, 536, 537, 546, 545, 455, 456, 465, 464
366, 537, 538, 547, 546, 456, 457, 466, 465
367, 538, 539, 548, 547, 457, 458, 467, 466
368, 539, 540, 549, 548, 458, 459, 468, 467
369, 541, 542, 551, 550, 460, 461, 470, 469
370, 542, 543, 552, 551, 461, 462, 471, 470
371, 543, 544, 553, 552, 462, 463, 472, 471
372, 544, 545, 554, 553, 463, 464, 473, 472
373, 545, 546, 555, 554, 464, 465, 474, 473
374, 546, 547, 556, 555, 465, 466, 475, 474
375, 547, 548, 557, 556, 466, 467, 476, 475
376, 548, 549, 558, 557, 467, 468, 477, 476
377, 550, 551, 560, 559, 469, 470, 479, 478
378, 551, 552, 561, 560, 470, 471, 480, 479
379, 552, 553, 562, 561, 471, 472, 481, 480
380, 553, 554, 563, 562, 472, 473, 482, 481
381, 554, 555, 564, 563, 473, 474, 483, 482
382, 555, 556, 565, 564, 474, 475, 484, 483
383, 556, 557, 566, 565, 475, 476, 485, 484
384, 557, 558, 567, 566, 476, 477, 486, 485
385, 568, 569, 578, 577, 487, 488, 497, 496
386, 569, 570, 579, 578, 488, 489, 498, 497
387, 570, 571, 580, 579, 489, 490, 499, 498
388, 571, 572, 581, 580, 490, 491, 500, 499
389, 572, 573, 582, 581, 491, 492, 501, 500
390, 573, 574, 583, 582, 492, 493, 502, 501
391, 574, 575, 584, 583, 493, 494, 503, 502
392, 575, 576, 585, 584, 494, 495, 504, 503
393, 577, 578, 587, 586, 496, 497, 506, 505
394, 578, 579, 588, 587, 497, 498, 507, 506
395, 579, 580, 589, 588, 498, 499, 508, 507
396, 580, 581, 590, 589, 499, 500, 509, 508
397, 581, 582, 591, 590, 500, 501, 510, 509
398, 582, 583, 592, 591, 501, 502, 511, 510
399, 583, 584, 593, 592, 502, 503, 512, 511
400, 584, 585, 594, 593, 503, 504, 513, 512
401, 586, 587, 596, 595, 505, 506, 515, 514
402, 587, 588, 597, 596, 506, 507, 516, 515
403, 588, 589, 598, 597, 507, 508, 517, 516
404, 589, 590, 599, 598, 508, 509, 518, 517
405, 590, 591, 600, 599, 509, 510, 519, 518
406, 591, 592, 601, 600, 510, 511, 520, 519
407, 592, 593, 602, 601, 511, 512, 521, 520
408, 593, 594, 603, 602, 512, 513, 522, 521
409, 595, 596, 605, 604, 514, 515, 524, 523
410, 596, 597, 606, 605, 515, 516, 525, 524
411, 597, 598, 607, 606, 516, 517, 526, 525
412, 598, 599, 608, 607, 517, 518, 527, 526
413, 599, 600, 609, 608, 518, 519, 528, 527
414, 600, 601, 610, 609, 519, 520, 529, 528
415, 601, 602, 611, 610, 520, 521, 530, 529
416, 602, 603, 612, 611, 521, 522, 531, 530
417, 604, 605, 614, 613, 523, 524, 533, 532
418, 605, 606, 615, 614, 524, 525, 534, 533
419, 606, 607, 616, 615, 525, 526, 535, 534
420, 607, 608, 617, 616, 526, 527, 536, 535
421, 608, 609, 618, 617, 527, 528, 537, 536
422, 609, 610, 619, 618, 528, 529, 538, 537
423, 610, 611, 620, 619, 529, 530, 539, 538
424, 611, 612, 621, 620, 530, 531, 540, 539
425, 613, 614, 623, 622, 532, 533, 542, 541
426, 614, 615, 624, 623, 533, 534, 543, 542
427, 615, 616, 625, 624, 534, 535, 544, 543
428, 616, 617, 626, 625, 535, 536, 545, 544
429, 617, 618, 627, 626, 536, 537, 546, 545
430, 618, 619, 628, 627, 537, 538, 547, 546
431, 619, 620, 629, 628, 538, 539, 548, 547
432, 620, 621, 630, 629, 539, 540, 549, 548
433, 622, 623, 632, 631, 541, 542, 551, 550
434, 623, 624, 633, 632, 542, 543, 552, 551
435, 624, 625, 634, 633, 543, 544, 553, 552
436, 625, 626, 635, 634, 544, 545, 554, 553
437, 626, 627, 636, 635, 545, 546, 555, 554
438, 627, 628, 637, 636, 546, 547, 556, 555
439, 628, 629, 638, 637, 547, 548, 557, 556
440, 629, 630, 639, 638, 548, 549, 558, 557
441, 631, 632, 641, 640, 550, 551, 560, 559
442, 632, 633, 642, 641, 551, 552, 561, 560
443, 633, 634, 643, 642, 552, 553, 562, 561
444, 634, 635, 644, 643, 553, 554, 563, 562
445, 635, 636, 645, 644, 554, 555, 564, 563
446, 636, 637, 646, 645, 555, 556, 565, 564
447, 637, 638, 647, 646, 556, 557, 566, 565
448, 638, 639, 648, 647, 557, 558, 567, 566
449, 649, 650, 659, 658, 568, 569, 578, 577
450, 650, 651, 660, 659, 569, 570, 579, 578
451, 651, 652, 661, 660, 570, 571, 580, 579
452, 652, 653, 662, 661, 571, 572, 581, 580
453, 653, 654, 663, 662, 572, 573, 582, 581
454, 654, 655, 664, 663, 573, 574, 583, 582
455, 655, 656, 665, 664, 574, 575, 584, 583
456, 656, 657, 666, 665, 575, 576, 585, 584
457, 658, 659, 668, 667, 577, 578, 587, 586
458, 659, 660, 669, 668, 578, 579, 588, 587
459, 660, 661, 670, 669, 579, 580, 589, 588
460, 661, 662, 671, 670, 580, 581, 590, 589
461, 662, 663, 672, 671, 581, 582, 591, 590
462, 663, 664, 673, 672, 582, 583, 592, 591
463, 664, 665, 674, 673, 583, 584, 593, 592
464, 665, 666, 675, 674, 584, 585, 594, 593
465, 667, 668, 677, 676, 586, 587, 596, 595
466, 668, 669, 678, 677, 587, 588, 597, 596
467, 669, 670, 679, 678, 588, 589, 598, 597
468, 670, 671, 680, 679, 589, 590, 599, 598
469, 671, 672, 681, 680, 590, 591, 600, 599
470, 672, 673, 682, 681, 591, 592, 601, 600
471, 673, 674, 683, 682, 592, 593, 602, 601
472, 674, 675, 684, 683, 593, 594, 603, 602
473, 676, 677, 686, 685, 595, 596, 605, 604
474, 677, 678, 687, 686, 596, 597, 606, 605
475, 678, 679, 688, 687, 597, 598, 607, 606
476, 679, 680, 689, 688, 598, 599, 608, 607
477, 680, 681, 690, 689, 599, 600, 609, 608
478, 681, 682, 691, 690, 600, 601, 610, 609
479, 682, 683, 692, 691, 601, 602, 611, 610
480, 683, 684, 693, 692, 602, 603, 612, 611
481, 685, 686, 695, 694, 604, 605, 614, 613
482, 686, 687, 696, 695, 605, 606, 615, 614
483, 687, 688, 697, 696, 606, 607, 616, 615
484, 688, 689, 698, 697, 607, 608, 617, 616
485, 689, 690, 699, 698, 608, 609, 618, 617
486, 690, 691, 700, 699, 609, 610, 619, 618
487, 691, 692, 701, 700, 610, 611, 620, 619
488, 692, 693, 702, 701, 611, 612, 621, 620
489, 694, 695, 704, 703, 613, 614, 623, 622
490, 695, 696, 705, 704, 614, 615, 624, 623
491, 696, 697, 706, 705, 615, 616, 625, 624
492, 697, 698, 707, 706, 616, 617, 626, 625
493, 698, 699, 708, 707, 617, 618, 627, 626
494, 699, 700, 709, 708, 618, 619, 628, 627
495, 700, 701, 710, 709, 619, 620, 629, 628
496, 701, 702, 711, 710, 620, 621, 630, 629
497, 703, 704, 713, 712, 622, 623, 632, 631
498, 704, 705, 714, 713, 623, 624, 633, 632
499, 705, 706, 715, 714, 624, 625, 634, 633
500, 706, 707, 716, 715, 625, 626, 635, 634
501, 707, 708, 717, 716, 626, 627, 636, 635
502, 708, 709, 718, 717, 627, 628, 637, 636
503, 709, 710, 719, 718, 628, 629, 638, 637
504, 710, 711, 720, 719, 629, 630, 639, 638
505, 712, 713, 722, 721, 631, 632, 641, 640
506, 713, 714, 723, 722, 632, 633, 642, 641
507, 714, 715, 724, 723, 633, 634, 643, 642
508, 715, 716, 725, 724, 634, 635, 644, 643
509, 716, 717, 726, 725, 635, 636, 645, 644
510, 717, 718, 727, 726, 636, 637, 646, 645
511, 718, 719, 728, 727, 637, 638, 647, 646
512, 719, 720, 729, 728, 638, 639, 648, 647
*Nset, nset=_PickedSet3, internal, generate
   1,  729,    1
*Elset, elset=_PickedSet3, internal, generate
   1,  512,    1
** Section: Section-1
*Solid Section, elset=_PickedSet3, material=Material-1
,
*End Part
**  
**
** ASSEMBLY
**
*Assembly, name=Assembly
**  
*Instance, name=Part-1-1, part=Part-1
*End Instance
**  
*End Assembly
** 
** MATERIALS
** 
*Material, name=Material-1
*Elastic
1., 0.3
