*Heading
** Job name: Cube_E8 Model name: Model-1
** Generated by: Abaqus/CAE 2020
*Preprint, echo=NO, model=NO, history=NO, contact=NO
**
** PARTS
**
*Part, name=Part-1
*Node
      1,          -5.,          -5.,          10.
      2,          -5.,           0.,          10.
      3,          -5.,           5.,          10.
      4,          -5.,          -5.,           5.
      5,          -5.,           0.,           5.
      6,          -5.,           5.,           5.
      7,          -5.,          -5.,           0.
      8,          -5.,           0.,           0.
      9,          -5.,           5.,           0.
     10,           0.,          -5.,          10.
     11,           0.,           0.,          10.
     12,           0.,           5.,          10.
     13,           0.,          -5.,           5.
     14,           0.,           0.,           5.
     15,           0.,           5.,           5.
     16,           0.,          -5.,           0.
     17,           0.,           0.,           0.
     18,           0.,           5.,           0.
     19,           5.,          -5.,          10.
     20,           5.,           0.,          10.
     21,           5.,           5.,          10.
     22,           5.,          -5.,           5.
     23,           5.,           0.,           5.
     24,           5.,           5.,           5.
     25,           5.,          -5.,           0.
     26,           5.,           0.,           0.
     27,           5.,           5.,           0.
*Element, type=C3D8R
1, 10, 11, 14, 13,  1,  2,  5,  4
2, 11, 12, 15, 14,  2,  3,  6,  5
3, 13, 14, 17, 16,  4,  5,  8,  7
4, 14, 15, 18, 17,  5,  6,  9,  8
5, 19, 20, 23, 22, 10, 11, 14, 13
6, 20, 21, 24, 23, 11, 12, 15, 14
7, 22, 23, 26, 25, 13, 14, 17, 16
8, 23, 24, 27, 26, 14, 15, 18, 17
*Nset, nset=_PickedSet3, internal, generate
  1,  27,   1
*Elset, elset=_PickedSet3, internal, generate
 1,  8,  1
** Section: Section-1
*Solid Section, elset=_PickedSet3, material=Material-1
,
*End Part
**  
**
** ASSEMBLY
**
*Assembly, name=Assembly
**  
*Instance, name=Part-1-1, part=Part-1
*End Instance
**  
*End Assembly
** 
** MATERIALS
** 
*Material, name=Material-1
*Elastic
1., 0.3
