*Heading
** Job name: Cube_E729 Model name: Model-1
** Generated by: Abaqus/CAE 2020
*Preprint, echo=NO, model=NO, history=NO, contact=NO
**
** PARTS
**
*Part, name=Part-1
*Node
      1,          -5.,          -5.,          10.
      2,          -5.,  -3.88888884,          10.
      3,          -5.,  -2.77777767,          10.
      4,          -5.,  -1.66666663,          10.
      5,          -5., -0.555555582,          10.
      6,          -5.,  0.555555582,          10.
      7,          -5.,   1.66666663,          10.
      8,          -5.,   2.77777767,          10.
      9,          -5.,   3.88888884,          10.
     10,          -5.,           5.,          10.
     11,          -5.,          -5.,   8.88888931
     12,          -5.,  -3.88888884,   8.88888931
     13,          -5.,  -2.77777767,   8.88888931
     14,          -5.,  -1.66666663,   8.88888931
     15,          -5., -0.555555582,   8.88888931
     16,          -5.,  0.555555582,   8.88888931
     17,          -5.,   1.66666663,   8.88888931
     18,          -5.,   2.77777767,   8.88888931
     19,          -5.,   3.88888884,   8.88888931
     20,          -5.,           5.,   8.88888931
     21,          -5.,          -5.,   7.77777767
     22,          -5.,  -3.88888884,   7.77777767
     23,          -5.,  -2.77777767,   7.77777767
     24,          -5.,  -1.66666663,   7.77777767
     25,          -5., -0.555555582,   7.77777767
     26,          -5.,  0.555555582,   7.77777767
     27,          -5.,   1.66666663,   7.77777767
     28,          -5.,   2.77777767,   7.77777767
     29,          -5.,   3.88888884,   7.77777767
     30,          -5.,           5.,   7.77777767
     31,          -5.,          -5.,   6.66666651
     32,          -5.,  -3.88888884,   6.66666651
     33,          -5.,  -2.77777767,   6.66666651
     34,          -5.,  -1.66666663,   6.66666651
     35,          -5., -0.555555582,   6.66666651
     36,          -5.,  0.555555582,   6.66666651
     37,          -5.,   1.66666663,   6.66666651
     38,          -5.,   2.77777767,   6.66666651
     39,          -5.,   3.88888884,   6.66666651
     40,          -5.,           5.,   6.66666651
     41,          -5.,          -5.,   5.55555534
     42,          -5.,  -3.88888884,   5.55555534
     43,          -5.,  -2.77777767,   5.55555534
     44,          -5.,  -1.66666663,   5.55555534
     45,          -5., -0.555555582,   5.55555534
     46,          -5.,  0.555555582,   5.55555534
     47,          -5.,   1.66666663,   5.55555534
     48,          -5.,   2.77777767,   5.55555534
     49,          -5.,   3.88888884,   5.55555534
     50,          -5.,           5.,   5.55555534
     51,          -5.,          -5.,   4.44444466
     52,          -5.,  -3.88888884,   4.44444466
     53,          -5.,  -2.77777767,   4.44444466
     54,          -5.,  -1.66666663,   4.44444466
     55,          -5., -0.555555582,   4.44444466
     56,          -5.,  0.555555582,   4.44444466
     57,          -5.,   1.66666663,   4.44444466
     58,          -5.,   2.77777767,   4.44444466
     59,          -5.,   3.88888884,   4.44444466
     60,          -5.,           5.,   4.44444466
     61,          -5.,          -5.,   3.33333325
     62,          -5.,  -3.88888884,   3.33333325
     63,          -5.,  -2.77777767,   3.33333325
     64,          -5.,  -1.66666663,   3.33333325
     65,          -5., -0.555555582,   3.33333325
     66,          -5.,  0.555555582,   3.33333325
     67,          -5.,   1.66666663,   3.33333325
     68,          -5.,   2.77777767,   3.33333325
     69,          -5.,   3.88888884,   3.33333325
     70,          -5.,           5.,   3.33333325
     71,          -5.,          -5.,   2.22222233
     72,          -5.,  -3.88888884,   2.22222233
     73,          -5.,  -2.77777767,   2.22222233
     74,          -5.,  -1.66666663,   2.22222233
     75,          -5., -0.555555582,   2.22222233
     76,          -5.,  0.555555582,   2.22222233
     77,          -5.,   1.66666663,   2.22222233
     78,          -5.,   2.77777767,   2.22222233
     79,          -5.,   3.88888884,   2.22222233
     80,          -5.,           5.,   2.22222233
     81,          -5.,          -5.,   1.11111116
     82,          -5.,  -3.88888884,   1.11111116
     83,          -5.,  -2.77777767,   1.11111116
     84,          -5.,  -1.66666663,   1.11111116
     85,          -5., -0.555555582,   1.11111116
     86,          -5.,  0.555555582,   1.11111116
     87,          -5.,   1.66666663,   1.11111116
     88,          -5.,   2.77777767,   1.11111116
     89,          -5.,   3.88888884,   1.11111116
     90,          -5.,           5.,   1.11111116
     91,          -5.,          -5.,           0.
     92,          -5.,  -3.88888884,           0.
     93,          -5.,  -2.77777767,           0.
     94,          -5.,  -1.66666663,           0.
     95,          -5., -0.555555582,           0.
     96,          -5.,  0.555555582,           0.
     97,          -5.,   1.66666663,           0.
     98,          -5.,   2.77777767,           0.
     99,          -5.,   3.88888884,           0.
    100,          -5.,           5.,           0.
    101,  -3.88888884,          -5.,          10.
    102,  -3.88888884,  -3.88888884,          10.
    103,  -3.88888884,  -2.77777767,          10.
    104,  -3.88888884,  -1.66666663,          10.
    105,  -3.88888884, -0.555555582,          10.
    106,  -3.88888884,  0.555555582,          10.
    107,  -3.88888884,   1.66666663,          10.
    108,  -3.88888884,   2.77777767,          10.
    109,  -3.88888884,   3.88888884,          10.
    110,  -3.88888884,           5.,          10.
    111,  -3.88888884,          -5.,   8.88888931
    112,  -3.88888884,  -3.88888884,   8.88888931
    113,  -3.88888884,  -2.77777767,   8.88888931
    114,  -3.88888884,  -1.66666663,   8.88888931
    115,  -3.88888884, -0.555555582,   8.88888931
    116,  -3.88888884,  0.555555582,   8.88888931
    117,  -3.88888884,   1.66666663,   8.88888931
    118,  -3.88888884,   2.77777767,   8.88888931
    119,  -3.88888884,   3.88888884,   8.88888931
    120,  -3.88888884,           5.,   8.88888931
    121,  -3.88888884,          -5.,   7.77777767
    122,  -3.88888884,  -3.88888884,   7.77777767
    123,  -3.88888884,  -2.77777767,   7.77777767
    124,  -3.88888884,  -1.66666663,   7.77777767
    125,  -3.88888884, -0.555555582,   7.77777767
    126,  -3.88888884,  0.555555582,   7.77777767
    127,  -3.88888884,   1.66666663,   7.77777767
    128,  -3.88888884,   2.77777767,   7.77777767
    129,  -3.88888884,   3.88888884,   7.77777767
    130,  -3.88888884,           5.,   7.77777767
    131,  -3.88888884,          -5.,   6.66666651
    132,  -3.88888884,  -3.88888884,   6.66666651
    133,  -3.88888884,  -2.77777767,   6.66666651
    134,  -3.88888884,  -1.66666663,   6.66666651
    135,  -3.88888884, -0.555555582,   6.66666651
    136,  -3.88888884,  0.555555582,   6.66666651
    137,  -3.88888884,   1.66666663,   6.66666651
    138,  -3.88888884,   2.77777767,   6.66666651
    139,  -3.88888884,   3.88888884,   6.66666651
    140,  -3.88888884,           5.,   6.66666651
    141,  -3.88888884,          -5.,   5.55555534
    142,  -3.88888884,  -3.88888884,   5.55555534
    143,  -3.88888884,  -2.77777767,   5.55555534
    144,  -3.88888884,  -1.66666663,   5.55555534
    145,  -3.88888884, -0.555555582,   5.55555534
    146,  -3.88888884,  0.555555582,   5.55555534
    147,  -3.88888884,   1.66666663,   5.55555534
    148,  -3.88888884,   2.77777767,   5.55555534
    149,  -3.88888884,   3.88888884,   5.55555534
    150,  -3.88888884,           5.,   5.55555534
    151,  -3.88888884,          -5.,   4.44444466
    152,  -3.88888884,  -3.88888884,   4.44444466
    153,  -3.88888884,  -2.77777767,   4.44444466
    154,  -3.88888884,  -1.66666663,   4.44444466
    155,  -3.88888884, -0.555555582,   4.44444466
    156,  -3.88888884,  0.555555582,   4.44444466
    157,  -3.88888884,   1.66666663,   4.44444466
    158,  -3.88888884,   2.77777767,   4.44444466
    159,  -3.88888884,   3.88888884,   4.44444466
    160,  -3.88888884,           5.,   4.44444466
    161,  -3.88888884,          -5.,   3.33333325
    162,  -3.88888884,  -3.88888884,   3.33333325
    163,  -3.88888884,  -2.77777767,   3.33333325
    164,  -3.88888884,  -1.66666663,   3.33333325
    165,  -3.88888884, -0.555555582,   3.33333325
    166,  -3.88888884,  0.555555582,   3.33333325
    167,  -3.88888884,   1.66666663,   3.33333325
    168,  -3.88888884,   2.77777767,   3.33333325
    169,  -3.88888884,   3.88888884,   3.33333325
    170,  -3.88888884,           5.,   3.33333325
    171,  -3.88888884,          -5.,   2.22222233
    172,  -3.88888884,  -3.88888884,   2.22222233
    173,  -3.88888884,  -2.77777767,   2.22222233
    174,  -3.88888884,  -1.66666663,   2.22222233
    175,  -3.88888884, -0.555555582,   2.22222233
    176,  -3.88888884,  0.555555582,   2.22222233
    177,  -3.88888884,   1.66666663,   2.22222233
    178,  -3.88888884,   2.77777767,   2.22222233
    179,  -3.88888884,   3.88888884,   2.22222233
    180,  -3.88888884,           5.,   2.22222233
    181,  -3.88888884,          -5.,   1.11111116
    182,  -3.88888884,  -3.88888884,   1.11111116
    183,  -3.88888884,  -2.77777767,   1.11111116
    184,  -3.88888884,  -1.66666663,   1.11111116
    185,  -3.88888884, -0.555555582,   1.11111116
    186,  -3.88888884,  0.555555582,   1.11111116
    187,  -3.88888884,   1.66666663,   1.11111116
    188,  -3.88888884,   2.77777767,   1.11111116
    189,  -3.88888884,   3.88888884,   1.11111116
    190,  -3.88888884,           5.,   1.11111116
    191,  -3.88888884,          -5.,           0.
    192,  -3.88888884,  -3.88888884,           0.
    193,  -3.88888884,  -2.77777767,           0.
    194,  -3.88888884,  -1.66666663,           0.
    195,  -3.88888884, -0.555555582,           0.
    196,  -3.88888884,  0.555555582,           0.
    197,  -3.88888884,   1.66666663,           0.
    198,  -3.88888884,   2.77777767,           0.
    199,  -3.88888884,   3.88888884,           0.
    200,  -3.88888884,           5.,           0.
    201,  -2.77777767,          -5.,          10.
    202,  -2.77777767,  -3.88888884,          10.
    203,  -2.77777767,  -2.77777767,          10.
    204,  -2.77777767,  -1.66666663,          10.
    205,  -2.77777767, -0.555555582,          10.
    206,  -2.77777767,  0.555555582,          10.
    207,  -2.77777767,   1.66666663,          10.
    208,  -2.77777767,   2.77777767,          10.
    209,  -2.77777767,   3.88888884,          10.
    210,  -2.77777767,           5.,          10.
    211,  -2.77777767,          -5.,   8.88888931
    212,  -2.77777767,  -3.88888884,   8.88888931
    213,  -2.77777767,  -2.77777767,   8.88888931
    214,  -2.77777767,  -1.66666663,   8.88888931
    215,  -2.77777767, -0.555555582,   8.88888931
    216,  -2.77777767,  0.555555582,   8.88888931
    217,  -2.77777767,   1.66666663,   8.88888931
    218,  -2.77777767,   2.77777767,   8.88888931
    219,  -2.77777767,   3.88888884,   8.88888931
    220,  -2.77777767,           5.,   8.88888931
    221,  -2.77777767,          -5.,   7.77777767
    222,  -2.77777767,  -3.88888884,   7.77777767
    223,  -2.77777767,  -2.77777767,   7.77777767
    224,  -2.77777767,  -1.66666663,   7.77777767
    225,  -2.77777767, -0.555555582,   7.77777767
    226,  -2.77777767,  0.555555582,   7.77777767
    227,  -2.77777767,   1.66666663,   7.77777767
    228,  -2.77777767,   2.77777767,   7.77777767
    229,  -2.77777767,   3.88888884,   7.77777767
    230,  -2.77777767,           5.,   7.77777767
    231,  -2.77777767,          -5.,   6.66666651
    232,  -2.77777767,  -3.88888884,   6.66666651
    233,  -2.77777767,  -2.77777767,   6.66666651
    234,  -2.77777767,  -1.66666663,   6.66666651
    235,  -2.77777767, -0.555555582,   6.66666651
    236,  -2.77777767,  0.555555582,   6.66666651
    237,  -2.77777767,   1.66666663,   6.66666651
    238,  -2.77777767,   2.77777767,   6.66666651
    239,  -2.77777767,   3.88888884,   6.66666651
    240,  -2.77777767,           5.,   6.66666651
    241,  -2.77777767,          -5.,   5.55555534
    242,  -2.77777767,  -3.88888884,   5.55555534
    243,  -2.77777767,  -2.77777767,   5.55555534
    244,  -2.77777767,  -1.66666663,   5.55555534
    245,  -2.77777767, -0.555555582,   5.55555534
    246,  -2.77777767,  0.555555582,   5.55555534
    247,  -2.77777767,   1.66666663,   5.55555534
    248,  -2.77777767,   2.77777767,   5.55555534
    249,  -2.77777767,   3.88888884,   5.55555534
    250,  -2.77777767,           5.,   5.55555534
    251,  -2.77777767,          -5.,   4.44444466
    252,  -2.77777767,  -3.88888884,   4.44444466
    253,  -2.77777767,  -2.77777767,   4.44444466
    254,  -2.77777767,  -1.66666663,   4.44444466
    255,  -2.77777767, -0.555555582,   4.44444466
    256,  -2.77777767,  0.555555582,   4.44444466
    257,  -2.77777767,   1.66666663,   4.44444466
    258,  -2.77777767,   2.77777767,   4.44444466
    259,  -2.77777767,   3.88888884,   4.44444466
    260,  -2.77777767,           5.,   4.44444466
    261,  -2.77777767,          -5.,   3.33333325
    262,  -2.77777767,  -3.88888884,   3.33333325
    263,  -2.77777767,  -2.77777767,   3.33333325
    264,  -2.77777767,  -1.66666663,   3.33333325
    265,  -2.77777767, -0.555555582,   3.33333325
    266,  -2.77777767,  0.555555582,   3.33333325
    267,  -2.77777767,   1.66666663,   3.33333325
    268,  -2.77777767,   2.77777767,   3.33333325
    269,  -2.77777767,   3.88888884,   3.33333325
    270,  -2.77777767,           5.,   3.33333325
    271,  -2.77777767,          -5.,   2.22222233
    272,  -2.77777767,  -3.88888884,   2.22222233
    273,  -2.77777767,  -2.77777767,   2.22222233
    274,  -2.77777767,  -1.66666663,   2.22222233
    275,  -2.77777767, -0.555555582,   2.22222233
    276,  -2.77777767,  0.555555582,   2.22222233
    277,  -2.77777767,   1.66666663,   2.22222233
    278,  -2.77777767,   2.77777767,   2.22222233
    279,  -2.77777767,   3.88888884,   2.22222233
    280,  -2.77777767,           5.,   2.22222233
    281,  -2.77777767,          -5.,   1.11111116
    282,  -2.77777767,  -3.88888884,   1.11111116
    283,  -2.77777767,  -2.77777767,   1.11111116
    284,  -2.77777767,  -1.66666663,   1.11111116
    285,  -2.77777767, -0.555555582,   1.11111116
    286,  -2.77777767,  0.555555582,   1.11111116
    287,  -2.77777767,   1.66666663,   1.11111116
    288,  -2.77777767,   2.77777767,   1.11111116
    289,  -2.77777767,   3.88888884,   1.11111116
    290,  -2.77777767,           5.,   1.11111116
    291,  -2.77777767,          -5.,           0.
    292,  -2.77777767,  -3.88888884,           0.
    293,  -2.77777767,  -2.77777767,           0.
    294,  -2.77777767,  -1.66666663,           0.
    295,  -2.77777767, -0.555555582,           0.
    296,  -2.77777767,  0.555555582,           0.
    297,  -2.77777767,   1.66666663,           0.
    298,  -2.77777767,   2.77777767,           0.
    299,  -2.77777767,   3.88888884,           0.
    300,  -2.77777767,           5.,           0.
    301,  -1.66666663,          -5.,          10.
    302,  -1.66666663,  -3.88888884,          10.
    303,  -1.66666663,  -2.77777767,          10.
    304,  -1.66666663,  -1.66666663,          10.
    305,  -1.66666663, -0.555555582,          10.
    306,  -1.66666663,  0.555555582,          10.
    307,  -1.66666663,   1.66666663,          10.
    308,  -1.66666663,   2.77777767,          10.
    309,  -1.66666663,   3.88888884,          10.
    310,  -1.66666663,           5.,          10.
    311,  -1.66666663,          -5.,   8.88888931
    312,  -1.66666663,  -3.88888884,   8.88888931
    313,  -1.66666663,  -2.77777767,   8.88888931
    314,  -1.66666663,  -1.66666663,   8.88888931
    315,  -1.66666663, -0.555555582,   8.88888931
    316,  -1.66666663,  0.555555582,   8.88888931
    317,  -1.66666663,   1.66666663,   8.88888931
    318,  -1.66666663,   2.77777767,   8.88888931
    319,  -1.66666663,   3.88888884,   8.88888931
    320,  -1.66666663,           5.,   8.88888931
    321,  -1.66666663,          -5.,   7.77777767
    322,  -1.66666663,  -3.88888884,   7.77777767
    323,  -1.66666663,  -2.77777767,   7.77777767
    324,  -1.66666663,  -1.66666663,   7.77777767
    325,  -1.66666663, -0.555555582,   7.77777767
    326,  -1.66666663,  0.555555582,   7.77777767
    327,  -1.66666663,   1.66666663,   7.77777767
    328,  -1.66666663,   2.77777767,   7.77777767
    329,  -1.66666663,   3.88888884,   7.77777767
    330,  -1.66666663,           5.,   7.77777767
    331,  -1.66666663,          -5.,   6.66666651
    332,  -1.66666663,  -3.88888884,   6.66666651
    333,  -1.66666663,  -2.77777767,   6.66666651
    334,  -1.66666663,  -1.66666663,   6.66666651
    335,  -1.66666663, -0.555555582,   6.66666651
    336,  -1.66666663,  0.555555582,   6.66666651
    337,  -1.66666663,   1.66666663,   6.66666651
    338,  -1.66666663,   2.77777767,   6.66666651
    339,  -1.66666663,   3.88888884,   6.66666651
    340,  -1.66666663,           5.,   6.66666651
    341,  -1.66666663,          -5.,   5.55555534
    342,  -1.66666663,  -3.88888884,   5.55555534
    343,  -1.66666663,  -2.77777767,   5.55555534
    344,  -1.66666663,  -1.66666663,   5.55555534
    345,  -1.66666663, -0.555555582,   5.55555534
    346,  -1.66666663,  0.555555582,   5.55555534
    347,  -1.66666663,   1.66666663,   5.55555534
    348,  -1.66666663,   2.77777767,   5.55555534
    349,  -1.66666663,   3.88888884,   5.55555534
    350,  -1.66666663,           5.,   5.55555534
    351,  -1.66666663,          -5.,   4.44444466
    352,  -1.66666663,  -3.88888884,   4.44444466
    353,  -1.66666663,  -2.77777767,   4.44444466
    354,  -1.66666663,  -1.66666663,   4.44444466
    355,  -1.66666663, -0.555555582,   4.44444466
    356,  -1.66666663,  0.555555582,   4.44444466
    357,  -1.66666663,   1.66666663,   4.44444466
    358,  -1.66666663,   2.77777767,   4.44444466
    359,  -1.66666663,   3.88888884,   4.44444466
    360,  -1.66666663,           5.,   4.44444466
    361,  -1.66666663,          -5.,   3.33333325
    362,  -1.66666663,  -3.88888884,   3.33333325
    363,  -1.66666663,  -2.77777767,   3.33333325
    364,  -1.66666663,  -1.66666663,   3.33333325
    365,  -1.66666663, -0.555555582,   3.33333325
    366,  -1.66666663,  0.555555582,   3.33333325
    367,  -1.66666663,   1.66666663,   3.33333325
    368,  -1.66666663,   2.77777767,   3.33333325
    369,  -1.66666663,   3.88888884,   3.33333325
    370,  -1.66666663,           5.,   3.33333325
    371,  -1.66666663,          -5.,   2.22222233
    372,  -1.66666663,  -3.88888884,   2.22222233
    373,  -1.66666663,  -2.77777767,   2.22222233
    374,  -1.66666663,  -1.66666663,   2.22222233
    375,  -1.66666663, -0.555555582,   2.22222233
    376,  -1.66666663,  0.555555582,   2.22222233
    377,  -1.66666663,   1.66666663,   2.22222233
    378,  -1.66666663,   2.77777767,   2.22222233
    379,  -1.66666663,   3.88888884,   2.22222233
    380,  -1.66666663,           5.,   2.22222233
    381,  -1.66666663,          -5.,   1.11111116
    382,  -1.66666663,  -3.88888884,   1.11111116
    383,  -1.66666663,  -2.77777767,   1.11111116
    384,  -1.66666663,  -1.66666663,   1.11111116
    385,  -1.66666663, -0.555555582,   1.11111116
    386,  -1.66666663,  0.555555582,   1.11111116
    387,  -1.66666663,   1.66666663,   1.11111116
    388,  -1.66666663,   2.77777767,   1.11111116
    389,  -1.66666663,   3.88888884,   1.11111116
    390,  -1.66666663,           5.,   1.11111116
    391,  -1.66666663,          -5.,           0.
    392,  -1.66666663,  -3.88888884,           0.
    393,  -1.66666663,  -2.77777767,           0.
    394,  -1.66666663,  -1.66666663,           0.
    395,  -1.66666663, -0.555555582,           0.
    396,  -1.66666663,  0.555555582,           0.
    397,  -1.66666663,   1.66666663,           0.
    398,  -1.66666663,   2.77777767,           0.
    399,  -1.66666663,   3.88888884,           0.
    400,  -1.66666663,           5.,           0.
    401, -0.555555582,          -5.,          10.
    402, -0.555555582,  -3.88888884,          10.
    403, -0.555555582,  -2.77777767,          10.
    404, -0.555555582,  -1.66666663,          10.
    405, -0.555555582, -0.555555582,          10.
    406, -0.555555582,  0.555555582,          10.
    407, -0.555555582,   1.66666663,          10.
    408, -0.555555582,   2.77777767,          10.
    409, -0.555555582,   3.88888884,          10.
    410, -0.555555582,           5.,          10.
    411, -0.555555582,          -5.,   8.88888931
    412, -0.555555582,  -3.88888884,   8.88888931
    413, -0.555555582,  -2.77777767,   8.88888931
    414, -0.555555582,  -1.66666663,   8.88888931
    415, -0.555555582, -0.555555582,   8.88888931
    416, -0.555555582,  0.555555582,   8.88888931
    417, -0.555555582,   1.66666663,   8.88888931
    418, -0.555555582,   2.77777767,   8.88888931
    419, -0.555555582,   3.88888884,   8.88888931
    420, -0.555555582,           5.,   8.88888931
    421, -0.555555582,          -5.,   7.77777767
    422, -0.555555582,  -3.88888884,   7.77777767
    423, -0.555555582,  -2.77777767,   7.77777767
    424, -0.555555582,  -1.66666663,   7.77777767
    425, -0.555555582, -0.555555582,   7.77777767
    426, -0.555555582,  0.555555582,   7.77777767
    427, -0.555555582,   1.66666663,   7.77777767
    428, -0.555555582,   2.77777767,   7.77777767
    429, -0.555555582,   3.88888884,   7.77777767
    430, -0.555555582,           5.,   7.77777767
    431, -0.555555582,          -5.,   6.66666651
    432, -0.555555582,  -3.88888884,   6.66666651
    433, -0.555555582,  -2.77777767,   6.66666651
    434, -0.555555582,  -1.66666663,   6.66666651
    435, -0.555555582, -0.555555582,   6.66666651
    436, -0.555555582,  0.555555582,   6.66666651
    437, -0.555555582,   1.66666663,   6.66666651
    438, -0.555555582,   2.77777767,   6.66666651
    439, -0.555555582,   3.88888884,   6.66666651
    440, -0.555555582,           5.,   6.66666651
    441, -0.555555582,          -5.,   5.55555534
    442, -0.555555582,  -3.88888884,   5.55555534
    443, -0.555555582,  -2.77777767,   5.55555534
    444, -0.555555582,  -1.66666663,   5.55555534
    445, -0.555555582, -0.555555582,   5.55555534
    446, -0.555555582,  0.555555582,   5.55555534
    447, -0.555555582,   1.66666663,   5.55555534
    448, -0.555555582,   2.77777767,   5.55555534
    449, -0.555555582,   3.88888884,   5.55555534
    450, -0.555555582,           5.,   5.55555534
    451, -0.555555582,          -5.,   4.44444466
    452, -0.555555582,  -3.88888884,   4.44444466
    453, -0.555555582,  -2.77777767,   4.44444466
    454, -0.555555582,  -1.66666663,   4.44444466
    455, -0.555555582, -0.555555582,   4.44444466
    456, -0.555555582,  0.555555582,   4.44444466
    457, -0.555555582,   1.66666663,   4.44444466
    458, -0.555555582,   2.77777767,   4.44444466
    459, -0.555555582,   3.88888884,   4.44444466
    460, -0.555555582,           5.,   4.44444466
    461, -0.555555582,          -5.,   3.33333325
    462, -0.555555582,  -3.88888884,   3.33333325
    463, -0.555555582,  -2.77777767,   3.33333325
    464, -0.555555582,  -1.66666663,   3.33333325
    465, -0.555555582, -0.555555582,   3.33333325
    466, -0.555555582,  0.555555582,   3.33333325
    467, -0.555555582,   1.66666663,   3.33333325
    468, -0.555555582,   2.77777767,   3.33333325
    469, -0.555555582,   3.88888884,   3.33333325
    470, -0.555555582,           5.,   3.33333325
    471, -0.555555582,          -5.,   2.22222233
    472, -0.555555582,  -3.88888884,   2.22222233
    473, -0.555555582,  -2.77777767,   2.22222233
    474, -0.555555582,  -1.66666663,   2.22222233
    475, -0.555555582, -0.555555582,   2.22222233
    476, -0.555555582,  0.555555582,   2.22222233
    477, -0.555555582,   1.66666663,   2.22222233
    478, -0.555555582,   2.77777767,   2.22222233
    479, -0.555555582,   3.88888884,   2.22222233
    480, -0.555555582,           5.,   2.22222233
    481, -0.555555582,          -5.,   1.11111116
    482, -0.555555582,  -3.88888884,   1.11111116
    483, -0.555555582,  -2.77777767,   1.11111116
    484, -0.555555582,  -1.66666663,   1.11111116
    485, -0.555555582, -0.555555582,   1.11111116
    486, -0.555555582,  0.555555582,   1.11111116
    487, -0.555555582,   1.66666663,   1.11111116
    488, -0.555555582,   2.77777767,   1.11111116
    489, -0.555555582,   3.88888884,   1.11111116
    490, -0.555555582,           5.,   1.11111116
    491, -0.555555582,          -5.,           0.
    492, -0.555555582,  -3.88888884,           0.
    493, -0.555555582,  -2.77777767,           0.
    494, -0.555555582,  -1.66666663,           0.
    495, -0.555555582, -0.555555582,           0.
    496, -0.555555582,  0.555555582,           0.
    497, -0.555555582,   1.66666663,           0.
    498, -0.555555582,   2.77777767,           0.
    499, -0.555555582,   3.88888884,           0.
    500, -0.555555582,           5.,           0.
    501,  0.555555582,          -5.,          10.
    502,  0.555555582,  -3.88888884,          10.
    503,  0.555555582,  -2.77777767,          10.
    504,  0.555555582,  -1.66666663,          10.
    505,  0.555555582, -0.555555582,          10.
    506,  0.555555582,  0.555555582,          10.
    507,  0.555555582,   1.66666663,          10.
    508,  0.555555582,   2.77777767,          10.
    509,  0.555555582,   3.88888884,          10.
    510,  0.555555582,           5.,          10.
    511,  0.555555582,          -5.,   8.88888931
    512,  0.555555582,  -3.88888884,   8.88888931
    513,  0.555555582,  -2.77777767,   8.88888931
    514,  0.555555582,  -1.66666663,   8.88888931
    515,  0.555555582, -0.555555582,   8.88888931
    516,  0.555555582,  0.555555582,   8.88888931
    517,  0.555555582,   1.66666663,   8.88888931
    518,  0.555555582,   2.77777767,   8.88888931
    519,  0.555555582,   3.88888884,   8.88888931
    520,  0.555555582,           5.,   8.88888931
    521,  0.555555582,          -5.,   7.77777767
    522,  0.555555582,  -3.88888884,   7.77777767
    523,  0.555555582,  -2.77777767,   7.77777767
    524,  0.555555582,  -1.66666663,   7.77777767
    525,  0.555555582, -0.555555582,   7.77777767
    526,  0.555555582,  0.555555582,   7.77777767
    527,  0.555555582,   1.66666663,   7.77777767
    528,  0.555555582,   2.77777767,   7.77777767
    529,  0.555555582,   3.88888884,   7.77777767
    530,  0.555555582,           5.,   7.77777767
    531,  0.555555582,          -5.,   6.66666651
    532,  0.555555582,  -3.88888884,   6.66666651
    533,  0.555555582,  -2.77777767,   6.66666651
    534,  0.555555582,  -1.66666663,   6.66666651
    535,  0.555555582, -0.555555582,   6.66666651
    536,  0.555555582,  0.555555582,   6.66666651
    537,  0.555555582,   1.66666663,   6.66666651
    538,  0.555555582,   2.77777767,   6.66666651
    539,  0.555555582,   3.88888884,   6.66666651
    540,  0.555555582,           5.,   6.66666651
    541,  0.555555582,          -5.,   5.55555534
    542,  0.555555582,  -3.88888884,   5.55555534
    543,  0.555555582,  -2.77777767,   5.55555534
    544,  0.555555582,  -1.66666663,   5.55555534
    545,  0.555555582, -0.555555582,   5.55555534
    546,  0.555555582,  0.555555582,   5.55555534
    547,  0.555555582,   1.66666663,   5.55555534
    548,  0.555555582,   2.77777767,   5.55555534
    549,  0.555555582,   3.88888884,   5.55555534
    550,  0.555555582,           5.,   5.55555534
    551,  0.555555582,          -5.,   4.44444466
    552,  0.555555582,  -3.88888884,   4.44444466
    553,  0.555555582,  -2.77777767,   4.44444466
    554,  0.555555582,  -1.66666663,   4.44444466
    555,  0.555555582, -0.555555582,   4.44444466
    556,  0.555555582,  0.555555582,   4.44444466
    557,  0.555555582,   1.66666663,   4.44444466
    558,  0.555555582,   2.77777767,   4.44444466
    559,  0.555555582,   3.88888884,   4.44444466
    560,  0.555555582,           5.,   4.44444466
    561,  0.555555582,          -5.,   3.33333325
    562,  0.555555582,  -3.88888884,   3.33333325
    563,  0.555555582,  -2.77777767,   3.33333325
    564,  0.555555582,  -1.66666663,   3.33333325
    565,  0.555555582, -0.555555582,   3.33333325
    566,  0.555555582,  0.555555582,   3.33333325
    567,  0.555555582,   1.66666663,   3.33333325
    568,  0.555555582,   2.77777767,   3.33333325
    569,  0.555555582,   3.88888884,   3.33333325
    570,  0.555555582,           5.,   3.33333325
    571,  0.555555582,          -5.,   2.22222233
    572,  0.555555582,  -3.88888884,   2.22222233
    573,  0.555555582,  -2.77777767,   2.22222233
    574,  0.555555582,  -1.66666663,   2.22222233
    575,  0.555555582, -0.555555582,   2.22222233
    576,  0.555555582,  0.555555582,   2.22222233
    577,  0.555555582,   1.66666663,   2.22222233
    578,  0.555555582,   2.77777767,   2.22222233
    579,  0.555555582,   3.88888884,   2.22222233
    580,  0.555555582,           5.,   2.22222233
    581,  0.555555582,          -5.,   1.11111116
    582,  0.555555582,  -3.88888884,   1.11111116
    583,  0.555555582,  -2.77777767,   1.11111116
    584,  0.555555582,  -1.66666663,   1.11111116
    585,  0.555555582, -0.555555582,   1.11111116
    586,  0.555555582,  0.555555582,   1.11111116
    587,  0.555555582,   1.66666663,   1.11111116
    588,  0.555555582,   2.77777767,   1.11111116
    589,  0.555555582,   3.88888884,   1.11111116
    590,  0.555555582,           5.,   1.11111116
    591,  0.555555582,          -5.,           0.
    592,  0.555555582,  -3.88888884,           0.
    593,  0.555555582,  -2.77777767,           0.
    594,  0.555555582,  -1.66666663,           0.
    595,  0.555555582, -0.555555582,           0.
    596,  0.555555582,  0.555555582,           0.
    597,  0.555555582,   1.66666663,           0.
    598,  0.555555582,   2.77777767,           0.
    599,  0.555555582,   3.88888884,           0.
    600,  0.555555582,           5.,           0.
    601,   1.66666663,          -5.,          10.
    602,   1.66666663,  -3.88888884,          10.
    603,   1.66666663,  -2.77777767,          10.
    604,   1.66666663,  -1.66666663,          10.
    605,   1.66666663, -0.555555582,          10.
    606,   1.66666663,  0.555555582,          10.
    607,   1.66666663,   1.66666663,          10.
    608,   1.66666663,   2.77777767,          10.
    609,   1.66666663,   3.88888884,          10.
    610,   1.66666663,           5.,          10.
    611,   1.66666663,          -5.,   8.88888931
    612,   1.66666663,  -3.88888884,   8.88888931
    613,   1.66666663,  -2.77777767,   8.88888931
    614,   1.66666663,  -1.66666663,   8.88888931
    615,   1.66666663, -0.555555582,   8.88888931
    616,   1.66666663,  0.555555582,   8.88888931
    617,   1.66666663,   1.66666663,   8.88888931
    618,   1.66666663,   2.77777767,   8.88888931
    619,   1.66666663,   3.88888884,   8.88888931
    620,   1.66666663,           5.,   8.88888931
    621,   1.66666663,          -5.,   7.77777767
    622,   1.66666663,  -3.88888884,   7.77777767
    623,   1.66666663,  -2.77777767,   7.77777767
    624,   1.66666663,  -1.66666663,   7.77777767
    625,   1.66666663, -0.555555582,   7.77777767
    626,   1.66666663,  0.555555582,   7.77777767
    627,   1.66666663,   1.66666663,   7.77777767
    628,   1.66666663,   2.77777767,   7.77777767
    629,   1.66666663,   3.88888884,   7.77777767
    630,   1.66666663,           5.,   7.77777767
    631,   1.66666663,          -5.,   6.66666651
    632,   1.66666663,  -3.88888884,   6.66666651
    633,   1.66666663,  -2.77777767,   6.66666651
    634,   1.66666663,  -1.66666663,   6.66666651
    635,   1.66666663, -0.555555582,   6.66666651
    636,   1.66666663,  0.555555582,   6.66666651
    637,   1.66666663,   1.66666663,   6.66666651
    638,   1.66666663,   2.77777767,   6.66666651
    639,   1.66666663,   3.88888884,   6.66666651
    640,   1.66666663,           5.,   6.66666651
    641,   1.66666663,          -5.,   5.55555534
    642,   1.66666663,  -3.88888884,   5.55555534
    643,   1.66666663,  -2.77777767,   5.55555534
    644,   1.66666663,  -1.66666663,   5.55555534
    645,   1.66666663, -0.555555582,   5.55555534
    646,   1.66666663,  0.555555582,   5.55555534
    647,   1.66666663,   1.66666663,   5.55555534
    648,   1.66666663,   2.77777767,   5.55555534
    649,   1.66666663,   3.88888884,   5.55555534
    650,   1.66666663,           5.,   5.55555534
    651,   1.66666663,          -5.,   4.44444466
    652,   1.66666663,  -3.88888884,   4.44444466
    653,   1.66666663,  -2.77777767,   4.44444466
    654,   1.66666663,  -1.66666663,   4.44444466
    655,   1.66666663, -0.555555582,   4.44444466
    656,   1.66666663,  0.555555582,   4.44444466
    657,   1.66666663,   1.66666663,   4.44444466
    658,   1.66666663,   2.77777767,   4.44444466
    659,   1.66666663,   3.88888884,   4.44444466
    660,   1.66666663,           5.,   4.44444466
    661,   1.66666663,          -5.,   3.33333325
    662,   1.66666663,  -3.88888884,   3.33333325
    663,   1.66666663,  -2.77777767,   3.33333325
    664,   1.66666663,  -1.66666663,   3.33333325
    665,   1.66666663, -0.555555582,   3.33333325
    666,   1.66666663,  0.555555582,   3.33333325
    667,   1.66666663,   1.66666663,   3.33333325
    668,   1.66666663,   2.77777767,   3.33333325
    669,   1.66666663,   3.88888884,   3.33333325
    670,   1.66666663,           5.,   3.33333325
    671,   1.66666663,          -5.,   2.22222233
    672,   1.66666663,  -3.88888884,   2.22222233
    673,   1.66666663,  -2.77777767,   2.22222233
    674,   1.66666663,  -1.66666663,   2.22222233
    675,   1.66666663, -0.555555582,   2.22222233
    676,   1.66666663,  0.555555582,   2.22222233
    677,   1.66666663,   1.66666663,   2.22222233
    678,   1.66666663,   2.77777767,   2.22222233
    679,   1.66666663,   3.88888884,   2.22222233
    680,   1.66666663,           5.,   2.22222233
    681,   1.66666663,          -5.,   1.11111116
    682,   1.66666663,  -3.88888884,   1.11111116
    683,   1.66666663,  -2.77777767,   1.11111116
    684,   1.66666663,  -1.66666663,   1.11111116
    685,   1.66666663, -0.555555582,   1.11111116
    686,   1.66666663,  0.555555582,   1.11111116
    687,   1.66666663,   1.66666663,   1.11111116
    688,   1.66666663,   2.77777767,   1.11111116
    689,   1.66666663,   3.88888884,   1.11111116
    690,   1.66666663,           5.,   1.11111116
    691,   1.66666663,          -5.,           0.
    692,   1.66666663,  -3.88888884,           0.
    693,   1.66666663,  -2.77777767,           0.
    694,   1.66666663,  -1.66666663,           0.
    695,   1.66666663, -0.555555582,           0.
    696,   1.66666663,  0.555555582,           0.
    697,   1.66666663,   1.66666663,           0.
    698,   1.66666663,   2.77777767,           0.
    699,   1.66666663,   3.88888884,           0.
    700,   1.66666663,           5.,           0.
    701,   2.77777767,          -5.,          10.
    702,   2.77777767,  -3.88888884,          10.
    703,   2.77777767,  -2.77777767,          10.
    704,   2.77777767,  -1.66666663,          10.
    705,   2.77777767, -0.555555582,          10.
    706,   2.77777767,  0.555555582,          10.
    707,   2.77777767,   1.66666663,          10.
    708,   2.77777767,   2.77777767,          10.
    709,   2.77777767,   3.88888884,          10.
    710,   2.77777767,           5.,          10.
    711,   2.77777767,          -5.,   8.88888931
    712,   2.77777767,  -3.88888884,   8.88888931
    713,   2.77777767,  -2.77777767,   8.88888931
    714,   2.77777767,  -1.66666663,   8.88888931
    715,   2.77777767, -0.555555582,   8.88888931
    716,   2.77777767,  0.555555582,   8.88888931
    717,   2.77777767,   1.66666663,   8.88888931
    718,   2.77777767,   2.77777767,   8.88888931
    719,   2.77777767,   3.88888884,   8.88888931
    720,   2.77777767,           5.,   8.88888931
    721,   2.77777767,          -5.,   7.77777767
    722,   2.77777767,  -3.88888884,   7.77777767
    723,   2.77777767,  -2.77777767,   7.77777767
    724,   2.77777767,  -1.66666663,   7.77777767
    725,   2.77777767, -0.555555582,   7.77777767
    726,   2.77777767,  0.555555582,   7.77777767
    727,   2.77777767,   1.66666663,   7.77777767
    728,   2.77777767,   2.77777767,   7.77777767
    729,   2.77777767,   3.88888884,   7.77777767
    730,   2.77777767,           5.,   7.77777767
    731,   2.77777767,          -5.,   6.66666651
    732,   2.77777767,  -3.88888884,   6.66666651
    733,   2.77777767,  -2.77777767,   6.66666651
    734,   2.77777767,  -1.66666663,   6.66666651
    735,   2.77777767, -0.555555582,   6.66666651
    736,   2.77777767,  0.555555582,   6.66666651
    737,   2.77777767,   1.66666663,   6.66666651
    738,   2.77777767,   2.77777767,   6.66666651
    739,   2.77777767,   3.88888884,   6.66666651
    740,   2.77777767,           5.,   6.66666651
    741,   2.77777767,          -5.,   5.55555534
    742,   2.77777767,  -3.88888884,   5.55555534
    743,   2.77777767,  -2.77777767,   5.55555534
    744,   2.77777767,  -1.66666663,   5.55555534
    745,   2.77777767, -0.555555582,   5.55555534
    746,   2.77777767,  0.555555582,   5.55555534
    747,   2.77777767,   1.66666663,   5.55555534
    748,   2.77777767,   2.77777767,   5.55555534
    749,   2.77777767,   3.88888884,   5.55555534
    750,   2.77777767,           5.,   5.55555534
    751,   2.77777767,          -5.,   4.44444466
    752,   2.77777767,  -3.88888884,   4.44444466
    753,   2.77777767,  -2.77777767,   4.44444466
    754,   2.77777767,  -1.66666663,   4.44444466
    755,   2.77777767, -0.555555582,   4.44444466
    756,   2.77777767,  0.555555582,   4.44444466
    757,   2.77777767,   1.66666663,   4.44444466
    758,   2.77777767,   2.77777767,   4.44444466
    759,   2.77777767,   3.88888884,   4.44444466
    760,   2.77777767,           5.,   4.44444466
    761,   2.77777767,          -5.,   3.33333325
    762,   2.77777767,  -3.88888884,   3.33333325
    763,   2.77777767,  -2.77777767,   3.33333325
    764,   2.77777767,  -1.66666663,   3.33333325
    765,   2.77777767, -0.555555582,   3.33333325
    766,   2.77777767,  0.555555582,   3.33333325
    767,   2.77777767,   1.66666663,   3.33333325
    768,   2.77777767,   2.77777767,   3.33333325
    769,   2.77777767,   3.88888884,   3.33333325
    770,   2.77777767,           5.,   3.33333325
    771,   2.77777767,          -5.,   2.22222233
    772,   2.77777767,  -3.88888884,   2.22222233
    773,   2.77777767,  -2.77777767,   2.22222233
    774,   2.77777767,  -1.66666663,   2.22222233
    775,   2.77777767, -0.555555582,   2.22222233
    776,   2.77777767,  0.555555582,   2.22222233
    777,   2.77777767,   1.66666663,   2.22222233
    778,   2.77777767,   2.77777767,   2.22222233
    779,   2.77777767,   3.88888884,   2.22222233
    780,   2.77777767,           5.,   2.22222233
    781,   2.77777767,          -5.,   1.11111116
    782,   2.77777767,  -3.88888884,   1.11111116
    783,   2.77777767,  -2.77777767,   1.11111116
    784,   2.77777767,  -1.66666663,   1.11111116
    785,   2.77777767, -0.555555582,   1.11111116
    786,   2.77777767,  0.555555582,   1.11111116
    787,   2.77777767,   1.66666663,   1.11111116
    788,   2.77777767,   2.77777767,   1.11111116
    789,   2.77777767,   3.88888884,   1.11111116
    790,   2.77777767,           5.,   1.11111116
    791,   2.77777767,          -5.,           0.
    792,   2.77777767,  -3.88888884,           0.
    793,   2.77777767,  -2.77777767,           0.
    794,   2.77777767,  -1.66666663,           0.
    795,   2.77777767, -0.555555582,           0.
    796,   2.77777767,  0.555555582,           0.
    797,   2.77777767,   1.66666663,           0.
    798,   2.77777767,   2.77777767,           0.
    799,   2.77777767,   3.88888884,           0.
    800,   2.77777767,           5.,           0.
    801,   3.88888884,          -5.,          10.
    802,   3.88888884,  -3.88888884,          10.
    803,   3.88888884,  -2.77777767,          10.
    804,   3.88888884,  -1.66666663,          10.
    805,   3.88888884, -0.555555582,          10.
    806,   3.88888884,  0.555555582,          10.
    807,   3.88888884,   1.66666663,          10.
    808,   3.88888884,   2.77777767,          10.
    809,   3.88888884,   3.88888884,          10.
    810,   3.88888884,           5.,          10.
    811,   3.88888884,          -5.,   8.88888931
    812,   3.88888884,  -3.88888884,   8.88888931
    813,   3.88888884,  -2.77777767,   8.88888931
    814,   3.88888884,  -1.66666663,   8.88888931
    815,   3.88888884, -0.555555582,   8.88888931
    816,   3.88888884,  0.555555582,   8.88888931
    817,   3.88888884,   1.66666663,   8.88888931
    818,   3.88888884,   2.77777767,   8.88888931
    819,   3.88888884,   3.88888884,   8.88888931
    820,   3.88888884,           5.,   8.88888931
    821,   3.88888884,          -5.,   7.77777767
    822,   3.88888884,  -3.88888884,   7.77777767
    823,   3.88888884,  -2.77777767,   7.77777767
    824,   3.88888884,  -1.66666663,   7.77777767
    825,   3.88888884, -0.555555582,   7.77777767
    826,   3.88888884,  0.555555582,   7.77777767
    827,   3.88888884,   1.66666663,   7.77777767
    828,   3.88888884,   2.77777767,   7.77777767
    829,   3.88888884,   3.88888884,   7.77777767
    830,   3.88888884,           5.,   7.77777767
    831,   3.88888884,          -5.,   6.66666651
    832,   3.88888884,  -3.88888884,   6.66666651
    833,   3.88888884,  -2.77777767,   6.66666651
    834,   3.88888884,  -1.66666663,   6.66666651
    835,   3.88888884, -0.555555582,   6.66666651
    836,   3.88888884,  0.555555582,   6.66666651
    837,   3.88888884,   1.66666663,   6.66666651
    838,   3.88888884,   2.77777767,   6.66666651
    839,   3.88888884,   3.88888884,   6.66666651
    840,   3.88888884,           5.,   6.66666651
    841,   3.88888884,          -5.,   5.55555534
    842,   3.88888884,  -3.88888884,   5.55555534
    843,   3.88888884,  -2.77777767,   5.55555534
    844,   3.88888884,  -1.66666663,   5.55555534
    845,   3.88888884, -0.555555582,   5.55555534
    846,   3.88888884,  0.555555582,   5.55555534
    847,   3.88888884,   1.66666663,   5.55555534
    848,   3.88888884,   2.77777767,   5.55555534
    849,   3.88888884,   3.88888884,   5.55555534
    850,   3.88888884,           5.,   5.55555534
    851,   3.88888884,          -5.,   4.44444466
    852,   3.88888884,  -3.88888884,   4.44444466
    853,   3.88888884,  -2.77777767,   4.44444466
    854,   3.88888884,  -1.66666663,   4.44444466
    855,   3.88888884, -0.555555582,   4.44444466
    856,   3.88888884,  0.555555582,   4.44444466
    857,   3.88888884,   1.66666663,   4.44444466
    858,   3.88888884,   2.77777767,   4.44444466
    859,   3.88888884,   3.88888884,   4.44444466
    860,   3.88888884,           5.,   4.44444466
    861,   3.88888884,          -5.,   3.33333325
    862,   3.88888884,  -3.88888884,   3.33333325
    863,   3.88888884,  -2.77777767,   3.33333325
    864,   3.88888884,  -1.66666663,   3.33333325
    865,   3.88888884, -0.555555582,   3.33333325
    866,   3.88888884,  0.555555582,   3.33333325
    867,   3.88888884,   1.66666663,   3.33333325
    868,   3.88888884,   2.77777767,   3.33333325
    869,   3.88888884,   3.88888884,   3.33333325
    870,   3.88888884,           5.,   3.33333325
    871,   3.88888884,          -5.,   2.22222233
    872,   3.88888884,  -3.88888884,   2.22222233
    873,   3.88888884,  -2.77777767,   2.22222233
    874,   3.88888884,  -1.66666663,   2.22222233
    875,   3.88888884, -0.555555582,   2.22222233
    876,   3.88888884,  0.555555582,   2.22222233
    877,   3.88888884,   1.66666663,   2.22222233
    878,   3.88888884,   2.77777767,   2.22222233
    879,   3.88888884,   3.88888884,   2.22222233
    880,   3.88888884,           5.,   2.22222233
    881,   3.88888884,          -5.,   1.11111116
    882,   3.88888884,  -3.88888884,   1.11111116
    883,   3.88888884,  -2.77777767,   1.11111116
    884,   3.88888884,  -1.66666663,   1.11111116
    885,   3.88888884, -0.555555582,   1.11111116
    886,   3.88888884,  0.555555582,   1.11111116
    887,   3.88888884,   1.66666663,   1.11111116
    888,   3.88888884,   2.77777767,   1.11111116
    889,   3.88888884,   3.88888884,   1.11111116
    890,   3.88888884,           5.,   1.11111116
    891,   3.88888884,          -5.,           0.
    892,   3.88888884,  -3.88888884,           0.
    893,   3.88888884,  -2.77777767,           0.
    894,   3.88888884,  -1.66666663,           0.
    895,   3.88888884, -0.555555582,           0.
    896,   3.88888884,  0.555555582,           0.
    897,   3.88888884,   1.66666663,           0.
    898,   3.88888884,   2.77777767,           0.
    899,   3.88888884,   3.88888884,           0.
    900,   3.88888884,           5.,           0.
    901,           5.,          -5.,          10.
    902,           5.,  -3.88888884,          10.
    903,           5.,  -2.77777767,          10.
    904,           5.,  -1.66666663,          10.
    905,           5., -0.555555582,          10.
    906,           5.,  0.555555582,          10.
    907,           5.,   1.66666663,          10.
    908,           5.,   2.77777767,          10.
    909,           5.,   3.88888884,          10.
    910,           5.,           5.,          10.
    911,           5.,          -5.,   8.88888931
    912,           5.,  -3.88888884,   8.88888931
    913,           5.,  -2.77777767,   8.88888931
    914,           5.,  -1.66666663,   8.88888931
    915,           5., -0.555555582,   8.88888931
    916,           5.,  0.555555582,   8.88888931
    917,           5.,   1.66666663,   8.88888931
    918,           5.,   2.77777767,   8.88888931
    919,           5.,   3.88888884,   8.88888931
    920,           5.,           5.,   8.88888931
    921,           5.,          -5.,   7.77777767
    922,           5.,  -3.88888884,   7.77777767
    923,           5.,  -2.77777767,   7.77777767
    924,           5.,  -1.66666663,   7.77777767
    925,           5., -0.555555582,   7.77777767
    926,           5.,  0.555555582,   7.77777767
    927,           5.,   1.66666663,   7.77777767
    928,           5.,   2.77777767,   7.77777767
    929,           5.,   3.88888884,   7.77777767
    930,           5.,           5.,   7.77777767
    931,           5.,          -5.,   6.66666651
    932,           5.,  -3.88888884,   6.66666651
    933,           5.,  -2.77777767,   6.66666651
    934,           5.,  -1.66666663,   6.66666651
    935,           5., -0.555555582,   6.66666651
    936,           5.,  0.555555582,   6.66666651
    937,           5.,   1.66666663,   6.66666651
    938,           5.,   2.77777767,   6.66666651
    939,           5.,   3.88888884,   6.66666651
    940,           5.,           5.,   6.66666651
    941,           5.,          -5.,   5.55555534
    942,           5.,  -3.88888884,   5.55555534
    943,           5.,  -2.77777767,   5.55555534
    944,           5.,  -1.66666663,   5.55555534
    945,           5., -0.555555582,   5.55555534
    946,           5.,  0.555555582,   5.55555534
    947,           5.,   1.66666663,   5.55555534
    948,           5.,   2.77777767,   5.55555534
    949,           5.,   3.88888884,   5.55555534
    950,           5.,           5.,   5.55555534
    951,           5.,          -5.,   4.44444466
    952,           5.,  -3.88888884,   4.44444466
    953,           5.,  -2.77777767,   4.44444466
    954,           5.,  -1.66666663,   4.44444466
    955,           5., -0.555555582,   4.44444466
    956,           5.,  0.555555582,   4.44444466
    957,           5.,   1.66666663,   4.44444466
    958,           5.,   2.77777767,   4.44444466
    959,           5.,   3.88888884,   4.44444466
    960,           5.,           5.,   4.44444466
    961,           5.,          -5.,   3.33333325
    962,           5.,  -3.88888884,   3.33333325
    963,           5.,  -2.77777767,   3.33333325
    964,           5.,  -1.66666663,   3.33333325
    965,           5., -0.555555582,   3.33333325
    966,           5.,  0.555555582,   3.33333325
    967,           5.,   1.66666663,   3.33333325
    968,           5.,   2.77777767,   3.33333325
    969,           5.,   3.88888884,   3.33333325
    970,           5.,           5.,   3.33333325
    971,           5.,          -5.,   2.22222233
    972,           5.,  -3.88888884,   2.22222233
    973,           5.,  -2.77777767,   2.22222233
    974,           5.,  -1.66666663,   2.22222233
    975,           5., -0.555555582,   2.22222233
    976,           5.,  0.555555582,   2.22222233
    977,           5.,   1.66666663,   2.22222233
    978,           5.,   2.77777767,   2.22222233
    979,           5.,   3.88888884,   2.22222233
    980,           5.,           5.,   2.22222233
    981,           5.,          -5.,   1.11111116
    982,           5.,  -3.88888884,   1.11111116
    983,           5.,  -2.77777767,   1.11111116
    984,           5.,  -1.66666663,   1.11111116
    985,           5., -0.555555582,   1.11111116
    986,           5.,  0.555555582,   1.11111116
    987,           5.,   1.66666663,   1.11111116
    988,           5.,   2.77777767,   1.11111116
    989,           5.,   3.88888884,   1.11111116
    990,           5.,           5.,   1.11111116
    991,           5.,          -5.,           0.
    992,           5.,  -3.88888884,           0.
    993,           5.,  -2.77777767,           0.
    994,           5.,  -1.66666663,           0.
    995,           5., -0.555555582,           0.
    996,           5.,  0.555555582,           0.
    997,           5.,   1.66666663,           0.
    998,           5.,   2.77777767,           0.
    999,           5.,   3.88888884,           0.
   1000,           5.,           5.,           0.
*Element, type=C3D8R
  1,  101,  102,  112,  111,    1,    2,   12,   11
  2,  102,  103,  113,  112,    2,    3,   13,   12
  3,  103,  104,  114,  113,    3,    4,   14,   13
  4,  104,  105,  115,  114,    4,    5,   15,   14
  5,  105,  106,  116,  115,    5,    6,   16,   15
  6,  106,  107,  117,  116,    6,    7,   17,   16
  7,  107,  108,  118,  117,    7,    8,   18,   17
  8,  108,  109,  119,  118,    8,    9,   19,   18
  9,  109,  110,  120,  119,    9,   10,   20,   19
 10,  111,  112,  122,  121,   11,   12,   22,   21
 11,  112,  113,  123,  122,   12,   13,   23,   22
 12,  113,  114,  124,  123,   13,   14,   24,   23
 13,  114,  115,  125,  124,   14,   15,   25,   24
 14,  115,  116,  126,  125,   15,   16,   26,   25
 15,  116,  117,  127,  126,   16,   17,   27,   26
 16,  117,  118,  128,  127,   17,   18,   28,   27
 17,  118,  119,  129,  128,   18,   19,   29,   28
 18,  119,  120,  130,  129,   19,   20,   30,   29
 19,  121,  122,  132,  131,   21,   22,   32,   31
 20,  122,  123,  133,  132,   22,   23,   33,   32
 21,  123,  124,  134,  133,   23,   24,   34,   33
 22,  124,  125,  135,  134,   24,   25,   35,   34
 23,  125,  126,  136,  135,   25,   26,   36,   35
 24,  126,  127,  137,  136,   26,   27,   37,   36
 25,  127,  128,  138,  137,   27,   28,   38,   37
 26,  128,  129,  139,  138,   28,   29,   39,   38
 27,  129,  130,  140,  139,   29,   30,   40,   39
 28,  131,  132,  142,  141,   31,   32,   42,   41
 29,  132,  133,  143,  142,   32,   33,   43,   42
 30,  133,  134,  144,  143,   33,   34,   44,   43
 31,  134,  135,  145,  144,   34,   35,   45,   44
 32,  135,  136,  146,  145,   35,   36,   46,   45
 33,  136,  137,  147,  146,   36,   37,   47,   46
 34,  137,  138,  148,  147,   37,   38,   48,   47
 35,  138,  139,  149,  148,   38,   39,   49,   48
 36,  139,  140,  150,  149,   39,   40,   50,   49
 37,  141,  142,  152,  151,   41,   42,   52,   51
 38,  142,  143,  153,  152,   42,   43,   53,   52
 39,  143,  144,  154,  153,   43,   44,   54,   53
 40,  144,  145,  155,  154,   44,   45,   55,   54
 41,  145,  146,  156,  155,   45,   46,   56,   55
 42,  146,  147,  157,  156,   46,   47,   57,   56
 43,  147,  148,  158,  157,   47,   48,   58,   57
 44,  148,  149,  159,  158,   48,   49,   59,   58
 45,  149,  150,  160,  159,   49,   50,   60,   59
 46,  151,  152,  162,  161,   51,   52,   62,   61
 47,  152,  153,  163,  162,   52,   53,   63,   62
 48,  153,  154,  164,  163,   53,   54,   64,   63
 49,  154,  155,  165,  164,   54,   55,   65,   64
 50,  155,  156,  166,  165,   55,   56,   66,   65
 51,  156,  157,  167,  166,   56,   57,   67,   66
 52,  157,  158,  168,  167,   57,   58,   68,   67
 53,  158,  159,  169,  168,   58,   59,   69,   68
 54,  159,  160,  170,  169,   59,   60,   70,   69
 55,  161,  162,  172,  171,   61,   62,   72,   71
 56,  162,  163,  173,  172,   62,   63,   73,   72
 57,  163,  164,  174,  173,   63,   64,   74,   73
 58,  164,  165,  175,  174,   64,   65,   75,   74
 59,  165,  166,  176,  175,   65,   66,   76,   75
 60,  166,  167,  177,  176,   66,   67,   77,   76
 61,  167,  168,  178,  177,   67,   68,   78,   77
 62,  168,  169,  179,  178,   68,   69,   79,   78
 63,  169,  170,  180,  179,   69,   70,   80,   79
 64,  171,  172,  182,  181,   71,   72,   82,   81
 65,  172,  173,  183,  182,   72,   73,   83,   82
 66,  173,  174,  184,  183,   73,   74,   84,   83
 67,  174,  175,  185,  184,   74,   75,   85,   84
 68,  175,  176,  186,  185,   75,   76,   86,   85
 69,  176,  177,  187,  186,   76,   77,   87,   86
 70,  177,  178,  188,  187,   77,   78,   88,   87
 71,  178,  179,  189,  188,   78,   79,   89,   88
 72,  179,  180,  190,  189,   79,   80,   90,   89
 73,  181,  182,  192,  191,   81,   82,   92,   91
 74,  182,  183,  193,  192,   82,   83,   93,   92
 75,  183,  184,  194,  193,   83,   84,   94,   93
 76,  184,  185,  195,  194,   84,   85,   95,   94
 77,  185,  186,  196,  195,   85,   86,   96,   95
 78,  186,  187,  197,  196,   86,   87,   97,   96
 79,  187,  188,  198,  197,   87,   88,   98,   97
 80,  188,  189,  199,  198,   88,   89,   99,   98
 81,  189,  190,  200,  199,   89,   90,  100,   99
 82,  201,  202,  212,  211,  101,  102,  112,  111
 83,  202,  203,  213,  212,  102,  103,  113,  112
 84,  203,  204,  214,  213,  103,  104,  114,  113
 85,  204,  205,  215,  214,  104,  105,  115,  114
 86,  205,  206,  216,  215,  105,  106,  116,  115
 87,  206,  207,  217,  216,  106,  107,  117,  116
 88,  207,  208,  218,  217,  107,  108,  118,  117
 89,  208,  209,  219,  218,  108,  109,  119,  118
 90,  209,  210,  220,  219,  109,  110,  120,  119
 91,  211,  212,  222,  221,  111,  112,  122,  121
 92,  212,  213,  223,  222,  112,  113,  123,  122
 93,  213,  214,  224,  223,  113,  114,  124,  123
 94,  214,  215,  225,  224,  114,  115,  125,  124
 95,  215,  216,  226,  225,  115,  116,  126,  125
 96,  216,  217,  227,  226,  116,  117,  127,  126
 97,  217,  218,  228,  227,  117,  118,  128,  127
 98,  218,  219,  229,  228,  118,  119,  129,  128
 99,  219,  220,  230,  229,  119,  120,  130,  129
100,  221,  222,  232,  231,  121,  122,  132,  131
101,  222,  223,  233,  232,  122,  123,  133,  132
102,  223,  224,  234,  233,  123,  124,  134,  133
103,  224,  225,  235,  234,  124,  125,  135,  134
104,  225,  226,  236,  235,  125,  126,  136,  135
105,  226,  227,  237,  236,  126,  127,  137,  136
106,  227,  228,  238,  237,  127,  128,  138,  137
107,  228,  229,  239,  238,  128,  129,  139,  138
108,  229,  230,  240,  239,  129,  130,  140,  139
109,  231,  232,  242,  241,  131,  132,  142,  141
110,  232,  233,  243,  242,  132,  133,  143,  142
111,  233,  234,  244,  243,  133,  134,  144,  143
112,  234,  235,  245,  244,  134,  135,  145,  144
113,  235,  236,  246,  245,  135,  136,  146,  145
114,  236,  237,  247,  246,  136,  137,  147,  146
115,  237,  238,  248,  247,  137,  138,  148,  147
116,  238,  239,  249,  248,  138,  139,  149,  148
117,  239,  240,  250,  249,  139,  140,  150,  149
118,  241,  242,  252,  251,  141,  142,  152,  151
119,  242,  243,  253,  252,  142,  143,  153,  152
120,  243,  244,  254,  253,  143,  144,  154,  153
121,  244,  245,  255,  254,  144,  145,  155,  154
122,  245,  246,  256,  255,  145,  146,  156,  155
123,  246,  247,  257,  256,  146,  147,  157,  156
124,  247,  248,  258,  257,  147,  148,  158,  157
125,  248,  249,  259,  258,  148,  149,  159,  158
126,  249,  250,  260,  259,  149,  150,  160,  159
127,  251,  252,  262,  261,  151,  152,  162,  161
128,  252,  253,  263,  262,  152,  153,  163,  162
129,  253,  254,  264,  263,  153,  154,  164,  163
130,  254,  255,  265,  264,  154,  155,  165,  164
131,  255,  256,  266,  265,  155,  156,  166,  165
132,  256,  257,  267,  266,  156,  157,  167,  166
133,  257,  258,  268,  267,  157,  158,  168,  167
134,  258,  259,  269,  268,  158,  159,  169,  168
135,  259,  260,  270,  269,  159,  160,  170,  169
136,  261,  262,  272,  271,  161,  162,  172,  171
137,  262,  263,  273,  272,  162,  163,  173,  172
138,  263,  264,  274,  273,  163,  164,  174,  173
139,  264,  265,  275,  274,  164,  165,  175,  174
140,  265,  266,  276,  275,  165,  166,  176,  175
141,  266,  267,  277,  276,  166,  167,  177,  176
142,  267,  268,  278,  277,  167,  168,  178,  177
143,  268,  269,  279,  278,  168,  169,  179,  178
144,  269,  270,  280,  279,  169,  170,  180,  179
145,  271,  272,  282,  281,  171,  172,  182,  181
146,  272,  273,  283,  282,  172,  173,  183,  182
147,  273,  274,  284,  283,  173,  174,  184,  183
148,  274,  275,  285,  284,  174,  175,  185,  184
149,  275,  276,  286,  285,  175,  176,  186,  185
150,  276,  277,  287,  286,  176,  177,  187,  186
151,  277,  278,  288,  287,  177,  178,  188,  187
152,  278,  279,  289,  288,  178,  179,  189,  188
153,  279,  280,  290,  289,  179,  180,  190,  189
154,  281,  282,  292,  291,  181,  182,  192,  191
155,  282,  283,  293,  292,  182,  183,  193,  192
156,  283,  284,  294,  293,  183,  184,  194,  193
157,  284,  285,  295,  294,  184,  185,  195,  194
158,  285,  286,  296,  295,  185,  186,  196,  195
159,  286,  287,  297,  296,  186,  187,  197,  196
160,  287,  288,  298,  297,  187,  188,  198,  197
161,  288,  289,  299,  298,  188,  189,  199,  198
162,  289,  290,  300,  299,  189,  190,  200,  199
163,  301,  302,  312,  311,  201,  202,  212,  211
164,  302,  303,  313,  312,  202,  203,  213,  212
165,  303,  304,  314,  313,  203,  204,  214,  213
166,  304,  305,  315,  314,  204,  205,  215,  214
167,  305,  306,  316,  315,  205,  206,  216,  215
168,  306,  307,  317,  316,  206,  207,  217,  216
169,  307,  308,  318,  317,  207,  208,  218,  217
170,  308,  309,  319,  318,  208,  209,  219,  218
171,  309,  310,  320,  319,  209,  210,  220,  219
172,  311,  312,  322,  321,  211,  212,  222,  221
173,  312,  313,  323,  322,  212,  213,  223,  222
174,  313,  314,  324,  323,  213,  214,  224,  223
175,  314,  315,  325,  324,  214,  215,  225,  224
176,  315,  316,  326,  325,  215,  216,  226,  225
177,  316,  317,  327,  326,  216,  217,  227,  226
178,  317,  318,  328,  327,  217,  218,  228,  227
179,  318,  319,  329,  328,  218,  219,  229,  228
180,  319,  320,  330,  329,  219,  220,  230,  229
181,  321,  322,  332,  331,  221,  222,  232,  231
182,  322,  323,  333,  332,  222,  223,  233,  232
183,  323,  324,  334,  333,  223,  224,  234,  233
184,  324,  325,  335,  334,  224,  225,  235,  234
185,  325,  326,  336,  335,  225,  226,  236,  235
186,  326,  327,  337,  336,  226,  227,  237,  236
187,  327,  328,  338,  337,  227,  228,  238,  237
188,  328,  329,  339,  338,  228,  229,  239,  238
189,  329,  330,  340,  339,  229,  230,  240,  239
190,  331,  332,  342,  341,  231,  232,  242,  241
191,  332,  333,  343,  342,  232,  233,  243,  242
192,  333,  334,  344,  343,  233,  234,  244,  243
193,  334,  335,  345,  344,  234,  235,  245,  244
194,  335,  336,  346,  345,  235,  236,  246,  245
195,  336,  337,  347,  346,  236,  237,  247,  246
196,  337,  338,  348,  347,  237,  238,  248,  247
197,  338,  339,  349,  348,  238,  239,  249,  248
198,  339,  340,  350,  349,  239,  240,  250,  249
199,  341,  342,  352,  351,  241,  242,  252,  251
200,  342,  343,  353,  352,  242,  243,  253,  252
201,  343,  344,  354,  353,  243,  244,  254,  253
202,  344,  345,  355,  354,  244,  245,  255,  254
203,  345,  346,  356,  355,  245,  246,  256,  255
204,  346,  347,  357,  356,  246,  247,  257,  256
205,  347,  348,  358,  357,  247,  248,  258,  257
206,  348,  349,  359,  358,  248,  249,  259,  258
207,  349,  350,  360,  359,  249,  250,  260,  259
208,  351,  352,  362,  361,  251,  252,  262,  261
209,  352,  353,  363,  362,  252,  253,  263,  262
210,  353,  354,  364,  363,  253,  254,  264,  263
211,  354,  355,  365,  364,  254,  255,  265,  264
212,  355,  356,  366,  365,  255,  256,  266,  265
213,  356,  357,  367,  366,  256,  257,  267,  266
214,  357,  358,  368,  367,  257,  258,  268,  267
215,  358,  359,  369,  368,  258,  259,  269,  268
216,  359,  360,  370,  369,  259,  260,  270,  269
217,  361,  362,  372,  371,  261,  262,  272,  271
218,  362,  363,  373,  372,  262,  263,  273,  272
219,  363,  364,  374,  373,  263,  264,  274,  273
220,  364,  365,  375,  374,  264,  265,  275,  274
221,  365,  366,  376,  375,  265,  266,  276,  275
222,  366,  367,  377,  376,  266,  267,  277,  276
223,  367,  368,  378,  377,  267,  268,  278,  277
224,  368,  369,  379,  378,  268,  269,  279,  278
225,  369,  370,  380,  379,  269,  270,  280,  279
226,  371,  372,  382,  381,  271,  272,  282,  281
227,  372,  373,  383,  382,  272,  273,  283,  282
228,  373,  374,  384,  383,  273,  274,  284,  283
229,  374,  375,  385,  384,  274,  275,  285,  284
230,  375,  376,  386,  385,  275,  276,  286,  285
231,  376,  377,  387,  386,  276,  277,  287,  286
232,  377,  378,  388,  387,  277,  278,  288,  287
233,  378,  379,  389,  388,  278,  279,  289,  288
234,  379,  380,  390,  389,  279,  280,  290,  289
235,  381,  382,  392,  391,  281,  282,  292,  291
236,  382,  383,  393,  392,  282,  283,  293,  292
237,  383,  384,  394,  393,  283,  284,  294,  293
238,  384,  385,  395,  394,  284,  285,  295,  294
239,  385,  386,  396,  395,  285,  286,  296,  295
240,  386,  387,  397,  396,  286,  287,  297,  296
241,  387,  388,  398,  397,  287,  288,  298,  297
242,  388,  389,  399,  398,  288,  289,  299,  298
243,  389,  390,  400,  399,  289,  290,  300,  299
244,  401,  402,  412,  411,  301,  302,  312,  311
245,  402,  403,  413,  412,  302,  303,  313,  312
246,  403,  404,  414,  413,  303,  304,  314,  313
247,  404,  405,  415,  414,  304,  305,  315,  314
248,  405,  406,  416,  415,  305,  306,  316,  315
249,  406,  407,  417,  416,  306,  307,  317,  316
250,  407,  408,  418,  417,  307,  308,  318,  317
251,  408,  409,  419,  418,  308,  309,  319,  318
252,  409,  410,  420,  419,  309,  310,  320,  319
253,  411,  412,  422,  421,  311,  312,  322,  321
254,  412,  413,  423,  422,  312,  313,  323,  322
255,  413,  414,  424,  423,  313,  314,  324,  323
256,  414,  415,  425,  424,  314,  315,  325,  324
257,  415,  416,  426,  425,  315,  316,  326,  325
258,  416,  417,  427,  426,  316,  317,  327,  326
259,  417,  418,  428,  427,  317,  318,  328,  327
260,  418,  419,  429,  428,  318,  319,  329,  328
261,  419,  420,  430,  429,  319,  320,  330,  329
262,  421,  422,  432,  431,  321,  322,  332,  331
263,  422,  423,  433,  432,  322,  323,  333,  332
264,  423,  424,  434,  433,  323,  324,  334,  333
265,  424,  425,  435,  434,  324,  325,  335,  334
266,  425,  426,  436,  435,  325,  326,  336,  335
267,  426,  427,  437,  436,  326,  327,  337,  336
268,  427,  428,  438,  437,  327,  328,  338,  337
269,  428,  429,  439,  438,  328,  329,  339,  338
270,  429,  430,  440,  439,  329,  330,  340,  339
271,  431,  432,  442,  441,  331,  332,  342,  341
272,  432,  433,  443,  442,  332,  333,  343,  342
273,  433,  434,  444,  443,  333,  334,  344,  343
274,  434,  435,  445,  444,  334,  335,  345,  344
275,  435,  436,  446,  445,  335,  336,  346,  345
276,  436,  437,  447,  446,  336,  337,  347,  346
277,  437,  438,  448,  447,  337,  338,  348,  347
278,  438,  439,  449,  448,  338,  339,  349,  348
279,  439,  440,  450,  449,  339,  340,  350,  349
280,  441,  442,  452,  451,  341,  342,  352,  351
281,  442,  443,  453,  452,  342,  343,  353,  352
282,  443,  444,  454,  453,  343,  344,  354,  353
283,  444,  445,  455,  454,  344,  345,  355,  354
284,  445,  446,  456,  455,  345,  346,  356,  355
285,  446,  447,  457,  456,  346,  347,  357,  356
286,  447,  448,  458,  457,  347,  348,  358,  357
287,  448,  449,  459,  458,  348,  349,  359,  358
288,  449,  450,  460,  459,  349,  350,  360,  359
289,  451,  452,  462,  461,  351,  352,  362,  361
290,  452,  453,  463,  462,  352,  353,  363,  362
291,  453,  454,  464,  463,  353,  354,  364,  363
292,  454,  455,  465,  464,  354,  355,  365,  364
293,  455,  456,  466,  465,  355,  356,  366,  365
294,  456,  457,  467,  466,  356,  357,  367,  366
295,  457,  458,  468,  467,  357,  358,  368,  367
296,  458,  459,  469,  468,  358,  359,  369,  368
297,  459,  460,  470,  469,  359,  360,  370,  369
298,  461,  462,  472,  471,  361,  362,  372,  371
299,  462,  463,  473,  472,  362,  363,  373,  372
300,  463,  464,  474,  473,  363,  364,  374,  373
301,  464,  465,  475,  474,  364,  365,  375,  374
302,  465,  466,  476,  475,  365,  366,  376,  375
303,  466,  467,  477,  476,  366,  367,  377,  376
304,  467,  468,  478,  477,  367,  368,  378,  377
305,  468,  469,  479,  478,  368,  369,  379,  378
306,  469,  470,  480,  479,  369,  370,  380,  379
307,  471,  472,  482,  481,  371,  372,  382,  381
308,  472,  473,  483,  482,  372,  373,  383,  382
309,  473,  474,  484,  483,  373,  374,  384,  383
310,  474,  475,  485,  484,  374,  375,  385,  384
311,  475,  476,  486,  485,  375,  376,  386,  385
312,  476,  477,  487,  486,  376,  377,  387,  386
313,  477,  478,  488,  487,  377,  378,  388,  387
314,  478,  479,  489,  488,  378,  379,  389,  388
315,  479,  480,  490,  489,  379,  380,  390,  389
316,  481,  482,  492,  491,  381,  382,  392,  391
317,  482,  483,  493,  492,  382,  383,  393,  392
318,  483,  484,  494,  493,  383,  384,  394,  393
319,  484,  485,  495,  494,  384,  385,  395,  394
320,  485,  486,  496,  495,  385,  386,  396,  395
321,  486,  487,  497,  496,  386,  387,  397,  396
322,  487,  488,  498,  497,  387,  388,  398,  397
323,  488,  489,  499,  498,  388,  389,  399,  398
324,  489,  490,  500,  499,  389,  390,  400,  399
325,  501,  502,  512,  511,  401,  402,  412,  411
326,  502,  503,  513,  512,  402,  403,  413,  412
327,  503,  504,  514,  513,  403,  404,  414,  413
328,  504,  505,  515,  514,  404,  405,  415,  414
329,  505,  506,  516,  515,  405,  406,  416,  415
330,  506,  507,  517,  516,  406,  407,  417,  416
331,  507,  508,  518,  517,  407,  408,  418,  417
332,  508,  509,  519,  518,  408,  409,  419,  418
333,  509,  510,  520,  519,  409,  410,  420,  419
334,  511,  512,  522,  521,  411,  412,  422,  421
335,  512,  513,  523,  522,  412,  413,  423,  422
336,  513,  514,  524,  523,  413,  414,  424,  423
337,  514,  515,  525,  524,  414,  415,  425,  424
338,  515,  516,  526,  525,  415,  416,  426,  425
339,  516,  517,  527,  526,  416,  417,  427,  426
340,  517,  518,  528,  527,  417,  418,  428,  427
341,  518,  519,  529,  528,  418,  419,  429,  428
342,  519,  520,  530,  529,  419,  420,  430,  429
343,  521,  522,  532,  531,  421,  422,  432,  431
344,  522,  523,  533,  532,  422,  423,  433,  432
345,  523,  524,  534,  533,  423,  424,  434,  433
346,  524,  525,  535,  534,  424,  425,  435,  434
347,  525,  526,  536,  535,  425,  426,  436,  435
348,  526,  527,  537,  536,  426,  427,  437,  436
349,  527,  528,  538,  537,  427,  428,  438,  437
350,  528,  529,  539,  538,  428,  429,  439,  438
351,  529,  530,  540,  539,  429,  430,  440,  439
352,  531,  532,  542,  541,  431,  432,  442,  441
353,  532,  533,  543,  542,  432,  433,  443,  442
354,  533,  534,  544,  543,  433,  434,  444,  443
355,  534,  535,  545,  544,  434,  435,  445,  444
356,  535,  536,  546,  545,  435,  436,  446,  445
357,  536,  537,  547,  546,  436,  437,  447,  446
358,  537,  538,  548,  547,  437,  438,  448,  447
359,  538,  539,  549,  548,  438,  439,  449,  448
360,  539,  540,  550,  549,  439,  440,  450,  449
361,  541,  542,  552,  551,  441,  442,  452,  451
362,  542,  543,  553,  552,  442,  443,  453,  452
363,  543,  544,  554,  553,  443,  444,  454,  453
364,  544,  545,  555,  554,  444,  445,  455,  454
365,  545,  546,  556,  555,  445,  446,  456,  455
366,  546,  547,  557,  556,  446,  447,  457,  456
367,  547,  548,  558,  557,  447,  448,  458,  457
368,  548,  549,  559,  558,  448,  449,  459,  458
369,  549,  550,  560,  559,  449,  450,  460,  459
370,  551,  552,  562,  561,  451,  452,  462,  461
371,  552,  553,  563,  562,  452,  453,  463,  462
372,  553,  554,  564,  563,  453,  454,  464,  463
373,  554,  555,  565,  564,  454,  455,  465,  464
374,  555,  556,  566,  565,  455,  456,  466,  465
375,  556,  557,  567,  566,  456,  457,  467,  466
376,  557,  558,  568,  567,  457,  458,  468,  467
377,  558,  559,  569,  568,  458,  459,  469,  468
378,  559,  560,  570,  569,  459,  460,  470,  469
379,  561,  562,  572,  571,  461,  462,  472,  471
380,  562,  563,  573,  572,  462,  463,  473,  472
381,  563,  564,  574,  573,  463,  464,  474,  473
382,  564,  565,  575,  574,  464,  465,  475,  474
383,  565,  566,  576,  575,  465,  466,  476,  475
384,  566,  567,  577,  576,  466,  467,  477,  476
385,  567,  568,  578,  577,  467,  468,  478,  477
386,  568,  569,  579,  578,  468,  469,  479,  478
387,  569,  570,  580,  579,  469,  470,  480,  479
388,  571,  572,  582,  581,  471,  472,  482,  481
389,  572,  573,  583,  582,  472,  473,  483,  482
390,  573,  574,  584,  583,  473,  474,  484,  483
391,  574,  575,  585,  584,  474,  475,  485,  484
392,  575,  576,  586,  585,  475,  476,  486,  485
393,  576,  577,  587,  586,  476,  477,  487,  486
394,  577,  578,  588,  587,  477,  478,  488,  487
395,  578,  579,  589,  588,  478,  479,  489,  488
396,  579,  580,  590,  589,  479,  480,  490,  489
397,  581,  582,  592,  591,  481,  482,  492,  491
398,  582,  583,  593,  592,  482,  483,  493,  492
399,  583,  584,  594,  593,  483,  484,  494,  493
400,  584,  585,  595,  594,  484,  485,  495,  494
401,  585,  586,  596,  595,  485,  486,  496,  495
402,  586,  587,  597,  596,  486,  487,  497,  496
403,  587,  588,  598,  597,  487,  488,  498,  497
404,  588,  589,  599,  598,  488,  489,  499,  498
405,  589,  590,  600,  599,  489,  490,  500,  499
406,  601,  602,  612,  611,  501,  502,  512,  511
407,  602,  603,  613,  612,  502,  503,  513,  512
408,  603,  604,  614,  613,  503,  504,  514,  513
409,  604,  605,  615,  614,  504,  505,  515,  514
410,  605,  606,  616,  615,  505,  506,  516,  515
411,  606,  607,  617,  616,  506,  507,  517,  516
412,  607,  608,  618,  617,  507,  508,  518,  517
413,  608,  609,  619,  618,  508,  509,  519,  518
414,  609,  610,  620,  619,  509,  510,  520,  519
415,  611,  612,  622,  621,  511,  512,  522,  521
416,  612,  613,  623,  622,  512,  513,  523,  522
417,  613,  614,  624,  623,  513,  514,  524,  523
418,  614,  615,  625,  624,  514,  515,  525,  524
419,  615,  616,  626,  625,  515,  516,  526,  525
420,  616,  617,  627,  626,  516,  517,  527,  526
421,  617,  618,  628,  627,  517,  518,  528,  527
422,  618,  619,  629,  628,  518,  519,  529,  528
423,  619,  620,  630,  629,  519,  520,  530,  529
424,  621,  622,  632,  631,  521,  522,  532,  531
425,  622,  623,  633,  632,  522,  523,  533,  532
426,  623,  624,  634,  633,  523,  524,  534,  533
427,  624,  625,  635,  634,  524,  525,  535,  534
428,  625,  626,  636,  635,  525,  526,  536,  535
429,  626,  627,  637,  636,  526,  527,  537,  536
430,  627,  628,  638,  637,  527,  528,  538,  537
431,  628,  629,  639,  638,  528,  529,  539,  538
432,  629,  630,  640,  639,  529,  530,  540,  539
433,  631,  632,  642,  641,  531,  532,  542,  541
434,  632,  633,  643,  642,  532,  533,  543,  542
435,  633,  634,  644,  643,  533,  534,  544,  543
436,  634,  635,  645,  644,  534,  535,  545,  544
437,  635,  636,  646,  645,  535,  536,  546,  545
438,  636,  637,  647,  646,  536,  537,  547,  546
439,  637,  638,  648,  647,  537,  538,  548,  547
440,  638,  639,  649,  648,  538,  539,  549,  548
441,  639,  640,  650,  649,  539,  540,  550,  549
442,  641,  642,  652,  651,  541,  542,  552,  551
443,  642,  643,  653,  652,  542,  543,  553,  552
444,  643,  644,  654,  653,  543,  544,  554,  553
445,  644,  645,  655,  654,  544,  545,  555,  554
446,  645,  646,  656,  655,  545,  546,  556,  555
447,  646,  647,  657,  656,  546,  547,  557,  556
448,  647,  648,  658,  657,  547,  548,  558,  557
449,  648,  649,  659,  658,  548,  549,  559,  558
450,  649,  650,  660,  659,  549,  550,  560,  559
451,  651,  652,  662,  661,  551,  552,  562,  561
452,  652,  653,  663,  662,  552,  553,  563,  562
453,  653,  654,  664,  663,  553,  554,  564,  563
454,  654,  655,  665,  664,  554,  555,  565,  564
455,  655,  656,  666,  665,  555,  556,  566,  565
456,  656,  657,  667,  666,  556,  557,  567,  566
457,  657,  658,  668,  667,  557,  558,  568,  567
458,  658,  659,  669,  668,  558,  559,  569,  568
459,  659,  660,  670,  669,  559,  560,  570,  569
460,  661,  662,  672,  671,  561,  562,  572,  571
461,  662,  663,  673,  672,  562,  563,  573,  572
462,  663,  664,  674,  673,  563,  564,  574,  573
463,  664,  665,  675,  674,  564,  565,  575,  574
464,  665,  666,  676,  675,  565,  566,  576,  575
465,  666,  667,  677,  676,  566,  567,  577,  576
466,  667,  668,  678,  677,  567,  568,  578,  577
467,  668,  669,  679,  678,  568,  569,  579,  578
468,  669,  670,  680,  679,  569,  570,  580,  579
469,  671,  672,  682,  681,  571,  572,  582,  581
470,  672,  673,  683,  682,  572,  573,  583,  582
471,  673,  674,  684,  683,  573,  574,  584,  583
472,  674,  675,  685,  684,  574,  575,  585,  584
473,  675,  676,  686,  685,  575,  576,  586,  585
474,  676,  677,  687,  686,  576,  577,  587,  586
475,  677,  678,  688,  687,  577,  578,  588,  587
476,  678,  679,  689,  688,  578,  579,  589,  588
477,  679,  680,  690,  689,  579,  580,  590,  589
478,  681,  682,  692,  691,  581,  582,  592,  591
479,  682,  683,  693,  692,  582,  583,  593,  592
480,  683,  684,  694,  693,  583,  584,  594,  593
481,  684,  685,  695,  694,  584,  585,  595,  594
482,  685,  686,  696,  695,  585,  586,  596,  595
483,  686,  687,  697,  696,  586,  587,  597,  596
484,  687,  688,  698,  697,  587,  588,  598,  597
485,  688,  689,  699,  698,  588,  589,  599,  598
486,  689,  690,  700,  699,  589,  590,  600,  599
487,  701,  702,  712,  711,  601,  602,  612,  611
488,  702,  703,  713,  712,  602,  603,  613,  612
489,  703,  704,  714,  713,  603,  604,  614,  613
490,  704,  705,  715,  714,  604,  605,  615,  614
491,  705,  706,  716,  715,  605,  606,  616,  615
492,  706,  707,  717,  716,  606,  607,  617,  616
493,  707,  708,  718,  717,  607,  608,  618,  617
494,  708,  709,  719,  718,  608,  609,  619,  618
495,  709,  710,  720,  719,  609,  610,  620,  619
496,  711,  712,  722,  721,  611,  612,  622,  621
497,  712,  713,  723,  722,  612,  613,  623,  622
498,  713,  714,  724,  723,  613,  614,  624,  623
499,  714,  715,  725,  724,  614,  615,  625,  624
500,  715,  716,  726,  725,  615,  616,  626,  625
501,  716,  717,  727,  726,  616,  617,  627,  626
502,  717,  718,  728,  727,  617,  618,  628,  627
503,  718,  719,  729,  728,  618,  619,  629,  628
504,  719,  720,  730,  729,  619,  620,  630,  629
505,  721,  722,  732,  731,  621,  622,  632,  631
506,  722,  723,  733,  732,  622,  623,  633,  632
507,  723,  724,  734,  733,  623,  624,  634,  633
508,  724,  725,  735,  734,  624,  625,  635,  634
509,  725,  726,  736,  735,  625,  626,  636,  635
510,  726,  727,  737,  736,  626,  627,  637,  636
511,  727,  728,  738,  737,  627,  628,  638,  637
512,  728,  729,  739,  738,  628,  629,  639,  638
513,  729,  730,  740,  739,  629,  630,  640,  639
514,  731,  732,  742,  741,  631,  632,  642,  641
515,  732,  733,  743,  742,  632,  633,  643,  642
516,  733,  734,  744,  743,  633,  634,  644,  643
517,  734,  735,  745,  744,  634,  635,  645,  644
518,  735,  736,  746,  745,  635,  636,  646,  645
519,  736,  737,  747,  746,  636,  637,  647,  646
520,  737,  738,  748,  747,  637,  638,  648,  647
521,  738,  739,  749,  748,  638,  639,  649,  648
522,  739,  740,  750,  749,  639,  640,  650,  649
523,  741,  742,  752,  751,  641,  642,  652,  651
524,  742,  743,  753,  752,  642,  643,  653,  652
525,  743,  744,  754,  753,  643,  644,  654,  653
526,  744,  745,  755,  754,  644,  645,  655,  654
527,  745,  746,  756,  755,  645,  646,  656,  655
528,  746,  747,  757,  756,  646,  647,  657,  656
529,  747,  748,  758,  757,  647,  648,  658,  657
530,  748,  749,  759,  758,  648,  649,  659,  658
531,  749,  750,  760,  759,  649,  650,  660,  659
532,  751,  752,  762,  761,  651,  652,  662,  661
533,  752,  753,  763,  762,  652,  653,  663,  662
534,  753,  754,  764,  763,  653,  654,  664,  663
535,  754,  755,  765,  764,  654,  655,  665,  664
536,  755,  756,  766,  765,  655,  656,  666,  665
537,  756,  757,  767,  766,  656,  657,  667,  666
538,  757,  758,  768,  767,  657,  658,  668,  667
539,  758,  759,  769,  768,  658,  659,  669,  668
540,  759,  760,  770,  769,  659,  660,  670,  669
541,  761,  762,  772,  771,  661,  662,  672,  671
542,  762,  763,  773,  772,  662,  663,  673,  672
543,  763,  764,  774,  773,  663,  664,  674,  673
544,  764,  765,  775,  774,  664,  665,  675,  674
545,  765,  766,  776,  775,  665,  666,  676,  675
546,  766,  767,  777,  776,  666,  667,  677,  676
547,  767,  768,  778,  777,  667,  668,  678,  677
548,  768,  769,  779,  778,  668,  669,  679,  678
549,  769,  770,  780,  779,  669,  670,  680,  679
550,  771,  772,  782,  781,  671,  672,  682,  681
551,  772,  773,  783,  782,  672,  673,  683,  682
552,  773,  774,  784,  783,  673,  674,  684,  683
553,  774,  775,  785,  784,  674,  675,  685,  684
554,  775,  776,  786,  785,  675,  676,  686,  685
555,  776,  777,  787,  786,  676,  677,  687,  686
556,  777,  778,  788,  787,  677,  678,  688,  687
557,  778,  779,  789,  788,  678,  679,  689,  688
558,  779,  780,  790,  789,  679,  680,  690,  689
559,  781,  782,  792,  791,  681,  682,  692,  691
560,  782,  783,  793,  792,  682,  683,  693,  692
561,  783,  784,  794,  793,  683,  684,  694,  693
562,  784,  785,  795,  794,  684,  685,  695,  694
563,  785,  786,  796,  795,  685,  686,  696,  695
564,  786,  787,  797,  796,  686,  687,  697,  696
565,  787,  788,  798,  797,  687,  688,  698,  697
566,  788,  789,  799,  798,  688,  689,  699,  698
567,  789,  790,  800,  799,  689,  690,  700,  699
568,  801,  802,  812,  811,  701,  702,  712,  711
569,  802,  803,  813,  812,  702,  703,  713,  712
570,  803,  804,  814,  813,  703,  704,  714,  713
571,  804,  805,  815,  814,  704,  705,  715,  714
572,  805,  806,  816,  815,  705,  706,  716,  715
573,  806,  807,  817,  816,  706,  707,  717,  716
574,  807,  808,  818,  817,  707,  708,  718,  717
575,  808,  809,  819,  818,  708,  709,  719,  718
576,  809,  810,  820,  819,  709,  710,  720,  719
577,  811,  812,  822,  821,  711,  712,  722,  721
578,  812,  813,  823,  822,  712,  713,  723,  722
579,  813,  814,  824,  823,  713,  714,  724,  723
580,  814,  815,  825,  824,  714,  715,  725,  724
581,  815,  816,  826,  825,  715,  716,  726,  725
582,  816,  817,  827,  826,  716,  717,  727,  726
583,  817,  818,  828,  827,  717,  718,  728,  727
584,  818,  819,  829,  828,  718,  719,  729,  728
585,  819,  820,  830,  829,  719,  720,  730,  729
586,  821,  822,  832,  831,  721,  722,  732,  731
587,  822,  823,  833,  832,  722,  723,  733,  732
588,  823,  824,  834,  833,  723,  724,  734,  733
589,  824,  825,  835,  834,  724,  725,  735,  734
590,  825,  826,  836,  835,  725,  726,  736,  735
591,  826,  827,  837,  836,  726,  727,  737,  736
592,  827,  828,  838,  837,  727,  728,  738,  737
593,  828,  829,  839,  838,  728,  729,  739,  738
594,  829,  830,  840,  839,  729,  730,  740,  739
595,  831,  832,  842,  841,  731,  732,  742,  741
596,  832,  833,  843,  842,  732,  733,  743,  742
597,  833,  834,  844,  843,  733,  734,  744,  743
598,  834,  835,  845,  844,  734,  735,  745,  744
599,  835,  836,  846,  845,  735,  736,  746,  745
600,  836,  837,  847,  846,  736,  737,  747,  746
601,  837,  838,  848,  847,  737,  738,  748,  747
602,  838,  839,  849,  848,  738,  739,  749,  748
603,  839,  840,  850,  849,  739,  740,  750,  749
604,  841,  842,  852,  851,  741,  742,  752,  751
605,  842,  843,  853,  852,  742,  743,  753,  752
606,  843,  844,  854,  853,  743,  744,  754,  753
607,  844,  845,  855,  854,  744,  745,  755,  754
608,  845,  846,  856,  855,  745,  746,  756,  755
609,  846,  847,  857,  856,  746,  747,  757,  756
610,  847,  848,  858,  857,  747,  748,  758,  757
611,  848,  849,  859,  858,  748,  749,  759,  758
612,  849,  850,  860,  859,  749,  750,  760,  759
613,  851,  852,  862,  861,  751,  752,  762,  761
614,  852,  853,  863,  862,  752,  753,  763,  762
615,  853,  854,  864,  863,  753,  754,  764,  763
616,  854,  855,  865,  864,  754,  755,  765,  764
617,  855,  856,  866,  865,  755,  756,  766,  765
618,  856,  857,  867,  866,  756,  757,  767,  766
619,  857,  858,  868,  867,  757,  758,  768,  767
620,  858,  859,  869,  868,  758,  759,  769,  768
621,  859,  860,  870,  869,  759,  760,  770,  769
622,  861,  862,  872,  871,  761,  762,  772,  771
623,  862,  863,  873,  872,  762,  763,  773,  772
624,  863,  864,  874,  873,  763,  764,  774,  773
625,  864,  865,  875,  874,  764,  765,  775,  774
626,  865,  866,  876,  875,  765,  766,  776,  775
627,  866,  867,  877,  876,  766,  767,  777,  776
628,  867,  868,  878,  877,  767,  768,  778,  777
629,  868,  869,  879,  878,  768,  769,  779,  778
630,  869,  870,  880,  879,  769,  770,  780,  779
631,  871,  872,  882,  881,  771,  772,  782,  781
632,  872,  873,  883,  882,  772,  773,  783,  782
633,  873,  874,  884,  883,  773,  774,  784,  783
634,  874,  875,  885,  884,  774,  775,  785,  784
635,  875,  876,  886,  885,  775,  776,  786,  785
636,  876,  877,  887,  886,  776,  777,  787,  786
637,  877,  878,  888,  887,  777,  778,  788,  787
638,  878,  879,  889,  888,  778,  779,  789,  788
639,  879,  880,  890,  889,  779,  780,  790,  789
640,  881,  882,  892,  891,  781,  782,  792,  791
641,  882,  883,  893,  892,  782,  783,  793,  792
642,  883,  884,  894,  893,  783,  784,  794,  793
643,  884,  885,  895,  894,  784,  785,  795,  794
644,  885,  886,  896,  895,  785,  786,  796,  795
645,  886,  887,  897,  896,  786,  787,  797,  796
646,  887,  888,  898,  897,  787,  788,  798,  797
647,  888,  889,  899,  898,  788,  789,  799,  798
648,  889,  890,  900,  899,  789,  790,  800,  799
649,  901,  902,  912,  911,  801,  802,  812,  811
650,  902,  903,  913,  912,  802,  803,  813,  812
651,  903,  904,  914,  913,  803,  804,  814,  813
652,  904,  905,  915,  914,  804,  805,  815,  814
653,  905,  906,  916,  915,  805,  806,  816,  815
654,  906,  907,  917,  916,  806,  807,  817,  816
655,  907,  908,  918,  917,  807,  808,  818,  817
656,  908,  909,  919,  918,  808,  809,  819,  818
657,  909,  910,  920,  919,  809,  810,  820,  819
658,  911,  912,  922,  921,  811,  812,  822,  821
659,  912,  913,  923,  922,  812,  813,  823,  822
660,  913,  914,  924,  923,  813,  814,  824,  823
661,  914,  915,  925,  924,  814,  815,  825,  824
662,  915,  916,  926,  925,  815,  816,  826,  825
663,  916,  917,  927,  926,  816,  817,  827,  826
664,  917,  918,  928,  927,  817,  818,  828,  827
665,  918,  919,  929,  928,  818,  819,  829,  828
666,  919,  920,  930,  929,  819,  820,  830,  829
667,  921,  922,  932,  931,  821,  822,  832,  831
668,  922,  923,  933,  932,  822,  823,  833,  832
669,  923,  924,  934,  933,  823,  824,  834,  833
670,  924,  925,  935,  934,  824,  825,  835,  834
671,  925,  926,  936,  935,  825,  826,  836,  835
672,  926,  927,  937,  936,  826,  827,  837,  836
673,  927,  928,  938,  937,  827,  828,  838,  837
674,  928,  929,  939,  938,  828,  829,  839,  838
675,  929,  930,  940,  939,  829,  830,  840,  839
676,  931,  932,  942,  941,  831,  832,  842,  841
677,  932,  933,  943,  942,  832,  833,  843,  842
678,  933,  934,  944,  943,  833,  834,  844,  843
679,  934,  935,  945,  944,  834,  835,  845,  844
680,  935,  936,  946,  945,  835,  836,  846,  845
681,  936,  937,  947,  946,  836,  837,  847,  846
682,  937,  938,  948,  947,  837,  838,  848,  847
683,  938,  939,  949,  948,  838,  839,  849,  848
684,  939,  940,  950,  949,  839,  840,  850,  849
685,  941,  942,  952,  951,  841,  842,  852,  851
686,  942,  943,  953,  952,  842,  843,  853,  852
687,  943,  944,  954,  953,  843,  844,  854,  853
688,  944,  945,  955,  954,  844,  845,  855,  854
689,  945,  946,  956,  955,  845,  846,  856,  855
690,  946,  947,  957,  956,  846,  847,  857,  856
691,  947,  948,  958,  957,  847,  848,  858,  857
692,  948,  949,  959,  958,  848,  849,  859,  858
693,  949,  950,  960,  959,  849,  850,  860,  859
694,  951,  952,  962,  961,  851,  852,  862,  861
695,  952,  953,  963,  962,  852,  853,  863,  862
696,  953,  954,  964,  963,  853,  854,  864,  863
697,  954,  955,  965,  964,  854,  855,  865,  864
698,  955,  956,  966,  965,  855,  856,  866,  865
699,  956,  957,  967,  966,  856,  857,  867,  866
700,  957,  958,  968,  967,  857,  858,  868,  867
701,  958,  959,  969,  968,  858,  859,  869,  868
702,  959,  960,  970,  969,  859,  860,  870,  869
703,  961,  962,  972,  971,  861,  862,  872,  871
704,  962,  963,  973,  972,  862,  863,  873,  872
705,  963,  964,  974,  973,  863,  864,  874,  873
706,  964,  965,  975,  974,  864,  865,  875,  874
707,  965,  966,  976,  975,  865,  866,  876,  875
708,  966,  967,  977,  976,  866,  867,  877,  876
709,  967,  968,  978,  977,  867,  868,  878,  877
710,  968,  969,  979,  978,  868,  869,  879,  878
711,  969,  970,  980,  979,  869,  870,  880,  879
712,  971,  972,  982,  981,  871,  872,  882,  881
713,  972,  973,  983,  982,  872,  873,  883,  882
714,  973,  974,  984,  983,  873,  874,  884,  883
715,  974,  975,  985,  984,  874,  875,  885,  884
716,  975,  976,  986,  985,  875,  876,  886,  885
717,  976,  977,  987,  986,  876,  877,  887,  886
718,  977,  978,  988,  987,  877,  878,  888,  887
719,  978,  979,  989,  988,  878,  879,  889,  888
720,  979,  980,  990,  989,  879,  880,  890,  889
721,  981,  982,  992,  991,  881,  882,  892,  891
722,  982,  983,  993,  992,  882,  883,  893,  892
723,  983,  984,  994,  993,  883,  884,  894,  893
724,  984,  985,  995,  994,  884,  885,  895,  894
725,  985,  986,  996,  995,  885,  886,  896,  895
726,  986,  987,  997,  996,  886,  887,  897,  896
727,  987,  988,  998,  997,  887,  888,  898,  897
728,  988,  989,  999,  998,  888,  889,  899,  898
729,  989,  990, 1000,  999,  889,  890,  900,  899
*Nset, nset=_PickedSet3, internal, generate
    1,  1000,     1
*Elset, elset=_PickedSet3, internal, generate
   1,  729,    1
** Section: Section-1
*Solid Section, elset=_PickedSet3, material=Material-1
,
*End Part
**  
**
** ASSEMBLY
**
*Assembly, name=Assembly
**  
*Instance, name=Part-1-1, part=Part-1
*End Instance
**  
*End Assembly
** 
** MATERIALS
** 
*Material, name=Material-1
*Elastic
1., 0.3
