*Heading
** Job name: Cube_E64 Model name: Model-1
** Generated by: Abaqus/CAE 2020
*Preprint, echo=NO, model=NO, history=NO, contact=NO
**
** PARTS
**
*Part, name=Part-1
*Node
      1,          -5.,          -5.,          10.
      2,          -5.,         -2.5,          10.
      3,          -5.,           0.,          10.
      4,          -5.,          2.5,          10.
      5,          -5.,           5.,          10.
      6,          -5.,          -5.,          7.5
      7,          -5.,         -2.5,          7.5
      8,          -5.,           0.,          7.5
      9,          -5.,          2.5,          7.5
     10,          -5.,           5.,          7.5
     11,          -5.,          -5.,           5.
     12,          -5.,         -2.5,           5.
     13,          -5.,           0.,           5.
     14,          -5.,          2.5,           5.
     15,          -5.,           5.,           5.
     16,          -5.,          -5.,          2.5
     17,          -5.,         -2.5,          2.5
     18,          -5.,           0.,          2.5
     19,          -5.,          2.5,          2.5
     20,          -5.,           5.,          2.5
     21,          -5.,          -5.,           0.
     22,          -5.,         -2.5,           0.
     23,          -5.,           0.,           0.
     24,          -5.,          2.5,           0.
     25,          -5.,           5.,           0.
     26,         -2.5,          -5.,          10.
     27,         -2.5,         -2.5,          10.
     28,         -2.5,           0.,          10.
     29,         -2.5,          2.5,          10.
     30,         -2.5,           5.,          10.
     31,         -2.5,          -5.,          7.5
     32,         -2.5,         -2.5,          7.5
     33,         -2.5,           0.,          7.5
     34,         -2.5,          2.5,          7.5
     35,         -2.5,           5.,          7.5
     36,         -2.5,          -5.,           5.
     37,         -2.5,         -2.5,           5.
     38,         -2.5,           0.,           5.
     39,         -2.5,          2.5,           5.
     40,         -2.5,           5.,           5.
     41,         -2.5,          -5.,          2.5
     42,         -2.5,         -2.5,          2.5
     43,         -2.5,           0.,          2.5
     44,         -2.5,          2.5,          2.5
     45,         -2.5,           5.,          2.5
     46,         -2.5,          -5.,           0.
     47,         -2.5,         -2.5,           0.
     48,         -2.5,           0.,           0.
     49,         -2.5,          2.5,           0.
     50,         -2.5,           5.,           0.
     51,           0.,          -5.,          10.
     52,           0.,         -2.5,          10.
     53,           0.,           0.,          10.
     54,           0.,          2.5,          10.
     55,           0.,           5.,          10.
     56,           0.,          -5.,          7.5
     57,           0.,         -2.5,          7.5
     58,           0.,           0.,          7.5
     59,           0.,          2.5,          7.5
     60,           0.,           5.,          7.5
     61,           0.,          -5.,           5.
     62,           0.,         -2.5,           5.
     63,           0.,           0.,           5.
     64,           0.,          2.5,           5.
     65,           0.,           5.,           5.
     66,           0.,          -5.,          2.5
     67,           0.,         -2.5,          2.5
     68,           0.,           0.,          2.5
     69,           0.,          2.5,          2.5
     70,           0.,           5.,          2.5
     71,           0.,          -5.,           0.
     72,           0.,         -2.5,           0.
     73,           0.,           0.,           0.
     74,           0.,          2.5,           0.
     75,           0.,           5.,           0.
     76,          2.5,          -5.,          10.
     77,          2.5,         -2.5,          10.
     78,          2.5,           0.,          10.
     79,          2.5,          2.5,          10.
     80,          2.5,           5.,          10.
     81,          2.5,          -5.,          7.5
     82,          2.5,         -2.5,          7.5
     83,          2.5,           0.,          7.5
     84,          2.5,          2.5,          7.5
     85,          2.5,           5.,          7.5
     86,          2.5,          -5.,           5.
     87,          2.5,         -2.5,           5.
     88,          2.5,           0.,           5.
     89,          2.5,          2.5,           5.
     90,          2.5,           5.,           5.
     91,          2.5,          -5.,          2.5
     92,          2.5,         -2.5,          2.5
     93,          2.5,           0.,          2.5
     94,          2.5,          2.5,          2.5
     95,          2.5,           5.,          2.5
     96,          2.5,          -5.,           0.
     97,          2.5,         -2.5,           0.
     98,          2.5,           0.,           0.
     99,          2.5,          2.5,           0.
    100,          2.5,           5.,           0.
    101,           5.,          -5.,          10.
    102,           5.,         -2.5,          10.
    103,           5.,           0.,          10.
    104,           5.,          2.5,          10.
    105,           5.,           5.,          10.
    106,           5.,          -5.,          7.5
    107,           5.,         -2.5,          7.5
    108,           5.,           0.,          7.5
    109,           5.,          2.5,          7.5
    110,           5.,           5.,          7.5
    111,           5.,          -5.,           5.
    112,           5.,         -2.5,           5.
    113,           5.,           0.,           5.
    114,           5.,          2.5,           5.
    115,           5.,           5.,           5.
    116,           5.,          -5.,          2.5
    117,           5.,         -2.5,          2.5
    118,           5.,           0.,          2.5
    119,           5.,          2.5,          2.5
    120,           5.,           5.,          2.5
    121,           5.,          -5.,           0.
    122,           5.,         -2.5,           0.
    123,           5.,           0.,           0.
    124,           5.,          2.5,           0.
    125,           5.,           5.,           0.
*Element, type=C3D8R
 1,  26,  27,  32,  31,   1,   2,   7,   6
 2,  27,  28,  33,  32,   2,   3,   8,   7
 3,  28,  29,  34,  33,   3,   4,   9,   8
 4,  29,  30,  35,  34,   4,   5,  10,   9
 5,  31,  32,  37,  36,   6,   7,  12,  11
 6,  32,  33,  38,  37,   7,   8,  13,  12
 7,  33,  34,  39,  38,   8,   9,  14,  13
 8,  34,  35,  40,  39,   9,  10,  15,  14
 9,  36,  37,  42,  41,  11,  12,  17,  16
10,  37,  38,  43,  42,  12,  13,  18,  17
11,  38,  39,  44,  43,  13,  14,  19,  18
12,  39,  40,  45,  44,  14,  15,  20,  19
13,  41,  42,  47,  46,  16,  17,  22,  21
14,  42,  43,  48,  47,  17,  18,  23,  22
15,  43,  44,  49,  48,  18,  19,  24,  23
16,  44,  45,  50,  49,  19,  20,  25,  24
17,  51,  52,  57,  56,  26,  27,  32,  31
18,  52,  53,  58,  57,  27,  28,  33,  32
19,  53,  54,  59,  58,  28,  29,  34,  33
20,  54,  55,  60,  59,  29,  30,  35,  34
21,  56,  57,  62,  61,  31,  32,  37,  36
22,  57,  58,  63,  62,  32,  33,  38,  37
23,  58,  59,  64,  63,  33,  34,  39,  38
24,  59,  60,  65,  64,  34,  35,  40,  39
25,  61,  62,  67,  66,  36,  37,  42,  41
26,  62,  63,  68,  67,  37,  38,  43,  42
27,  63,  64,  69,  68,  38,  39,  44,  43
28,  64,  65,  70,  69,  39,  40,  45,  44
29,  66,  67,  72,  71,  41,  42,  47,  46
30,  67,  68,  73,  72,  42,  43,  48,  47
31,  68,  69,  74,  73,  43,  44,  49,  48
32,  69,  70,  75,  74,  44,  45,  50,  49
33,  76,  77,  82,  81,  51,  52,  57,  56
34,  77,  78,  83,  82,  52,  53,  58,  57
35,  78,  79,  84,  83,  53,  54,  59,  58
36,  79,  80,  85,  84,  54,  55,  60,  59
37,  81,  82,  87,  86,  56,  57,  62,  61
38,  82,  83,  88,  87,  57,  58,  63,  62
39,  83,  84,  89,  88,  58,  59,  64,  63
40,  84,  85,  90,  89,  59,  60,  65,  64
41,  86,  87,  92,  91,  61,  62,  67,  66
42,  87,  88,  93,  92,  62,  63,  68,  67
43,  88,  89,  94,  93,  63,  64,  69,  68
44,  89,  90,  95,  94,  64,  65,  70,  69
45,  91,  92,  97,  96,  66,  67,  72,  71
46,  92,  93,  98,  97,  67,  68,  73,  72
47,  93,  94,  99,  98,  68,  69,  74,  73
48,  94,  95, 100,  99,  69,  70,  75,  74
49, 101, 102, 107, 106,  76,  77,  82,  81
50, 102, 103, 108, 107,  77,  78,  83,  82
51, 103, 104, 109, 108,  78,  79,  84,  83
52, 104, 105, 110, 109,  79,  80,  85,  84
53, 106, 107, 112, 111,  81,  82,  87,  86
54, 107, 108, 113, 112,  82,  83,  88,  87
55, 108, 109, 114, 113,  83,  84,  89,  88
56, 109, 110, 115, 114,  84,  85,  90,  89
57, 111, 112, 117, 116,  86,  87,  92,  91
58, 112, 113, 118, 117,  87,  88,  93,  92
59, 113, 114, 119, 118,  88,  89,  94,  93
60, 114, 115, 120, 119,  89,  90,  95,  94
61, 116, 117, 122, 121,  91,  92,  97,  96
62, 117, 118, 123, 122,  92,  93,  98,  97
63, 118, 119, 124, 123,  93,  94,  99,  98
64, 119, 120, 125, 124,  94,  95, 100,  99
*Nset, nset=_PickedSet3, internal, generate
   1,  125,    1
*Elset, elset=_PickedSet3, internal, generate
  1,  64,   1
** Section: Section-1
*Solid Section, elset=_PickedSet3, material=Material-1
,
*End Part
**  
**
** ASSEMBLY
**
*Assembly, name=Assembly
**  
*Instance, name=Part-1-1, part=Part-1
*End Instance
**  
*End Assembly
** 
** MATERIALS
** 
*Material, name=Material-1
*Elastic
1., 0.3
