*Heading
** Job name: Cube_E343 Model name: Model-1
** Generated by: Abaqus/CAE 2020
*Preprint, echo=NO, model=NO, history=NO, contact=NO
**
** PARTS
**
*Part, name=Part-1
*Node
      1,          -5.,          -5.,          10.
      2,          -5.,  -3.57142854,          10.
      3,          -5.,  -2.14285707,          10.
      4,          -5., -0.714285731,          10.
      5,          -5.,  0.714285731,          10.
      6,          -5.,   2.14285707,          10.
      7,          -5.,   3.57142854,          10.
      8,          -5.,           5.,          10.
      9,          -5.,          -5.,    8.5714283
     10,          -5.,  -3.57142854,    8.5714283
     11,          -5.,  -2.14285707,    8.5714283
     12,          -5., -0.714285731,    8.5714283
     13,          -5.,  0.714285731,    8.5714283
     14,          -5.,   2.14285707,    8.5714283
     15,          -5.,   3.57142854,    8.5714283
     16,          -5.,           5.,    8.5714283
     17,          -5.,          -5.,   7.14285707
     18,          -5.,  -3.57142854,   7.14285707
     19,          -5.,  -2.14285707,   7.14285707
     20,          -5., -0.714285731,   7.14285707
     21,          -5.,  0.714285731,   7.14285707
     22,          -5.,   2.14285707,   7.14285707
     23,          -5.,   3.57142854,   7.14285707
     24,          -5.,           5.,   7.14285707
     25,          -5.,          -5.,   5.71428585
     26,          -5.,  -3.57142854,   5.71428585
     27,          -5.,  -2.14285707,   5.71428585
     28,          -5., -0.714285731,   5.71428585
     29,          -5.,  0.714285731,   5.71428585
     30,          -5.,   2.14285707,   5.71428585
     31,          -5.,   3.57142854,   5.71428585
     32,          -5.,           5.,   5.71428585
     33,          -5.,          -5.,   4.28571415
     34,          -5.,  -3.57142854,   4.28571415
     35,          -5.,  -2.14285707,   4.28571415
     36,          -5., -0.714285731,   4.28571415
     37,          -5.,  0.714285731,   4.28571415
     38,          -5.,   2.14285707,   4.28571415
     39,          -5.,   3.57142854,   4.28571415
     40,          -5.,           5.,   4.28571415
     41,          -5.,          -5.,   2.85714293
     42,          -5.,  -3.57142854,   2.85714293
     43,          -5.,  -2.14285707,   2.85714293
     44,          -5., -0.714285731,   2.85714293
     45,          -5.,  0.714285731,   2.85714293
     46,          -5.,   2.14285707,   2.85714293
     47,          -5.,   3.57142854,   2.85714293
     48,          -5.,           5.,   2.85714293
     49,          -5.,          -5.,   1.42857146
     50,          -5.,  -3.57142854,   1.42857146
     51,          -5.,  -2.14285707,   1.42857146
     52,          -5., -0.714285731,   1.42857146
     53,          -5.,  0.714285731,   1.42857146
     54,          -5.,   2.14285707,   1.42857146
     55,          -5.,   3.57142854,   1.42857146
     56,          -5.,           5.,   1.42857146
     57,          -5.,          -5.,           0.
     58,          -5.,  -3.57142854,           0.
     59,          -5.,  -2.14285707,           0.
     60,          -5., -0.714285731,           0.
     61,          -5.,  0.714285731,           0.
     62,          -5.,   2.14285707,           0.
     63,          -5.,   3.57142854,           0.
     64,          -5.,           5.,           0.
     65,  -3.57142854,          -5.,          10.
     66,  -3.57142854,  -3.57142854,          10.
     67,  -3.57142854,  -2.14285707,          10.
     68,  -3.57142854, -0.714285731,          10.
     69,  -3.57142854,  0.714285731,          10.
     70,  -3.57142854,   2.14285707,          10.
     71,  -3.57142854,   3.57142854,          10.
     72,  -3.57142854,           5.,          10.
     73,  -3.57142854,          -5.,    8.5714283
     74,  -3.57142854,  -3.57142854,    8.5714283
     75,  -3.57142854,  -2.14285707,    8.5714283
     76,  -3.57142854, -0.714285731,    8.5714283
     77,  -3.57142854,  0.714285731,    8.5714283
     78,  -3.57142854,   2.14285707,    8.5714283
     79,  -3.57142854,   3.57142854,    8.5714283
     80,  -3.57142854,           5.,    8.5714283
     81,  -3.57142854,          -5.,   7.14285707
     82,  -3.57142854,  -3.57142854,   7.14285707
     83,  -3.57142854,  -2.14285707,   7.14285707
     84,  -3.57142854, -0.714285731,   7.14285707
     85,  -3.57142854,  0.714285731,   7.14285707
     86,  -3.57142854,   2.14285707,   7.14285707
     87,  -3.57142854,   3.57142854,   7.14285707
     88,  -3.57142854,           5.,   7.14285707
     89,  -3.57142854,          -5.,   5.71428585
     90,  -3.57142854,  -3.57142854,   5.71428585
     91,  -3.57142854,  -2.14285707,   5.71428585
     92,  -3.57142854, -0.714285731,   5.71428585
     93,  -3.57142854,  0.714285731,   5.71428585
     94,  -3.57142854,   2.14285707,   5.71428585
     95,  -3.57142854,   3.57142854,   5.71428585
     96,  -3.57142854,           5.,   5.71428585
     97,  -3.57142854,          -5.,   4.28571415
     98,  -3.57142854,  -3.57142854,   4.28571415
     99,  -3.57142854,  -2.14285707,   4.28571415
    100,  -3.57142854, -0.714285731,   4.28571415
    101,  -3.57142854,  0.714285731,   4.28571415
    102,  -3.57142854,   2.14285707,   4.28571415
    103,  -3.57142854,   3.57142854,   4.28571415
    104,  -3.57142854,           5.,   4.28571415
    105,  -3.57142854,          -5.,   2.85714293
    106,  -3.57142854,  -3.57142854,   2.85714293
    107,  -3.57142854,  -2.14285707,   2.85714293
    108,  -3.57142854, -0.714285731,   2.85714293
    109,  -3.57142854,  0.714285731,   2.85714293
    110,  -3.57142854,   2.14285707,   2.85714293
    111,  -3.57142854,   3.57142854,   2.85714293
    112,  -3.57142854,           5.,   2.85714293
    113,  -3.57142854,          -5.,   1.42857146
    114,  -3.57142854,  -3.57142854,   1.42857146
    115,  -3.57142854,  -2.14285707,   1.42857146
    116,  -3.57142854, -0.714285731,   1.42857146
    117,  -3.57142854,  0.714285731,   1.42857146
    118,  -3.57142854,   2.14285707,   1.42857146
    119,  -3.57142854,   3.57142854,   1.42857146
    120,  -3.57142854,           5.,   1.42857146
    121,  -3.57142854,          -5.,           0.
    122,  -3.57142854,  -3.57142854,           0.
    123,  -3.57142854,  -2.14285707,           0.
    124,  -3.57142854, -0.714285731,           0.
    125,  -3.57142854,  0.714285731,           0.
    126,  -3.57142854,   2.14285707,           0.
    127,  -3.57142854,   3.57142854,           0.
    128,  -3.57142854,           5.,           0.
    129,  -2.14285707,          -5.,          10.
    130,  -2.14285707,  -3.57142854,          10.
    131,  -2.14285707,  -2.14285707,          10.
    132,  -2.14285707, -0.714285731,          10.
    133,  -2.14285707,  0.714285731,          10.
    134,  -2.14285707,   2.14285707,          10.
    135,  -2.14285707,   3.57142854,          10.
    136,  -2.14285707,           5.,          10.
    137,  -2.14285707,          -5.,    8.5714283
    138,  -2.14285707,  -3.57142854,    8.5714283
    139,  -2.14285707,  -2.14285707,    8.5714283
    140,  -2.14285707, -0.714285731,    8.5714283
    141,  -2.14285707,  0.714285731,    8.5714283
    142,  -2.14285707,   2.14285707,    8.5714283
    143,  -2.14285707,   3.57142854,    8.5714283
    144,  -2.14285707,           5.,    8.5714283
    145,  -2.14285707,          -5.,   7.14285707
    146,  -2.14285707,  -3.57142854,   7.14285707
    147,  -2.14285707,  -2.14285707,   7.14285707
    148,  -2.14285707, -0.714285731,   7.14285707
    149,  -2.14285707,  0.714285731,   7.14285707
    150,  -2.14285707,   2.14285707,   7.14285707
    151,  -2.14285707,   3.57142854,   7.14285707
    152,  -2.14285707,           5.,   7.14285707
    153,  -2.14285707,          -5.,   5.71428585
    154,  -2.14285707,  -3.57142854,   5.71428585
    155,  -2.14285707,  -2.14285707,   5.71428585
    156,  -2.14285707, -0.714285731,   5.71428585
    157,  -2.14285707,  0.714285731,   5.71428585
    158,  -2.14285707,   2.14285707,   5.71428585
    159,  -2.14285707,   3.57142854,   5.71428585
    160,  -2.14285707,           5.,   5.71428585
    161,  -2.14285707,          -5.,   4.28571415
    162,  -2.14285707,  -3.57142854,   4.28571415
    163,  -2.14285707,  -2.14285707,   4.28571415
    164,  -2.14285707, -0.714285731,   4.28571415
    165,  -2.14285707,  0.714285731,   4.28571415
    166,  -2.14285707,   2.14285707,   4.28571415
    167,  -2.14285707,   3.57142854,   4.28571415
    168,  -2.14285707,           5.,   4.28571415
    169,  -2.14285707,          -5.,   2.85714293
    170,  -2.14285707,  -3.57142854,   2.85714293
    171,  -2.14285707,  -2.14285707,   2.85714293
    172,  -2.14285707, -0.714285731,   2.85714293
    173,  -2.14285707,  0.714285731,   2.85714293
    174,  -2.14285707,   2.14285707,   2.85714293
    175,  -2.14285707,   3.57142854,   2.85714293
    176,  -2.14285707,           5.,   2.85714293
    177,  -2.14285707,          -5.,   1.42857146
    178,  -2.14285707,  -3.57142854,   1.42857146
    179,  -2.14285707,  -2.14285707,   1.42857146
    180,  -2.14285707, -0.714285731,   1.42857146
    181,  -2.14285707,  0.714285731,   1.42857146
    182,  -2.14285707,   2.14285707,   1.42857146
    183,  -2.14285707,   3.57142854,   1.42857146
    184,  -2.14285707,           5.,   1.42857146
    185,  -2.14285707,          -5.,           0.
    186,  -2.14285707,  -3.57142854,           0.
    187,  -2.14285707,  -2.14285707,           0.
    188,  -2.14285707, -0.714285731,           0.
    189,  -2.14285707,  0.714285731,           0.
    190,  -2.14285707,   2.14285707,           0.
    191,  -2.14285707,   3.57142854,           0.
    192,  -2.14285707,           5.,           0.
    193, -0.714285731,          -5.,          10.
    194, -0.714285731,  -3.57142854,          10.
    195, -0.714285731,  -2.14285707,          10.
    196, -0.714285731, -0.714285731,          10.
    197, -0.714285731,  0.714285731,          10.
    198, -0.714285731,   2.14285707,          10.
    199, -0.714285731,   3.57142854,          10.
    200, -0.714285731,           5.,          10.
    201, -0.714285731,          -5.,    8.5714283
    202, -0.714285731,  -3.57142854,    8.5714283
    203, -0.714285731,  -2.14285707,    8.5714283
    204, -0.714285731, -0.714285731,    8.5714283
    205, -0.714285731,  0.714285731,    8.5714283
    206, -0.714285731,   2.14285707,    8.5714283
    207, -0.714285731,   3.57142854,    8.5714283
    208, -0.714285731,           5.,    8.5714283
    209, -0.714285731,          -5.,   7.14285707
    210, -0.714285731,  -3.57142854,   7.14285707
    211, -0.714285731,  -2.14285707,   7.14285707
    212, -0.714285731, -0.714285731,   7.14285707
    213, -0.714285731,  0.714285731,   7.14285707
    214, -0.714285731,   2.14285707,   7.14285707
    215, -0.714285731,   3.57142854,   7.14285707
    216, -0.714285731,           5.,   7.14285707
    217, -0.714285731,          -5.,   5.71428585
    218, -0.714285731,  -3.57142854,   5.71428585
    219, -0.714285731,  -2.14285707,   5.71428585
    220, -0.714285731, -0.714285731,   5.71428585
    221, -0.714285731,  0.714285731,   5.71428585
    222, -0.714285731,   2.14285707,   5.71428585
    223, -0.714285731,   3.57142854,   5.71428585
    224, -0.714285731,           5.,   5.71428585
    225, -0.714285731,          -5.,   4.28571415
    226, -0.714285731,  -3.57142854,   4.28571415
    227, -0.714285731,  -2.14285707,   4.28571415
    228, -0.714285731, -0.714285731,   4.28571415
    229, -0.714285731,  0.714285731,   4.28571415
    230, -0.714285731,   2.14285707,   4.28571415
    231, -0.714285731,   3.57142854,   4.28571415
    232, -0.714285731,           5.,   4.28571415
    233, -0.714285731,          -5.,   2.85714293
    234, -0.714285731,  -3.57142854,   2.85714293
    235, -0.714285731,  -2.14285707,   2.85714293
    236, -0.714285731, -0.714285731,   2.85714293
    237, -0.714285731,  0.714285731,   2.85714293
    238, -0.714285731,   2.14285707,   2.85714293
    239, -0.714285731,   3.57142854,   2.85714293
    240, -0.714285731,           5.,   2.85714293
    241, -0.714285731,          -5.,   1.42857146
    242, -0.714285731,  -3.57142854,   1.42857146
    243, -0.714285731,  -2.14285707,   1.42857146
    244, -0.714285731, -0.714285731,   1.42857146
    245, -0.714285731,  0.714285731,   1.42857146
    246, -0.714285731,   2.14285707,   1.42857146
    247, -0.714285731,   3.57142854,   1.42857146
    248, -0.714285731,           5.,   1.42857146
    249, -0.714285731,          -5.,           0.
    250, -0.714285731,  -3.57142854,           0.
    251, -0.714285731,  -2.14285707,           0.
    252, -0.714285731, -0.714285731,           0.
    253, -0.714285731,  0.714285731,           0.
    254, -0.714285731,   2.14285707,           0.
    255, -0.714285731,   3.57142854,           0.
    256, -0.714285731,           5.,           0.
    257,  0.714285731,          -5.,          10.
    258,  0.714285731,  -3.57142854,          10.
    259,  0.714285731,  -2.14285707,          10.
    260,  0.714285731, -0.714285731,          10.
    261,  0.714285731,  0.714285731,          10.
    262,  0.714285731,   2.14285707,          10.
    263,  0.714285731,   3.57142854,          10.
    264,  0.714285731,           5.,          10.
    265,  0.714285731,          -5.,    8.5714283
    266,  0.714285731,  -3.57142854,    8.5714283
    267,  0.714285731,  -2.14285707,    8.5714283
    268,  0.714285731, -0.714285731,    8.5714283
    269,  0.714285731,  0.714285731,    8.5714283
    270,  0.714285731,   2.14285707,    8.5714283
    271,  0.714285731,   3.57142854,    8.5714283
    272,  0.714285731,           5.,    8.5714283
    273,  0.714285731,          -5.,   7.14285707
    274,  0.714285731,  -3.57142854,   7.14285707
    275,  0.714285731,  -2.14285707,   7.14285707
    276,  0.714285731, -0.714285731,   7.14285707
    277,  0.714285731,  0.714285731,   7.14285707
    278,  0.714285731,   2.14285707,   7.14285707
    279,  0.714285731,   3.57142854,   7.14285707
    280,  0.714285731,           5.,   7.14285707
    281,  0.714285731,          -5.,   5.71428585
    282,  0.714285731,  -3.57142854,   5.71428585
    283,  0.714285731,  -2.14285707,   5.71428585
    284,  0.714285731, -0.714285731,   5.71428585
    285,  0.714285731,  0.714285731,   5.71428585
    286,  0.714285731,   2.14285707,   5.71428585
    287,  0.714285731,   3.57142854,   5.71428585
    288,  0.714285731,           5.,   5.71428585
    289,  0.714285731,          -5.,   4.28571415
    290,  0.714285731,  -3.57142854,   4.28571415
    291,  0.714285731,  -2.14285707,   4.28571415
    292,  0.714285731, -0.714285731,   4.28571415
    293,  0.714285731,  0.714285731,   4.28571415
    294,  0.714285731,   2.14285707,   4.28571415
    295,  0.714285731,   3.57142854,   4.28571415
    296,  0.714285731,           5.,   4.28571415
    297,  0.714285731,          -5.,   2.85714293
    298,  0.714285731,  -3.57142854,   2.85714293
    299,  0.714285731,  -2.14285707,   2.85714293
    300,  0.714285731, -0.714285731,   2.85714293
    301,  0.714285731,  0.714285731,   2.85714293
    302,  0.714285731,   2.14285707,   2.85714293
    303,  0.714285731,   3.57142854,   2.85714293
    304,  0.714285731,           5.,   2.85714293
    305,  0.714285731,          -5.,   1.42857146
    306,  0.714285731,  -3.57142854,   1.42857146
    307,  0.714285731,  -2.14285707,   1.42857146
    308,  0.714285731, -0.714285731,   1.42857146
    309,  0.714285731,  0.714285731,   1.42857146
    310,  0.714285731,   2.14285707,   1.42857146
    311,  0.714285731,   3.57142854,   1.42857146
    312,  0.714285731,           5.,   1.42857146
    313,  0.714285731,          -5.,           0.
    314,  0.714285731,  -3.57142854,           0.
    315,  0.714285731,  -2.14285707,           0.
    316,  0.714285731, -0.714285731,           0.
    317,  0.714285731,  0.714285731,           0.
    318,  0.714285731,   2.14285707,           0.
    319,  0.714285731,   3.57142854,           0.
    320,  0.714285731,           5.,           0.
    321,   2.14285707,          -5.,          10.
    322,   2.14285707,  -3.57142854,          10.
    323,   2.14285707,  -2.14285707,          10.
    324,   2.14285707, -0.714285731,          10.
    325,   2.14285707,  0.714285731,          10.
    326,   2.14285707,   2.14285707,          10.
    327,   2.14285707,   3.57142854,          10.
    328,   2.14285707,           5.,          10.
    329,   2.14285707,          -5.,    8.5714283
    330,   2.14285707,  -3.57142854,    8.5714283
    331,   2.14285707,  -2.14285707,    8.5714283
    332,   2.14285707, -0.714285731,    8.5714283
    333,   2.14285707,  0.714285731,    8.5714283
    334,   2.14285707,   2.14285707,    8.5714283
    335,   2.14285707,   3.57142854,    8.5714283
    336,   2.14285707,           5.,    8.5714283
    337,   2.14285707,          -5.,   7.14285707
    338,   2.14285707,  -3.57142854,   7.14285707
    339,   2.14285707,  -2.14285707,   7.14285707
    340,   2.14285707, -0.714285731,   7.14285707
    341,   2.14285707,  0.714285731,   7.14285707
    342,   2.14285707,   2.14285707,   7.14285707
    343,   2.14285707,   3.57142854,   7.14285707
    344,   2.14285707,           5.,   7.14285707
    345,   2.14285707,          -5.,   5.71428585
    346,   2.14285707,  -3.57142854,   5.71428585
    347,   2.14285707,  -2.14285707,   5.71428585
    348,   2.14285707, -0.714285731,   5.71428585
    349,   2.14285707,  0.714285731,   5.71428585
    350,   2.14285707,   2.14285707,   5.71428585
    351,   2.14285707,   3.57142854,   5.71428585
    352,   2.14285707,           5.,   5.71428585
    353,   2.14285707,          -5.,   4.28571415
    354,   2.14285707,  -3.57142854,   4.28571415
    355,   2.14285707,  -2.14285707,   4.28571415
    356,   2.14285707, -0.714285731,   4.28571415
    357,   2.14285707,  0.714285731,   4.28571415
    358,   2.14285707,   2.14285707,   4.28571415
    359,   2.14285707,   3.57142854,   4.28571415
    360,   2.14285707,           5.,   4.28571415
    361,   2.14285707,          -5.,   2.85714293
    362,   2.14285707,  -3.57142854,   2.85714293
    363,   2.14285707,  -2.14285707,   2.85714293
    364,   2.14285707, -0.714285731,   2.85714293
    365,   2.14285707,  0.714285731,   2.85714293
    366,   2.14285707,   2.14285707,   2.85714293
    367,   2.14285707,   3.57142854,   2.85714293
    368,   2.14285707,           5.,   2.85714293
    369,   2.14285707,          -5.,   1.42857146
    370,   2.14285707,  -3.57142854,   1.42857146
    371,   2.14285707,  -2.14285707,   1.42857146
    372,   2.14285707, -0.714285731,   1.42857146
    373,   2.14285707,  0.714285731,   1.42857146
    374,   2.14285707,   2.14285707,   1.42857146
    375,   2.14285707,   3.57142854,   1.42857146
    376,   2.14285707,           5.,   1.42857146
    377,   2.14285707,          -5.,           0.
    378,   2.14285707,  -3.57142854,           0.
    379,   2.14285707,  -2.14285707,           0.
    380,   2.14285707, -0.714285731,           0.
    381,   2.14285707,  0.714285731,           0.
    382,   2.14285707,   2.14285707,           0.
    383,   2.14285707,   3.57142854,           0.
    384,   2.14285707,           5.,           0.
    385,   3.57142854,          -5.,          10.
    386,   3.57142854,  -3.57142854,          10.
    387,   3.57142854,  -2.14285707,          10.
    388,   3.57142854, -0.714285731,          10.
    389,   3.57142854,  0.714285731,          10.
    390,   3.57142854,   2.14285707,          10.
    391,   3.57142854,   3.57142854,          10.
    392,   3.57142854,           5.,          10.
    393,   3.57142854,          -5.,    8.5714283
    394,   3.57142854,  -3.57142854,    8.5714283
    395,   3.57142854,  -2.14285707,    8.5714283
    396,   3.57142854, -0.714285731,    8.5714283
    397,   3.57142854,  0.714285731,    8.5714283
    398,   3.57142854,   2.14285707,    8.5714283
    399,   3.57142854,   3.57142854,    8.5714283
    400,   3.57142854,           5.,    8.5714283
    401,   3.57142854,          -5.,   7.14285707
    402,   3.57142854,  -3.57142854,   7.14285707
    403,   3.57142854,  -2.14285707,   7.14285707
    404,   3.57142854, -0.714285731,   7.14285707
    405,   3.57142854,  0.714285731,   7.14285707
    406,   3.57142854,   2.14285707,   7.14285707
    407,   3.57142854,   3.57142854,   7.14285707
    408,   3.57142854,           5.,   7.14285707
    409,   3.57142854,          -5.,   5.71428585
    410,   3.57142854,  -3.57142854,   5.71428585
    411,   3.57142854,  -2.14285707,   5.71428585
    412,   3.57142854, -0.714285731,   5.71428585
    413,   3.57142854,  0.714285731,   5.71428585
    414,   3.57142854,   2.14285707,   5.71428585
    415,   3.57142854,   3.57142854,   5.71428585
    416,   3.57142854,           5.,   5.71428585
    417,   3.57142854,          -5.,   4.28571415
    418,   3.57142854,  -3.57142854,   4.28571415
    419,   3.57142854,  -2.14285707,   4.28571415
    420,   3.57142854, -0.714285731,   4.28571415
    421,   3.57142854,  0.714285731,   4.28571415
    422,   3.57142854,   2.14285707,   4.28571415
    423,   3.57142854,   3.57142854,   4.28571415
    424,   3.57142854,           5.,   4.28571415
    425,   3.57142854,          -5.,   2.85714293
    426,   3.57142854,  -3.57142854,   2.85714293
    427,   3.57142854,  -2.14285707,   2.85714293
    428,   3.57142854, -0.714285731,   2.85714293
    429,   3.57142854,  0.714285731,   2.85714293
    430,   3.57142854,   2.14285707,   2.85714293
    431,   3.57142854,   3.57142854,   2.85714293
    432,   3.57142854,           5.,   2.85714293
    433,   3.57142854,          -5.,   1.42857146
    434,   3.57142854,  -3.57142854,   1.42857146
    435,   3.57142854,  -2.14285707,   1.42857146
    436,   3.57142854, -0.714285731,   1.42857146
    437,   3.57142854,  0.714285731,   1.42857146
    438,   3.57142854,   2.14285707,   1.42857146
    439,   3.57142854,   3.57142854,   1.42857146
    440,   3.57142854,           5.,   1.42857146
    441,   3.57142854,          -5.,           0.
    442,   3.57142854,  -3.57142854,           0.
    443,   3.57142854,  -2.14285707,           0.
    444,   3.57142854, -0.714285731,           0.
    445,   3.57142854,  0.714285731,           0.
    446,   3.57142854,   2.14285707,           0.
    447,   3.57142854,   3.57142854,           0.
    448,   3.57142854,           5.,           0.
    449,           5.,          -5.,          10.
    450,           5.,  -3.57142854,          10.
    451,           5.,  -2.14285707,          10.
    452,           5., -0.714285731,          10.
    453,           5.,  0.714285731,          10.
    454,           5.,   2.14285707,          10.
    455,           5.,   3.57142854,          10.
    456,           5.,           5.,          10.
    457,           5.,          -5.,    8.5714283
    458,           5.,  -3.57142854,    8.5714283
    459,           5.,  -2.14285707,    8.5714283
    460,           5., -0.714285731,    8.5714283
    461,           5.,  0.714285731,    8.5714283
    462,           5.,   2.14285707,    8.5714283
    463,           5.,   3.57142854,    8.5714283
    464,           5.,           5.,    8.5714283
    465,           5.,          -5.,   7.14285707
    466,           5.,  -3.57142854,   7.14285707
    467,           5.,  -2.14285707,   7.14285707
    468,           5., -0.714285731,   7.14285707
    469,           5.,  0.714285731,   7.14285707
    470,           5.,   2.14285707,   7.14285707
    471,           5.,   3.57142854,   7.14285707
    472,           5.,           5.,   7.14285707
    473,           5.,          -5.,   5.71428585
    474,           5.,  -3.57142854,   5.71428585
    475,           5.,  -2.14285707,   5.71428585
    476,           5., -0.714285731,   5.71428585
    477,           5.,  0.714285731,   5.71428585
    478,           5.,   2.14285707,   5.71428585
    479,           5.,   3.57142854,   5.71428585
    480,           5.,           5.,   5.71428585
    481,           5.,          -5.,   4.28571415
    482,           5.,  -3.57142854,   4.28571415
    483,           5.,  -2.14285707,   4.28571415
    484,           5., -0.714285731,   4.28571415
    485,           5.,  0.714285731,   4.28571415
    486,           5.,   2.14285707,   4.28571415
    487,           5.,   3.57142854,   4.28571415
    488,           5.,           5.,   4.28571415
    489,           5.,          -5.,   2.85714293
    490,           5.,  -3.57142854,   2.85714293
    491,           5.,  -2.14285707,   2.85714293
    492,           5., -0.714285731,   2.85714293
    493,           5.,  0.714285731,   2.85714293
    494,           5.,   2.14285707,   2.85714293
    495,           5.,   3.57142854,   2.85714293
    496,           5.,           5.,   2.85714293
    497,           5.,          -5.,   1.42857146
    498,           5.,  -3.57142854,   1.42857146
    499,           5.,  -2.14285707,   1.42857146
    500,           5., -0.714285731,   1.42857146
    501,           5.,  0.714285731,   1.42857146
    502,           5.,   2.14285707,   1.42857146
    503,           5.,   3.57142854,   1.42857146
    504,           5.,           5.,   1.42857146
    505,           5.,          -5.,           0.
    506,           5.,  -3.57142854,           0.
    507,           5.,  -2.14285707,           0.
    508,           5., -0.714285731,           0.
    509,           5.,  0.714285731,           0.
    510,           5.,   2.14285707,           0.
    511,           5.,   3.57142854,           0.
    512,           5.,           5.,           0.
*Element, type=C3D8R
  1,  65,  66,  74,  73,   1,   2,  10,   9
  2,  66,  67,  75,  74,   2,   3,  11,  10
  3,  67,  68,  76,  75,   3,   4,  12,  11
  4,  68,  69,  77,  76,   4,   5,  13,  12
  5,  69,  70,  78,  77,   5,   6,  14,  13
  6,  70,  71,  79,  78,   6,   7,  15,  14
  7,  71,  72,  80,  79,   7,   8,  16,  15
  8,  73,  74,  82,  81,   9,  10,  18,  17
  9,  74,  75,  83,  82,  10,  11,  19,  18
 10,  75,  76,  84,  83,  11,  12,  20,  19
 11,  76,  77,  85,  84,  12,  13,  21,  20
 12,  77,  78,  86,  85,  13,  14,  22,  21
 13,  78,  79,  87,  86,  14,  15,  23,  22
 14,  79,  80,  88,  87,  15,  16,  24,  23
 15,  81,  82,  90,  89,  17,  18,  26,  25
 16,  82,  83,  91,  90,  18,  19,  27,  26
 17,  83,  84,  92,  91,  19,  20,  28,  27
 18,  84,  85,  93,  92,  20,  21,  29,  28
 19,  85,  86,  94,  93,  21,  22,  30,  29
 20,  86,  87,  95,  94,  22,  23,  31,  30
 21,  87,  88,  96,  95,  23,  24,  32,  31
 22,  89,  90,  98,  97,  25,  26,  34,  33
 23,  90,  91,  99,  98,  26,  27,  35,  34
 24,  91,  92, 100,  99,  27,  28,  36,  35
 25,  92,  93, 101, 100,  28,  29,  37,  36
 26,  93,  94, 102, 101,  29,  30,  38,  37
 27,  94,  95, 103, 102,  30,  31,  39,  38
 28,  95,  96, 104, 103,  31,  32,  40,  39
 29,  97,  98, 106, 105,  33,  34,  42,  41
 30,  98,  99, 107, 106,  34,  35,  43,  42
 31,  99, 100, 108, 107,  35,  36,  44,  43
 32, 100, 101, 109, 108,  36,  37,  45,  44
 33, 101, 102, 110, 109,  37,  38,  46,  45
 34, 102, 103, 111, 110,  38,  39,  47,  46
 35, 103, 104, 112, 111,  39,  40,  48,  47
 36, 105, 106, 114, 113,  41,  42,  50,  49
 37, 106, 107, 115, 114,  42,  43,  51,  50
 38, 107, 108, 116, 115,  43,  44,  52,  51
 39, 108, 109, 117, 116,  44,  45,  53,  52
 40, 109, 110, 118, 117,  45,  46,  54,  53
 41, 110, 111, 119, 118,  46,  47,  55,  54
 42, 111, 112, 120, 119,  47,  48,  56,  55
 43, 113, 114, 122, 121,  49,  50,  58,  57
 44, 114, 115, 123, 122,  50,  51,  59,  58
 45, 115, 116, 124, 123,  51,  52,  60,  59
 46, 116, 117, 125, 124,  52,  53,  61,  60
 47, 117, 118, 126, 125,  53,  54,  62,  61
 48, 118, 119, 127, 126,  54,  55,  63,  62
 49, 119, 120, 128, 127,  55,  56,  64,  63
 50, 129, 130, 138, 137,  65,  66,  74,  73
 51, 130, 131, 139, 138,  66,  67,  75,  74
 52, 131, 132, 140, 139,  67,  68,  76,  75
 53, 132, 133, 141, 140,  68,  69,  77,  76
 54, 133, 134, 142, 141,  69,  70,  78,  77
 55, 134, 135, 143, 142,  70,  71,  79,  78
 56, 135, 136, 144, 143,  71,  72,  80,  79
 57, 137, 138, 146, 145,  73,  74,  82,  81
 58, 138, 139, 147, 146,  74,  75,  83,  82
 59, 139, 140, 148, 147,  75,  76,  84,  83
 60, 140, 141, 149, 148,  76,  77,  85,  84
 61, 141, 142, 150, 149,  77,  78,  86,  85
 62, 142, 143, 151, 150,  78,  79,  87,  86
 63, 143, 144, 152, 151,  79,  80,  88,  87
 64, 145, 146, 154, 153,  81,  82,  90,  89
 65, 146, 147, 155, 154,  82,  83,  91,  90
 66, 147, 148, 156, 155,  83,  84,  92,  91
 67, 148, 149, 157, 156,  84,  85,  93,  92
 68, 149, 150, 158, 157,  85,  86,  94,  93
 69, 150, 151, 159, 158,  86,  87,  95,  94
 70, 151, 152, 160, 159,  87,  88,  96,  95
 71, 153, 154, 162, 161,  89,  90,  98,  97
 72, 154, 155, 163, 162,  90,  91,  99,  98
 73, 155, 156, 164, 163,  91,  92, 100,  99
 74, 156, 157, 165, 164,  92,  93, 101, 100
 75, 157, 158, 166, 165,  93,  94, 102, 101
 76, 158, 159, 167, 166,  94,  95, 103, 102
 77, 159, 160, 168, 167,  95,  96, 104, 103
 78, 161, 162, 170, 169,  97,  98, 106, 105
 79, 162, 163, 171, 170,  98,  99, 107, 106
 80, 163, 164, 172, 171,  99, 100, 108, 107
 81, 164, 165, 173, 172, 100, 101, 109, 108
 82, 165, 166, 174, 173, 101, 102, 110, 109
 83, 166, 167, 175, 174, 102, 103, 111, 110
 84, 167, 168, 176, 175, 103, 104, 112, 111
 85, 169, 170, 178, 177, 105, 106, 114, 113
 86, 170, 171, 179, 178, 106, 107, 115, 114
 87, 171, 172, 180, 179, 107, 108, 116, 115
 88, 172, 173, 181, 180, 108, 109, 117, 116
 89, 173, 174, 182, 181, 109, 110, 118, 117
 90, 174, 175, 183, 182, 110, 111, 119, 118
 91, 175, 176, 184, 183, 111, 112, 120, 119
 92, 177, 178, 186, 185, 113, 114, 122, 121
 93, 178, 179, 187, 186, 114, 115, 123, 122
 94, 179, 180, 188, 187, 115, 116, 124, 123
 95, 180, 181, 189, 188, 116, 117, 125, 124
 96, 181, 182, 190, 189, 117, 118, 126, 125
 97, 182, 183, 191, 190, 118, 119, 127, 126
 98, 183, 184, 192, 191, 119, 120, 128, 127
 99, 193, 194, 202, 201, 129, 130, 138, 137
100, 194, 195, 203, 202, 130, 131, 139, 138
101, 195, 196, 204, 203, 131, 132, 140, 139
102, 196, 197, 205, 204, 132, 133, 141, 140
103, 197, 198, 206, 205, 133, 134, 142, 141
104, 198, 199, 207, 206, 134, 135, 143, 142
105, 199, 200, 208, 207, 135, 136, 144, 143
106, 201, 202, 210, 209, 137, 138, 146, 145
107, 202, 203, 211, 210, 138, 139, 147, 146
108, 203, 204, 212, 211, 139, 140, 148, 147
109, 204, 205, 213, 212, 140, 141, 149, 148
110, 205, 206, 214, 213, 141, 142, 150, 149
111, 206, 207, 215, 214, 142, 143, 151, 150
112, 207, 208, 216, 215, 143, 144, 152, 151
113, 209, 210, 218, 217, 145, 146, 154, 153
114, 210, 211, 219, 218, 146, 147, 155, 154
115, 211, 212, 220, 219, 147, 148, 156, 155
116, 212, 213, 221, 220, 148, 149, 157, 156
117, 213, 214, 222, 221, 149, 150, 158, 157
118, 214, 215, 223, 222, 150, 151, 159, 158
119, 215, 216, 224, 223, 151, 152, 160, 159
120, 217, 218, 226, 225, 153, 154, 162, 161
121, 218, 219, 227, 226, 154, 155, 163, 162
122, 219, 220, 228, 227, 155, 156, 164, 163
123, 220, 221, 229, 228, 156, 157, 165, 164
124, 221, 222, 230, 229, 157, 158, 166, 165
125, 222, 223, 231, 230, 158, 159, 167, 166
126, 223, 224, 232, 231, 159, 160, 168, 167
127, 225, 226, 234, 233, 161, 162, 170, 169
128, 226, 227, 235, 234, 162, 163, 171, 170
129, 227, 228, 236, 235, 163, 164, 172, 171
130, 228, 229, 237, 236, 164, 165, 173, 172
131, 229, 230, 238, 237, 165, 166, 174, 173
132, 230, 231, 239, 238, 166, 167, 175, 174
133, 231, 232, 240, 239, 167, 168, 176, 175
134, 233, 234, 242, 241, 169, 170, 178, 177
135, 234, 235, 243, 242, 170, 171, 179, 178
136, 235, 236, 244, 243, 171, 172, 180, 179
137, 236, 237, 245, 244, 172, 173, 181, 180
138, 237, 238, 246, 245, 173, 174, 182, 181
139, 238, 239, 247, 246, 174, 175, 183, 182
140, 239, 240, 248, 247, 175, 176, 184, 183
141, 241, 242, 250, 249, 177, 178, 186, 185
142, 242, 243, 251, 250, 178, 179, 187, 186
143, 243, 244, 252, 251, 179, 180, 188, 187
144, 244, 245, 253, 252, 180, 181, 189, 188
145, 245, 246, 254, 253, 181, 182, 190, 189
146, 246, 247, 255, 254, 182, 183, 191, 190
147, 247, 248, 256, 255, 183, 184, 192, 191
148, 257, 258, 266, 265, 193, 194, 202, 201
149, 258, 259, 267, 266, 194, 195, 203, 202
150, 259, 260, 268, 267, 195, 196, 204, 203
151, 260, 261, 269, 268, 196, 197, 205, 204
152, 261, 262, 270, 269, 197, 198, 206, 205
153, 262, 263, 271, 270, 198, 199, 207, 206
154, 263, 264, 272, 271, 199, 200, 208, 207
155, 265, 266, 274, 273, 201, 202, 210, 209
156, 266, 267, 275, 274, 202, 203, 211, 210
157, 267, 268, 276, 275, 203, 204, 212, 211
158, 268, 269, 277, 276, 204, 205, 213, 212
159, 269, 270, 278, 277, 205, 206, 214, 213
160, 270, 271, 279, 278, 206, 207, 215, 214
161, 271, 272, 280, 279, 207, 208, 216, 215
162, 273, 274, 282, 281, 209, 210, 218, 217
163, 274, 275, 283, 282, 210, 211, 219, 218
164, 275, 276, 284, 283, 211, 212, 220, 219
165, 276, 277, 285, 284, 212, 213, 221, 220
166, 277, 278, 286, 285, 213, 214, 222, 221
167, 278, 279, 287, 286, 214, 215, 223, 222
168, 279, 280, 288, 287, 215, 216, 224, 223
169, 281, 282, 290, 289, 217, 218, 226, 225
170, 282, 283, 291, 290, 218, 219, 227, 226
171, 283, 284, 292, 291, 219, 220, 228, 227
172, 284, 285, 293, 292, 220, 221, 229, 228
173, 285, 286, 294, 293, 221, 222, 230, 229
174, 286, 287, 295, 294, 222, 223, 231, 230
175, 287, 288, 296, 295, 223, 224, 232, 231
176, 289, 290, 298, 297, 225, 226, 234, 233
177, 290, 291, 299, 298, 226, 227, 235, 234
178, 291, 292, 300, 299, 227, 228, 236, 235
179, 292, 293, 301, 300, 228, 229, 237, 236
180, 293, 294, 302, 301, 229, 230, 238, 237
181, 294, 295, 303, 302, 230, 231, 239, 238
182, 295, 296, 304, 303, 231, 232, 240, 239
183, 297, 298, 306, 305, 233, 234, 242, 241
184, 298, 299, 307, 306, 234, 235, 243, 242
185, 299, 300, 308, 307, 235, 236, 244, 243
186, 300, 301, 309, 308, 236, 237, 245, 244
187, 301, 302, 310, 309, 237, 238, 246, 245
188, 302, 303, 311, 310, 238, 239, 247, 246
189, 303, 304, 312, 311, 239, 240, 248, 247
190, 305, 306, 314, 313, 241, 242, 250, 249
191, 306, 307, 315, 314, 242, 243, 251, 250
192, 307, 308, 316, 315, 243, 244, 252, 251
193, 308, 309, 317, 316, 244, 245, 253, 252
194, 309, 310, 318, 317, 245, 246, 254, 253
195, 310, 311, 319, 318, 246, 247, 255, 254
196, 311, 312, 320, 319, 247, 248, 256, 255
197, 321, 322, 330, 329, 257, 258, 266, 265
198, 322, 323, 331, 330, 258, 259, 267, 266
199, 323, 324, 332, 331, 259, 260, 268, 267
200, 324, 325, 333, 332, 260, 261, 269, 268
201, 325, 326, 334, 333, 261, 262, 270, 269
202, 326, 327, 335, 334, 262, 263, 271, 270
203, 327, 328, 336, 335, 263, 264, 272, 271
204, 329, 330, 338, 337, 265, 266, 274, 273
205, 330, 331, 339, 338, 266, 267, 275, 274
206, 331, 332, 340, 339, 267, 268, 276, 275
207, 332, 333, 341, 340, 268, 269, 277, 276
208, 333, 334, 342, 341, 269, 270, 278, 277
209, 334, 335, 343, 342, 270, 271, 279, 278
210, 335, 336, 344, 343, 271, 272, 280, 279
211, 337, 338, 346, 345, 273, 274, 282, 281
212, 338, 339, 347, 346, 274, 275, 283, 282
213, 339, 340, 348, 347, 275, 276, 284, 283
214, 340, 341, 349, 348, 276, 277, 285, 284
215, 341, 342, 350, 349, 277, 278, 286, 285
216, 342, 343, 351, 350, 278, 279, 287, 286
217, 343, 344, 352, 351, 279, 280, 288, 287
218, 345, 346, 354, 353, 281, 282, 290, 289
219, 346, 347, 355, 354, 282, 283, 291, 290
220, 347, 348, 356, 355, 283, 284, 292, 291
221, 348, 349, 357, 356, 284, 285, 293, 292
222, 349, 350, 358, 357, 285, 286, 294, 293
223, 350, 351, 359, 358, 286, 287, 295, 294
224, 351, 352, 360, 359, 287, 288, 296, 295
225, 353, 354, 362, 361, 289, 290, 298, 297
226, 354, 355, 363, 362, 290, 291, 299, 298
227, 355, 356, 364, 363, 291, 292, 300, 299
228, 356, 357, 365, 364, 292, 293, 301, 300
229, 357, 358, 366, 365, 293, 294, 302, 301
230, 358, 359, 367, 366, 294, 295, 303, 302
231, 359, 360, 368, 367, 295, 296, 304, 303
232, 361, 362, 370, 369, 297, 298, 306, 305
233, 362, 363, 371, 370, 298, 299, 307, 306
234, 363, 364, 372, 371, 299, 300, 308, 307
235, 364, 365, 373, 372, 300, 301, 309, 308
236, 365, 366, 374, 373, 301, 302, 310, 309
237, 366, 367, 375, 374, 302, 303, 311, 310
238, 367, 368, 376, 375, 303, 304, 312, 311
239, 369, 370, 378, 377, 305, 306, 314, 313
240, 370, 371, 379, 378, 306, 307, 315, 314
241, 371, 372, 380, 379, 307, 308, 316, 315
242, 372, 373, 381, 380, 308, 309, 317, 316
243, 373, 374, 382, 381, 309, 310, 318, 317
244, 374, 375, 383, 382, 310, 311, 319, 318
245, 375, 376, 384, 383, 311, 312, 320, 319
246, 385, 386, 394, 393, 321, 322, 330, 329
247, 386, 387, 395, 394, 322, 323, 331, 330
248, 387, 388, 396, 395, 323, 324, 332, 331
249, 388, 389, 397, 396, 324, 325, 333, 332
250, 389, 390, 398, 397, 325, 326, 334, 333
251, 390, 391, 399, 398, 326, 327, 335, 334
252, 391, 392, 400, 399, 327, 328, 336, 335
253, 393, 394, 402, 401, 329, 330, 338, 337
254, 394, 395, 403, 402, 330, 331, 339, 338
255, 395, 396, 404, 403, 331, 332, 340, 339
256, 396, 397, 405, 404, 332, 333, 341, 340
257, 397, 398, 406, 405, 333, 334, 342, 341
258, 398, 399, 407, 406, 334, 335, 343, 342
259, 399, 400, 408, 407, 335, 336, 344, 343
260, 401, 402, 410, 409, 337, 338, 346, 345
261, 402, 403, 411, 410, 338, 339, 347, 346
262, 403, 404, 412, 411, 339, 340, 348, 347
263, 404, 405, 413, 412, 340, 341, 349, 348
264, 405, 406, 414, 413, 341, 342, 350, 349
265, 406, 407, 415, 414, 342, 343, 351, 350
266, 407, 408, 416, 415, 343, 344, 352, 351
267, 409, 410, 418, 417, 345, 346, 354, 353
268, 410, 411, 419, 418, 346, 347, 355, 354
269, 411, 412, 420, 419, 347, 348, 356, 355
270, 412, 413, 421, 420, 348, 349, 357, 356
271, 413, 414, 422, 421, 349, 350, 358, 357
272, 414, 415, 423, 422, 350, 351, 359, 358
273, 415, 416, 424, 423, 351, 352, 360, 359
274, 417, 418, 426, 425, 353, 354, 362, 361
275, 418, 419, 427, 426, 354, 355, 363, 362
276, 419, 420, 428, 427, 355, 356, 364, 363
277, 420, 421, 429, 428, 356, 357, 365, 364
278, 421, 422, 430, 429, 357, 358, 366, 365
279, 422, 423, 431, 430, 358, 359, 367, 366
280, 423, 424, 432, 431, 359, 360, 368, 367
281, 425, 426, 434, 433, 361, 362, 370, 369
282, 426, 427, 435, 434, 362, 363, 371, 370
283, 427, 428, 436, 435, 363, 364, 372, 371
284, 428, 429, 437, 436, 364, 365, 373, 372
285, 429, 430, 438, 437, 365, 366, 374, 373
286, 430, 431, 439, 438, 366, 367, 375, 374
287, 431, 432, 440, 439, 367, 368, 376, 375
288, 433, 434, 442, 441, 369, 370, 378, 377
289, 434, 435, 443, 442, 370, 371, 379, 378
290, 435, 436, 444, 443, 371, 372, 380, 379
291, 436, 437, 445, 444, 372, 373, 381, 380
292, 437, 438, 446, 445, 373, 374, 382, 381
293, 438, 439, 447, 446, 374, 375, 383, 382
294, 439, 440, 448, 447, 375, 376, 384, 383
295, 449, 450, 458, 457, 385, 386, 394, 393
296, 450, 451, 459, 458, 386, 387, 395, 394
297, 451, 452, 460, 459, 387, 388, 396, 395
298, 452, 453, 461, 460, 388, 389, 397, 396
299, 453, 454, 462, 461, 389, 390, 398, 397
300, 454, 455, 463, 462, 390, 391, 399, 398
301, 455, 456, 464, 463, 391, 392, 400, 399
302, 457, 458, 466, 465, 393, 394, 402, 401
303, 458, 459, 467, 466, 394, 395, 403, 402
304, 459, 460, 468, 467, 395, 396, 404, 403
305, 460, 461, 469, 468, 396, 397, 405, 404
306, 461, 462, 470, 469, 397, 398, 406, 405
307, 462, 463, 471, 470, 398, 399, 407, 406
308, 463, 464, 472, 471, 399, 400, 408, 407
309, 465, 466, 474, 473, 401, 402, 410, 409
310, 466, 467, 475, 474, 402, 403, 411, 410
311, 467, 468, 476, 475, 403, 404, 412, 411
312, 468, 469, 477, 476, 404, 405, 413, 412
313, 469, 470, 478, 477, 405, 406, 414, 413
314, 470, 471, 479, 478, 406, 407, 415, 414
315, 471, 472, 480, 479, 407, 408, 416, 415
316, 473, 474, 482, 481, 409, 410, 418, 417
317, 474, 475, 483, 482, 410, 411, 419, 418
318, 475, 476, 484, 483, 411, 412, 420, 419
319, 476, 477, 485, 484, 412, 413, 421, 420
320, 477, 478, 486, 485, 413, 414, 422, 421
321, 478, 479, 487, 486, 414, 415, 423, 422
322, 479, 480, 488, 487, 415, 416, 424, 423
323, 481, 482, 490, 489, 417, 418, 426, 425
324, 482, 483, 491, 490, 418, 419, 427, 426
325, 483, 484, 492, 491, 419, 420, 428, 427
326, 484, 485, 493, 492, 420, 421, 429, 428
327, 485, 486, 494, 493, 421, 422, 430, 429
328, 486, 487, 495, 494, 422, 423, 431, 430
329, 487, 488, 496, 495, 423, 424, 432, 431
330, 489, 490, 498, 497, 425, 426, 434, 433
331, 490, 491, 499, 498, 426, 427, 435, 434
332, 491, 492, 500, 499, 427, 428, 436, 435
333, 492, 493, 501, 500, 428, 429, 437, 436
334, 493, 494, 502, 501, 429, 430, 438, 437
335, 494, 495, 503, 502, 430, 431, 439, 438
336, 495, 496, 504, 503, 431, 432, 440, 439
337, 497, 498, 506, 505, 433, 434, 442, 441
338, 498, 499, 507, 506, 434, 435, 443, 442
339, 499, 500, 508, 507, 435, 436, 444, 443
340, 500, 501, 509, 508, 436, 437, 445, 444
341, 501, 502, 510, 509, 437, 438, 446, 445
342, 502, 503, 511, 510, 438, 439, 447, 446
343, 503, 504, 512, 511, 439, 440, 448, 447
*Nset, nset=_PickedSet3, internal, generate
   1,  512,    1
*Elset, elset=_PickedSet3, internal, generate
   1,  343,    1
** Section: Section-1
*Solid Section, elset=_PickedSet3, material=Material-1
,
*End Part
**  
**
** ASSEMBLY
**
*Assembly, name=Assembly
**  
*Instance, name=Part-1-1, part=Part-1
*End Instance
**  
*End Assembly
** 
** MATERIALS
** 
*Material, name=Material-1
*Elastic
1., 0.3
