*Heading
** Job name: Cubic_center_beam Model name: Model-1
** Generated by: Abaqus/CAE 2020
*Preprint, echo=NO, model=NO, history=NO, contact=NO
**
** PARTS
**
*Part, name=CUBIC_CENTER
*Node
      1,          0.5,          0.5,         -0.5
      2,          0.5,          0.5,          0.5
      3,          0.5,         -0.5,          0.5
      4,          0.5,         -0.5,         -0.5
      5,           0.,           0.,           0.
      6,         -0.5,          0.5,          0.5
      7,         -0.5,         -0.5,         -0.5
      8,         -0.5,         -0.5,          0.5
      9,         -0.5,          0.5,         -0.5
     10,          0.5,          0.5, -0.400000006
     11,          0.5,          0.5, -0.300000012
     12,          0.5,          0.5, -0.200000003
     13,          0.5,          0.5, -0.100000001
     14,          0.5,          0.5,           0.
     15,          0.5,          0.5,  0.100000001
     16,          0.5,          0.5,  0.200000003
     17,          0.5,          0.5,  0.300000012
     18,          0.5,          0.5,  0.400000006
     19,          0.5, -0.400000006,          0.5
     20,          0.5, -0.300000012,          0.5
     21,          0.5, -0.200000003,          0.5
     22,          0.5, -0.100000001,          0.5
     23,          0.5,           0.,          0.5
     24,          0.5,  0.100000001,          0.5
     25,          0.5,  0.200000003,          0.5
     26,          0.5,  0.300000012,          0.5
     27,          0.5,  0.400000006,          0.5
     28,          0.5,         -0.5, -0.400000006
     29,          0.5,         -0.5, -0.300000012
     30,          0.5,         -0.5, -0.200000003
     31,          0.5,         -0.5, -0.100000001
     32,          0.5,         -0.5,           0.
     33,          0.5,         -0.5,  0.100000001
     34,          0.5,         -0.5,  0.200000003
     35,          0.5,         -0.5,  0.300000012
     36,          0.5,         -0.5,  0.400000006
     37,  0.444444448, -0.444444448, -0.444444448
     38,  0.388888896, -0.388888896, -0.388888896
     39,  0.333333343, -0.333333343, -0.333333343
     40,  0.277777791, -0.277777791, -0.277777791
     41,  0.222222224, -0.222222224, -0.222222224
     42,  0.166666672, -0.166666672, -0.166666672
     43,  0.111111112, -0.111111112, -0.111111112
     44,  0.055555556, -0.055555556, -0.055555556
     45, -0.055555556,  0.055555556,  0.055555556
     46, -0.111111112,  0.111111112,  0.111111112
     47, -0.166666672,  0.166666672,  0.166666672
     48, -0.222222224,  0.222222224,  0.222222224
     49, -0.277777791,  0.277777791,  0.277777791
     50, -0.333333343,  0.333333343,  0.333333343
     51, -0.388888896,  0.388888896,  0.388888896
     52, -0.444444448,  0.444444448,  0.444444448
     53, -0.400000006,          0.5,          0.5
     54, -0.300000012,          0.5,          0.5
     55, -0.200000003,          0.5,          0.5
     56, -0.100000001,          0.5,          0.5
     57,           0.,          0.5,          0.5
     58,  0.100000001,          0.5,          0.5
     59,  0.200000003,          0.5,          0.5
     60,  0.300000012,          0.5,          0.5
     61,  0.400000006,          0.5,          0.5
     62,  0.055555556,  0.055555556,  0.055555556
     63,  0.111111112,  0.111111112,  0.111111112
     64,  0.166666672,  0.166666672,  0.166666672
     65,  0.222222224,  0.222222224,  0.222222224
     66,  0.277777791,  0.277777791,  0.277777791
     67,  0.333333343,  0.333333343,  0.333333343
     68,  0.388888896,  0.388888896,  0.388888896
     69,  0.444444448,  0.444444448,  0.444444448
     70,  0.444444448,  0.444444448, -0.444444448
     71,  0.388888896,  0.388888896, -0.388888896
     72,  0.333333343,  0.333333343, -0.333333343
     73,  0.277777791,  0.277777791, -0.277777791
     74,  0.222222224,  0.222222224, -0.222222224
     75,  0.166666672,  0.166666672, -0.166666672
     76,  0.111111112,  0.111111112, -0.111111112
     77,  0.055555556,  0.055555556, -0.055555556
     78,          0.5, -0.400000006,         -0.5
     79,          0.5, -0.300000012,         -0.5
     80,          0.5, -0.200000003,         -0.5
     81,          0.5, -0.100000001,         -0.5
     82,          0.5,           0.,         -0.5
     83,          0.5,  0.100000001,         -0.5
     84,          0.5,  0.200000003,         -0.5
     85,          0.5,  0.300000012,         -0.5
     86,          0.5,  0.400000006,         -0.5
     87, -0.400000006,         -0.5,         -0.5
     88, -0.300000012,         -0.5,         -0.5
     89, -0.200000003,         -0.5,         -0.5
     90, -0.100000001,         -0.5,         -0.5
     91,           0.,         -0.5,         -0.5
     92,  0.100000001,         -0.5,         -0.5
     93,  0.200000003,         -0.5,         -0.5
     94,  0.300000012,         -0.5,         -0.5
     95,  0.400000006,         -0.5,         -0.5
     96, -0.444444448, -0.444444448, -0.444444448
     97, -0.388888896, -0.388888896, -0.388888896
     98, -0.333333343, -0.333333343, -0.333333343
     99, -0.277777791, -0.277777791, -0.277777791
    100, -0.222222224, -0.222222224, -0.222222224
    101, -0.166666672, -0.166666672, -0.166666672
    102, -0.111111112, -0.111111112, -0.111111112
    103, -0.055555556, -0.055555556, -0.055555556
    104, -0.055555556, -0.055555556,  0.055555556
    105, -0.111111112, -0.111111112,  0.111111112
    106, -0.166666672, -0.166666672,  0.166666672
    107, -0.222222224, -0.222222224,  0.222222224
    108, -0.277777791, -0.277777791,  0.277777791
    109, -0.333333343, -0.333333343,  0.333333343
    110, -0.388888896, -0.388888896,  0.388888896
    111, -0.444444448, -0.444444448,  0.444444448
    112, -0.400000006,         -0.5,          0.5
    113, -0.300000012,         -0.5,          0.5
    114, -0.200000003,         -0.5,          0.5
    115, -0.100000001,         -0.5,          0.5
    116,           0.,         -0.5,          0.5
    117,  0.100000001,         -0.5,          0.5
    118,  0.200000003,         -0.5,          0.5
    119,  0.300000012,         -0.5,          0.5
    120,  0.400000006,         -0.5,          0.5
    121,  0.055555556, -0.055555556,  0.055555556
    122,  0.111111112, -0.111111112,  0.111111112
    123,  0.166666672, -0.166666672,  0.166666672
    124,  0.222222224, -0.222222224,  0.222222224
    125,  0.277777791, -0.277777791,  0.277777791
    126,  0.333333343, -0.333333343,  0.333333343
    127,  0.388888896, -0.388888896,  0.388888896
    128,  0.444444448, -0.444444448,  0.444444448
    129,         -0.5,          0.5, -0.400000006
    130,         -0.5,          0.5, -0.300000012
    131,         -0.5,          0.5, -0.200000003
    132,         -0.5,          0.5, -0.100000001
    133,         -0.5,          0.5,           0.
    134,         -0.5,          0.5,  0.100000001
    135,         -0.5,          0.5,  0.200000003
    136,         -0.5,          0.5,  0.300000012
    137,         -0.5,          0.5,  0.400000006
    138, -0.444444448,  0.444444448, -0.444444448
    139, -0.388888896,  0.388888896, -0.388888896
    140, -0.333333343,  0.333333343, -0.333333343
    141, -0.277777791,  0.277777791, -0.277777791
    142, -0.222222224,  0.222222224, -0.222222224
    143, -0.166666672,  0.166666672, -0.166666672
    144, -0.111111112,  0.111111112, -0.111111112
    145, -0.055555556,  0.055555556, -0.055555556
    146, -0.400000006,          0.5,         -0.5
    147, -0.300000012,          0.5,         -0.5
    148, -0.200000003,          0.5,         -0.5
    149, -0.100000001,          0.5,         -0.5
    150,           0.,          0.5,         -0.5
    151,  0.100000001,          0.5,         -0.5
    152,  0.200000003,          0.5,         -0.5
    153,  0.300000012,          0.5,         -0.5
    154,  0.400000006,          0.5,         -0.5
    155,         -0.5, -0.400000006,         -0.5
    156,         -0.5, -0.300000012,         -0.5
    157,         -0.5, -0.200000003,         -0.5
    158,         -0.5, -0.100000001,         -0.5
    159,         -0.5,           0.,         -0.5
    160,         -0.5,  0.100000001,         -0.5
    161,         -0.5,  0.200000003,         -0.5
    162,         -0.5,  0.300000012,         -0.5
    163,         -0.5,  0.400000006,         -0.5
    164,         -0.5,         -0.5, -0.400000006
    165,         -0.5,         -0.5, -0.300000012
    166,         -0.5,         -0.5, -0.200000003
    167,         -0.5,         -0.5, -0.100000001
    168,         -0.5,         -0.5,           0.
    169,         -0.5,         -0.5,  0.100000001
    170,         -0.5,         -0.5,  0.200000003
    171,         -0.5,         -0.5,  0.300000012
    172,         -0.5,         -0.5,  0.400000006
    173,         -0.5, -0.400000006,          0.5
    174,         -0.5, -0.300000012,          0.5
    175,         -0.5, -0.200000003,          0.5
    176,         -0.5, -0.100000001,          0.5
    177,         -0.5,           0.,          0.5
    178,         -0.5,  0.100000001,          0.5
    179,         -0.5,  0.200000003,          0.5
    180,         -0.5,  0.300000012,          0.5
    181,         -0.5,  0.400000006,          0.5
*Element, type=B31
  1,   1,  10
  2,  10,  11
  3,  11,  12
  4,  12,  13
  5,  13,  14
  6,  14,  15
  7,  15,  16
  8,  16,  17
  9,  17,  18
 10,  18,   2
 11,   3,  19
 12,  19,  20
 13,  20,  21
 14,  21,  22
 15,  22,  23
 16,  23,  24
 17,  24,  25
 18,  25,  26
 19,  26,  27
 20,  27,   2
 21,   4,  28
 22,  28,  29
 23,  29,  30
 24,  30,  31
 25,  31,  32
 26,  32,  33
 27,  33,  34
 28,  34,  35
 29,  35,  36
 30,  36,   3
 31,   4,  37
 32,  37,  38
 33,  38,  39
 34,  39,  40
 35,  40,  41
 36,  41,  42
 37,  42,  43
 38,  43,  44
 39,  44,   5
 40,   5,  45
 41,  45,  46
 42,  46,  47
 43,  47,  48
 44,  48,  49
 45,  49,  50
 46,  50,  51
 47,  51,  52
 48,  52,   6
 49,   6,  53
 50,  53,  54
 51,  54,  55
 52,  55,  56
 53,  56,  57
 54,  57,  58
 55,  58,  59
 56,  59,  60
 57,  60,  61
 58,  61,   2
 59,   5,  62
 60,  62,  63
 61,  63,  64
 62,  64,  65
 63,  65,  66
 64,  66,  67
 65,  67,  68
 66,  68,  69
 67,  69,   2
 68,   1,  70
 69,  70,  71
 70,  71,  72
 71,  72,  73
 72,  73,  74
 73,  74,  75
 74,  75,  76
 75,  76,  77
 76,  77,   5
 77,   4,  78
 78,  78,  79
 79,  79,  80
 80,  80,  81
 81,  81,  82
 82,  82,  83
 83,  83,  84
 84,  84,  85
 85,  85,  86
 86,  86,   1
 87,   7,  87
 88,  87,  88
 89,  88,  89
 90,  89,  90
 91,  90,  91
 92,  91,  92
 93,  92,  93
 94,  93,  94
 95,  94,  95
 96,  95,   4
 97,   7,  96
 98,  96,  97
 99,  97,  98
100,  98,  99
101,  99, 100
102, 100, 101
103, 101, 102
104, 102, 103
105, 103,   5
106,   5, 104
107, 104, 105
108, 105, 106
109, 106, 107
110, 107, 108
111, 108, 109
112, 109, 110
113, 110, 111
114, 111,   8
115,   8, 112
116, 112, 113
117, 113, 114
118, 114, 115
119, 115, 116
120, 116, 117
121, 117, 118
122, 118, 119
123, 119, 120
124, 120,   3
125,   5, 121
126, 121, 122
127, 122, 123
128, 123, 124
129, 124, 125
130, 125, 126
131, 126, 127
132, 127, 128
133, 128,   3
134,   9, 129
135, 129, 130
136, 130, 131
137, 131, 132
138, 132, 133
139, 133, 134
140, 134, 135
141, 135, 136
142, 136, 137
143, 137,   6
144,   9, 138
145, 138, 139
146, 139, 140
147, 140, 141
148, 141, 142
149, 142, 143
150, 143, 144
151, 144, 145
152, 145,   5
153,   9, 146
154, 146, 147
155, 147, 148
156, 148, 149
157, 149, 150
158, 150, 151
159, 151, 152
160, 152, 153
161, 153, 154
162, 154,   1
163,   7, 155
164, 155, 156
165, 156, 157
166, 157, 158
167, 158, 159
168, 159, 160
169, 160, 161
170, 161, 162
171, 162, 163
172, 163,   9
173,   7, 164
174, 164, 165
175, 165, 166
176, 166, 167
177, 167, 168
178, 168, 169
179, 169, 170
180, 170, 171
181, 171, 172
182, 172,   8
183,   8, 173
184, 173, 174
185, 174, 175
186, 175, 176
187, 176, 177
188, 177, 178
189, 178, 179
190, 179, 180
191, 180, 181
192, 181,   6
*Elset, elset=ELEM_EDGE
   1,   2,   3,   4,   5,   6,   7,   8,   9,  10,  11,  12,  13,  14,  15,  16
  17,  18,  19,  20,  21,  22,  23,  24,  25,  26,  27,  28,  29,  30,  49,  50
  51,  52,  53,  54,  55,  56,  57,  58,  77,  78,  79,  80,  81,  82,  83,  84
  85,  86,  87,  88,  89,  90,  91,  92,  93,  94,  95,  96, 115, 116, 117, 118
 119, 120, 121, 122, 123, 124, 134, 135, 136, 137, 138, 139, 140, 141, 142, 143
 153, 154, 155, 156, 157, 158, 159, 160, 161, 162, 163, 164, 165, 166, 167, 168
 169, 170, 171, 172, 173, 174, 175, 176, 177, 178, 179, 180, 181, 182, 183, 184
 185, 186, 187, 188, 189, 190, 191, 192
*Elset, elset=ELEM_INNER
  31,  32,  33,  34,  35,  36,  37,  38,  39,  40,  41,  42,  43,  44,  45,  46
  47,  48,  59,  60,  61,  62,  63,  64,  65,  66,  67,  68,  69,  70,  71,  72
  73,  74,  75,  76,  97,  98,  99, 100, 101, 102, 103, 104, 105, 106, 107, 108
 109, 110, 111, 112, 113, 114, 125, 126, 127, 128, 129, 130, 131, 132, 133, 144
 145, 146, 147, 148, 149, 150, 151, 152
** Section: Section-0P05  Profile: Profile-0P05
*Beam Section, elset=ELEM_EDGE, material=Material-1, temperature=GRADIENTS, section=CIRC
0.05
0.1,0.,-1.
** Section: Section-0P1  Profile: Profile-0P1
*Beam Section, elset=ELEM_INNER, material=Material-1, temperature=GRADIENTS, section=CIRC
0.1
0.1,0.,-1.
*End Part
**  
**
** ASSEMBLY
**
*Assembly, name=Assembly
**  
*Instance, name=CUBIC_CENTER-1, part=CUBIC_CENTER
*End Instance
**  
*End Assembly
** 
** MATERIALS
** 
*Material, name=Material-1
*Elastic
1., 0.3
** ----------------------------------------------------------------
** 
** STEP: Step-1
** 
*Step, name=Step-1, nlgeom=NO
*Static
1., 1., 1e-05, 1.
** 
** OUTPUT REQUESTS
** 
*Restart, write, frequency=0
** 
** FIELD OUTPUT: F-Output-1
** 
*Output, field, variable=PRESELECT
** 
** HISTORY OUTPUT: H-Output-1
** 
*Output, history, variable=PRESELECT
*End Step
