*Heading
** Job name: Hexagonal_honeycomb_shellNEW Model name: Model-1
** Generated by: Abaqus/CAE 2020
*Preprint, echo=NO, model=NO, history=NO, contact=NO
**
** PARTS
**
*Part, name=PART-1
*Node
      1,          -1.,   1.73205078,           0.
      2,          -1.,   1.73205078,  0.100000001
      3,          -1.,   1.73205078,  0.200000003
      4,          -1.,   1.73205078,  0.300000012
      5,          -1.,   1.73205078,  0.400000006
      6,          -1.,   1.73205078,          0.5
      7,          -1.,   1.73205078,  0.600000024
      8,          -1.,   1.73205078,  0.699999988
      9,          -1.,   1.73205078,  0.800000012
     10,          -1.,   1.73205078,  0.899999976
     11,          -1.,   1.73205078,           1.
     12, -0.899999976,   1.73205078,           1.
     13, -0.800000012,   1.73205078,           1.
     14, -0.699999988,   1.73205078,           1.
     15, -0.600000024,   1.73205078,           1.
     16,         -0.5,   1.73205078,           1.
     17, -0.400000006,   1.73205078,           1.
     18, -0.300000012,   1.73205078,           1.
     19, -0.200000003,   1.73205078,           1.
     20, -0.100000001,   1.73205078,           1.
     21,           0.,   1.73205078,           1.
     22,  0.100000001,   1.73205078,           1.
     23,  0.200000003,   1.73205078,           1.
     24,  0.300000012,   1.73205078,           1.
     25,  0.400000006,   1.73205078,           1.
     26,          0.5,   1.73205078,           1.
     27,  0.600000024,   1.73205078,           1.
     28,  0.699999988,   1.73205078,           1.
     29,  0.800000012,   1.73205078,           1.
     30,  0.899999976,   1.73205078,           1.
     31,           1.,   1.73205078,           1.
     32,           1.,   1.73205078,  0.899999976
     33,           1.,   1.73205078,  0.800000012
     34,           1.,   1.73205078,  0.699999988
     35,           1.,   1.73205078,  0.600000024
     36,           1.,   1.73205078,          0.5
     37,           1.,   1.73205078,  0.400000006
     38,           1.,   1.73205078,  0.300000012
     39,           1.,   1.73205078,  0.200000003
     40,           1.,   1.73205078,  0.100000001
     41,           1.,   1.73205078,           0.
     42,  0.899999976,   1.73205078,           0.
     43,  0.800000012,   1.73205078,           0.
     44,  0.699999988,   1.73205078,           0.
     45,  0.600000024,   1.73205078,           0.
     46,          0.5,   1.73205078,           0.
     47,  0.400000006,   1.73205078,           0.
     48,  0.300000012,   1.73205078,           0.
     49,  0.200000003,   1.73205078,           0.
     50,  0.100000001,   1.73205078,           0.
     51,           0.,   1.73205078,           0.
     52, -0.100000001,   1.73205078,           0.
     53, -0.200000003,   1.73205078,           0.
     54, -0.300000012,   1.73205078,           0.
     55, -0.400000006,   1.73205078,           0.
     56,         -0.5,   1.73205078,           0.
     57, -0.600000024,   1.73205078,           0.
     58, -0.699999988,   1.73205078,           0.
     59, -0.800000012,   1.73205078,           0.
     60, -0.899999976,   1.73205078,           0.
     61,           0.,   1.73205078,  0.899999976
     62,           0.,   1.73205078,  0.800000012
     63,           0.,   1.73205078,  0.699999988
     64,           0.,   1.73205078,  0.600000024
     65,           0.,   1.73205078,          0.5
     66,           0.,   1.73205078,  0.400000006
     67,           0.,   1.73205078,  0.300000012
     68,           0.,   1.73205078,  0.200000003
     69,           0.,   1.73205078,  0.100000001
     70, -0.100000001,   1.73205078,          0.5
     71, -0.200000003,   1.73205078,          0.5
     72, -0.300000012,   1.73205078,          0.5
     73, -0.400000006,   1.73205078,          0.5
     74,         -0.5,   1.73205078,          0.5
     75, -0.600000024,   1.73205078,          0.5
     76, -0.699999988,   1.73205078,          0.5
     77, -0.800000012,   1.73205078,          0.5
     78, -0.899999976,   1.73205078,          0.5
     79,         -0.5,   1.73205078,  0.600000024
     80,         -0.5,   1.73205078,  0.699999988
     81,         -0.5,   1.73205078,  0.800000012
     82,         -0.5,   1.73205078,  0.899999976
     83, -0.400000006,   1.73205078,  0.699999988
     84, -0.300000012,   1.73205078,  0.699999988
     85, -0.200000003,   1.73205078,  0.699999988
     86, -0.100000001,   1.73205078,  0.699999988
     87, -0.300000012,   1.73205078,  0.600000024
     88, -0.400000006,   1.73205078,  0.600000024
     89, -0.200000003,   1.73205078,  0.600000024
     90, -0.100000001,   1.73205078,  0.600000024
     91, -0.300000012,   1.73205078,  0.899999976
     92, -0.300000012,   1.73205078,  0.800000012
     93, -0.400000006,   1.73205078,  0.899999976
     94, -0.400000006,   1.73205078,  0.800000012
     95, -0.100000001,   1.73205078,  0.899999976
     96, -0.200000003,   1.73205078,  0.899999976
     97, -0.100000001,   1.73205078,  0.800000012
     98, -0.200000003,   1.73205078,  0.800000012
     99, -0.899999976,   1.73205078,  0.699999988
    100, -0.800000012,   1.73205078,  0.699999988
    101, -0.699999988,   1.73205078,  0.699999988
    102, -0.600000024,   1.73205078,  0.699999988
    103, -0.800000012,   1.73205078,  0.600000024
    104, -0.899999976,   1.73205078,  0.600000024
    105, -0.699999988,   1.73205078,  0.600000024
    106, -0.600000024,   1.73205078,  0.600000024
    107, -0.800000012,   1.73205078,  0.899999976
    108, -0.800000012,   1.73205078,  0.800000012
    109, -0.899999976,   1.73205078,  0.899999976
    110, -0.899999976,   1.73205078,  0.800000012
    111, -0.600000024,   1.73205078,  0.899999976
    112, -0.699999988,   1.73205078,  0.899999976
    113, -0.600000024,   1.73205078,  0.800000012
    114, -0.699999988,   1.73205078,  0.800000012
    115,         -0.5,   1.73205078,  0.100000001
    116,         -0.5,   1.73205078,  0.200000003
    117,         -0.5,   1.73205078,  0.300000012
    118,         -0.5,   1.73205078,  0.400000006
    119, -0.400000006,   1.73205078,  0.200000003
    120, -0.300000012,   1.73205078,  0.200000003
    121, -0.200000003,   1.73205078,  0.200000003
    122, -0.100000001,   1.73205078,  0.200000003
    123, -0.300000012,   1.73205078,  0.100000001
    124, -0.400000006,   1.73205078,  0.100000001
    125, -0.200000003,   1.73205078,  0.100000001
    126, -0.100000001,   1.73205078,  0.100000001
    127, -0.300000012,   1.73205078,  0.400000006
    128, -0.300000012,   1.73205078,  0.300000012
    129, -0.400000006,   1.73205078,  0.400000006
    130, -0.400000006,   1.73205078,  0.300000012
    131, -0.100000001,   1.73205078,  0.400000006
    132, -0.200000003,   1.73205078,  0.400000006
    133, -0.100000001,   1.73205078,  0.300000012
    134, -0.200000003,   1.73205078,  0.300000012
    135, -0.899999976,   1.73205078,  0.200000003
    136, -0.800000012,   1.73205078,  0.200000003
    137, -0.699999988,   1.73205078,  0.200000003
    138, -0.600000024,   1.73205078,  0.200000003
    139, -0.800000012,   1.73205078,  0.100000001
    140, -0.899999976,   1.73205078,  0.100000001
    141, -0.699999988,   1.73205078,  0.100000001
    142, -0.600000024,   1.73205078,  0.100000001
    143, -0.800000012,   1.73205078,  0.400000006
    144, -0.800000012,   1.73205078,  0.300000012
    145, -0.899999976,   1.73205078,  0.400000006
    146, -0.899999976,   1.73205078,  0.300000012
    147, -0.600000024,   1.73205078,  0.400000006
    148, -0.699999988,   1.73205078,  0.400000006
    149, -0.600000024,   1.73205078,  0.300000012
    150, -0.699999988,   1.73205078,  0.300000012
    151,  0.899999976,   1.73205078,          0.5
    152,  0.800000012,   1.73205078,          0.5
    153,  0.699999988,   1.73205078,          0.5
    154,  0.600000024,   1.73205078,          0.5
    155,          0.5,   1.73205078,          0.5
    156,  0.400000006,   1.73205078,          0.5
    157,  0.300000012,   1.73205078,          0.5
    158,  0.200000003,   1.73205078,          0.5
    159,  0.100000001,   1.73205078,          0.5
    160,          0.5,   1.73205078,  0.600000024
    161,          0.5,   1.73205078,  0.699999988
    162,          0.5,   1.73205078,  0.800000012
    163,          0.5,   1.73205078,  0.899999976
    164,  0.600000024,   1.73205078,  0.699999988
    165,  0.699999988,   1.73205078,  0.699999988
    166,  0.800000012,   1.73205078,  0.699999988
    167,  0.899999976,   1.73205078,  0.699999988
    168,  0.699999988,   1.73205078,  0.600000024
    169,  0.600000024,   1.73205078,  0.600000024
    170,  0.800000012,   1.73205078,  0.600000024
    171,  0.899999976,   1.73205078,  0.600000024
    172,  0.699999988,   1.73205078,  0.899999976
    173,  0.699999988,   1.73205078,  0.800000012
    174,  0.600000024,   1.73205078,  0.899999976
    175,  0.600000024,   1.73205078,  0.800000012
    176,  0.899999976,   1.73205078,  0.899999976
    177,  0.800000012,   1.73205078,  0.899999976
    178,  0.899999976,   1.73205078,  0.800000012
    179,  0.800000012,   1.73205078,  0.800000012
    180,  0.100000001,   1.73205078,  0.699999988
    181,  0.200000003,   1.73205078,  0.699999988
    182,  0.300000012,   1.73205078,  0.699999988
    183,  0.400000006,   1.73205078,  0.699999988
    184,  0.200000003,   1.73205078,  0.600000024
    185,  0.100000001,   1.73205078,  0.600000024
    186,  0.300000012,   1.73205078,  0.600000024
    187,  0.400000006,   1.73205078,  0.600000024
    188,  0.200000003,   1.73205078,  0.899999976
    189,  0.200000003,   1.73205078,  0.800000012
    190,  0.100000001,   1.73205078,  0.899999976
    191,  0.100000001,   1.73205078,  0.800000012
    192,  0.400000006,   1.73205078,  0.899999976
    193,  0.300000012,   1.73205078,  0.899999976
    194,  0.400000006,   1.73205078,  0.800000012
    195,  0.300000012,   1.73205078,  0.800000012
    196,          0.5,   1.73205078,  0.100000001
    197,          0.5,   1.73205078,  0.200000003
    198,          0.5,   1.73205078,  0.300000012
    199,          0.5,   1.73205078,  0.400000006
    200,  0.600000024,   1.73205078,  0.200000003
    201,  0.699999988,   1.73205078,  0.200000003
    202,  0.800000012,   1.73205078,  0.200000003
    203,  0.899999976,   1.73205078,  0.200000003
    204,  0.699999988,   1.73205078,  0.100000001
    205,  0.600000024,   1.73205078,  0.100000001
    206,  0.800000012,   1.73205078,  0.100000001
    207,  0.899999976,   1.73205078,  0.100000001
    208,  0.699999988,   1.73205078,  0.400000006
    209,  0.699999988,   1.73205078,  0.300000012
    210,  0.600000024,   1.73205078,  0.400000006
    211,  0.600000024,   1.73205078,  0.300000012
    212,  0.899999976,   1.73205078,  0.400000006
    213,  0.800000012,   1.73205078,  0.400000006
    214,  0.899999976,   1.73205078,  0.300000012
    215,  0.800000012,   1.73205078,  0.300000012
    216,  0.100000001,   1.73205078,  0.200000003
    217,  0.200000003,   1.73205078,  0.200000003
    218,  0.300000012,   1.73205078,  0.200000003
    219,  0.400000006,   1.73205078,  0.200000003
    220,  0.200000003,   1.73205078,  0.100000001
    221,  0.100000001,   1.73205078,  0.100000001
    222,  0.300000012,   1.73205078,  0.100000001
    223,  0.400000006,   1.73205078,  0.100000001
    224,  0.200000003,   1.73205078,  0.400000006
    225,  0.200000003,   1.73205078,  0.300000012
    226,  0.100000001,   1.73205078,  0.400000006
    227,  0.100000001,   1.73205078,  0.300000012
    228,  0.400000006,   1.73205078,  0.400000006
    229,  0.300000012,   1.73205078,  0.400000006
    230,  0.400000006,   1.73205078,  0.300000012
    231,  0.300000012,   1.73205078,  0.300000012
    232,   1.04999995,   1.64544821,           1.
    233,   1.10000002,   1.55884576,           1.
    234,   1.14999998,   1.47224319,           1.
    235,   1.20000005,   1.38564062,           1.
    236,         1.25,   1.29903805,           1.
    237,   1.29999995,    1.2124356,           1.
    238,   1.35000002,   1.12583303,           1.
    239,   1.39999998,   1.03923047,           1.
    240,   1.45000005,  0.952627957,           1.
    241,          1.5,  0.866025388,           1.
    242,   1.54999995,  0.779422879,           1.
    243,   1.60000002,  0.692820311,           1.
    244,   1.64999998,  0.606217802,           1.
    245,   1.70000005,  0.519615233,           1.
    246,         1.75,  0.433012694,           1.
    247,   1.79999995,  0.346410155,           1.
    248,   1.85000002,  0.259807616,           1.
    249,   1.89999998,  0.173205078,           1.
    250,   1.95000005, 0.0866025388,           1.
    251,           2.,           0.,           1.
    252,           2.,           0.,  0.899999976
    253,           2.,           0.,  0.800000012
    254,           2.,           0.,  0.699999988
    255,           2.,           0.,  0.600000024
    256,           2.,           0.,          0.5
    257,           2.,           0.,  0.400000006
    258,           2.,           0.,  0.300000012
    259,           2.,           0.,  0.200000003
    260,           2.,           0.,  0.100000001
    261,           2.,           0.,           0.
    262,   1.95000005, 0.0866025388,           0.
    263,   1.89999998,  0.173205078,           0.
    264,   1.85000002,  0.259807616,           0.
    265,   1.79999995,  0.346410155,           0.
    266,         1.75,  0.433012694,           0.
    267,   1.70000005,  0.519615233,           0.
    268,   1.64999998,  0.606217802,           0.
    269,   1.60000002,  0.692820311,           0.
    270,   1.54999995,  0.779422879,           0.
    271,          1.5,  0.866025388,           0.
    272,   1.45000005,  0.952627957,           0.
    273,   1.39999998,   1.03923047,           0.
    274,   1.35000002,   1.12583303,           0.
    275,   1.29999995,    1.2124356,           0.
    276,         1.25,   1.29903805,           0.
    277,   1.20000005,   1.38564062,           0.
    278,   1.14999998,   1.47224319,           0.
    279,   1.10000002,   1.55884576,           0.
    280,   1.04999995,   1.64544821,           0.
    281,          1.5,  0.866025388,  0.899999976
    282,          1.5,  0.866025388,  0.800000012
    283,          1.5,  0.866025388,  0.699999988
    284,          1.5,  0.866025388,  0.600000024
    285,          1.5,  0.866025388,          0.5
    286,          1.5,  0.866025388,  0.400000006
    287,          1.5,  0.866025388,  0.300000012
    288,          1.5,  0.866025388,  0.200000003
    289,          1.5,  0.866025388,  0.100000001
    290,         1.25,   1.29903805,  0.899999976
    291,         1.25,   1.29903805,  0.800000012
    292,         1.25,   1.29903805,  0.699999988
    293,         1.25,   1.29903805,  0.600000024
    294,         1.25,   1.29903805,          0.5
    295,         1.25,   1.29903805,  0.400000006
    296,         1.25,   1.29903805,  0.300000012
    297,         1.25,   1.29903805,  0.200000003
    298,         1.25,   1.29903805,  0.100000001
    299,   1.20000005,   1.38564062,          0.5
    300,   1.14999998,   1.47224319,          0.5
    301,   1.10000002,   1.55884576,          0.5
    302,   1.04999995,   1.64544821,          0.5
    303,   1.14999998,   1.47224319,  0.600000024
    304,   1.14999998,   1.47224319,  0.699999988
    305,   1.14999998,   1.47224319,  0.800000012
    306,   1.14999998,   1.47224319,  0.899999976
    307,   1.20000005,   1.38564062,  0.699999988
    308,   1.20000005,   1.38564062,  0.600000024
    309,   1.20000005,   1.38564062,  0.800000012
    310,   1.20000005,   1.38564062,  0.899999976
    311,   1.04999995,   1.64544821,  0.699999988
    312,   1.10000002,   1.55884576,  0.699999988
    313,   1.04999995,   1.64544821,  0.600000024
    314,   1.10000002,   1.55884576,  0.600000024
    315,   1.04999995,   1.64544821,  0.899999976
    316,   1.04999995,   1.64544821,  0.800000012
    317,   1.10000002,   1.55884576,  0.899999976
    318,   1.10000002,   1.55884576,  0.800000012
    319,   1.14999998,   1.47224319,  0.100000001
    320,   1.14999998,   1.47224319,  0.200000003
    321,   1.14999998,   1.47224319,  0.300000012
    322,   1.14999998,   1.47224319,  0.400000006
    323,   1.20000005,   1.38564062,  0.200000003
    324,   1.20000005,   1.38564062,  0.100000001
    325,   1.20000005,   1.38564062,  0.300000012
    326,   1.20000005,   1.38564062,  0.400000006
    327,   1.04999995,   1.64544821,  0.200000003
    328,   1.10000002,   1.55884576,  0.200000003
    329,   1.04999995,   1.64544821,  0.100000001
    330,   1.10000002,   1.55884576,  0.100000001
    331,   1.04999995,   1.64544821,  0.400000006
    332,   1.04999995,   1.64544821,  0.300000012
    333,   1.10000002,   1.55884576,  0.400000006
    334,   1.10000002,   1.55884576,  0.300000012
    335,   1.45000005,  0.952627957,          0.5
    336,   1.39999998,   1.03923047,          0.5
    337,   1.35000002,   1.12583303,          0.5
    338,   1.29999995,    1.2124356,          0.5
    339,   1.39999998,   1.03923047,  0.600000024
    340,   1.39999998,   1.03923047,  0.699999988
    341,   1.39999998,   1.03923047,  0.800000012
    342,   1.39999998,   1.03923047,  0.899999976
    343,   1.45000005,  0.952627957,  0.699999988
    344,   1.45000005,  0.952627957,  0.600000024
    345,   1.45000005,  0.952627957,  0.800000012
    346,   1.45000005,  0.952627957,  0.899999976
    347,   1.29999995,    1.2124356,  0.699999988
    348,   1.35000002,   1.12583303,  0.699999988
    349,   1.29999995,    1.2124356,  0.600000024
    350,   1.35000002,   1.12583303,  0.600000024
    351,   1.29999995,    1.2124356,  0.899999976
    352,   1.29999995,    1.2124356,  0.800000012
    353,   1.35000002,   1.12583303,  0.899999976
    354,   1.35000002,   1.12583303,  0.800000012
    355,   1.39999998,   1.03923047,  0.100000001
    356,   1.39999998,   1.03923047,  0.200000003
    357,   1.39999998,   1.03923047,  0.300000012
    358,   1.39999998,   1.03923047,  0.400000006
    359,   1.45000005,  0.952627957,  0.200000003
    360,   1.45000005,  0.952627957,  0.100000001
    361,   1.45000005,  0.952627957,  0.300000012
    362,   1.45000005,  0.952627957,  0.400000006
    363,   1.29999995,    1.2124356,  0.200000003
    364,   1.35000002,   1.12583303,  0.200000003
    365,   1.29999995,    1.2124356,  0.100000001
    366,   1.35000002,   1.12583303,  0.100000001
    367,   1.29999995,    1.2124356,  0.400000006
    368,   1.29999995,    1.2124356,  0.300000012
    369,   1.35000002,   1.12583303,  0.400000006
    370,   1.35000002,   1.12583303,  0.300000012
    371,         1.75,  0.433012694,  0.899999976
    372,         1.75,  0.433012694,  0.800000012
    373,         1.75,  0.433012694,  0.699999988
    374,         1.75,  0.433012694,  0.600000024
    375,         1.75,  0.433012694,          0.5
    376,         1.75,  0.433012694,  0.400000006
    377,         1.75,  0.433012694,  0.300000012
    378,         1.75,  0.433012694,  0.200000003
    379,         1.75,  0.433012694,  0.100000001
    380,   1.70000005,  0.519615233,          0.5
    381,   1.64999998,  0.606217802,          0.5
    382,   1.60000002,  0.692820311,          0.5
    383,   1.54999995,  0.779422879,          0.5
    384,   1.64999998,  0.606217802,  0.600000024
    385,   1.64999998,  0.606217802,  0.699999988
    386,   1.64999998,  0.606217802,  0.800000012
    387,   1.64999998,  0.606217802,  0.899999976
    388,   1.70000005,  0.519615233,  0.699999988
    389,   1.70000005,  0.519615233,  0.600000024
    390,   1.70000005,  0.519615233,  0.800000012
    391,   1.70000005,  0.519615233,  0.899999976
    392,   1.54999995,  0.779422879,  0.699999988
    393,   1.60000002,  0.692820311,  0.699999988
    394,   1.54999995,  0.779422879,  0.600000024
    395,   1.60000002,  0.692820311,  0.600000024
    396,   1.54999995,  0.779422879,  0.899999976
    397,   1.54999995,  0.779422879,  0.800000012
    398,   1.60000002,  0.692820311,  0.899999976
    399,   1.60000002,  0.692820311,  0.800000012
    400,   1.64999998,  0.606217802,  0.100000001
    401,   1.64999998,  0.606217802,  0.200000003
    402,   1.64999998,  0.606217802,  0.300000012
    403,   1.64999998,  0.606217802,  0.400000006
    404,   1.70000005,  0.519615233,  0.200000003
    405,   1.70000005,  0.519615233,  0.100000001
    406,   1.70000005,  0.519615233,  0.300000012
    407,   1.70000005,  0.519615233,  0.400000006
    408,   1.54999995,  0.779422879,  0.200000003
    409,   1.60000002,  0.692820311,  0.200000003
    410,   1.54999995,  0.779422879,  0.100000001
    411,   1.60000002,  0.692820311,  0.100000001
    412,   1.54999995,  0.779422879,  0.400000006
    413,   1.54999995,  0.779422879,  0.300000012
    414,   1.60000002,  0.692820311,  0.400000006
    415,   1.60000002,  0.692820311,  0.300000012
    416,   1.95000005, 0.0866025388,          0.5
    417,   1.89999998,  0.173205078,          0.5
    418,   1.85000002,  0.259807616,          0.5
    419,   1.79999995,  0.346410155,          0.5
    420,   1.89999998,  0.173205078,  0.600000024
    421,   1.89999998,  0.173205078,  0.699999988
    422,   1.89999998,  0.173205078,  0.800000012
    423,   1.89999998,  0.173205078,  0.899999976
    424,   1.95000005, 0.0866025388,  0.699999988
    425,   1.95000005, 0.0866025388,  0.600000024
    426,   1.95000005, 0.0866025388,  0.800000012
    427,   1.95000005, 0.0866025388,  0.899999976
    428,   1.79999995,  0.346410155,  0.699999988
    429,   1.85000002,  0.259807616,  0.699999988
    430,   1.79999995,  0.346410155,  0.600000024
    431,   1.85000002,  0.259807616,  0.600000024
    432,   1.79999995,  0.346410155,  0.899999976
    433,   1.79999995,  0.346410155,  0.800000012
    434,   1.85000002,  0.259807616,  0.899999976
    435,   1.85000002,  0.259807616,  0.800000012
    436,   1.89999998,  0.173205078,  0.100000001
    437,   1.89999998,  0.173205078,  0.200000003
    438,   1.89999998,  0.173205078,  0.300000012
    439,   1.89999998,  0.173205078,  0.400000006
    440,   1.95000005, 0.0866025388,  0.200000003
    441,   1.95000005, 0.0866025388,  0.100000001
    442,   1.95000005, 0.0866025388,  0.300000012
    443,   1.95000005, 0.0866025388,  0.400000006
    444,   1.79999995,  0.346410155,  0.200000003
    445,   1.85000002,  0.259807616,  0.200000003
    446,   1.79999995,  0.346410155,  0.100000001
    447,   1.85000002,  0.259807616,  0.100000001
    448,   1.79999995,  0.346410155,  0.400000006
    449,   1.79999995,  0.346410155,  0.300000012
    450,   1.85000002,  0.259807616,  0.400000006
    451,   1.85000002,  0.259807616,  0.300000012
    452,  -1.04999995,   1.64544821,           0.
    453,  -1.10000002,   1.55884576,           0.
    454,  -1.14999998,   1.47224319,           0.
    455,  -1.20000005,   1.38564062,           0.
    456,        -1.25,   1.29903805,           0.
    457,  -1.29999995,    1.2124356,           0.
    458,  -1.35000002,   1.12583303,           0.
    459,  -1.39999998,   1.03923047,           0.
    460,  -1.45000005,  0.952627957,           0.
    461,         -1.5,  0.866025388,           0.
    462,  -1.54999995,  0.779422879,           0.
    463,  -1.60000002,  0.692820311,           0.
    464,  -1.64999998,  0.606217802,           0.
    465,  -1.70000005,  0.519615233,           0.
    466,        -1.75,  0.433012694,           0.
    467,  -1.79999995,  0.346410155,           0.
    468,  -1.85000002,  0.259807616,           0.
    469,  -1.89999998,  0.173205078,           0.
    470,  -1.95000005, 0.0866025388,           0.
    471,          -2.,           0.,           0.
    472,          -2.,           0.,  0.100000001
    473,          -2.,           0.,  0.200000003
    474,          -2.,           0.,  0.300000012
    475,          -2.,           0.,  0.400000006
    476,          -2.,           0.,          0.5
    477,          -2.,           0.,  0.600000024
    478,          -2.,           0.,  0.699999988
    479,          -2.,           0.,  0.800000012
    480,          -2.,           0.,  0.899999976
    481,          -2.,           0.,           1.
    482,  -1.95000005, 0.0866025388,           1.
    483,  -1.89999998,  0.173205078,           1.
    484,  -1.85000002,  0.259807616,           1.
    485,  -1.79999995,  0.346410155,           1.
    486,        -1.75,  0.433012694,           1.
    487,  -1.70000005,  0.519615233,           1.
    488,  -1.64999998,  0.606217802,           1.
    489,  -1.60000002,  0.692820311,           1.
    490,  -1.54999995,  0.779422879,           1.
    491,         -1.5,  0.866025388,           1.
    492,  -1.45000005,  0.952627957,           1.
    493,  -1.39999998,   1.03923047,           1.
    494,  -1.35000002,   1.12583303,           1.
    495,  -1.29999995,    1.2124356,           1.
    496,        -1.25,   1.29903805,           1.
    497,  -1.20000005,   1.38564062,           1.
    498,  -1.14999998,   1.47224319,           1.
    499,  -1.10000002,   1.55884576,           1.
    500,  -1.04999995,   1.64544821,           1.
    501,         -1.5,  0.866025388,  0.100000001
    502,         -1.5,  0.866025388,  0.200000003
    503,         -1.5,  0.866025388,  0.300000012
    504,         -1.5,  0.866025388,  0.400000006
    505,         -1.5,  0.866025388,          0.5
    506,         -1.5,  0.866025388,  0.600000024
    507,         -1.5,  0.866025388,  0.699999988
    508,         -1.5,  0.866025388,  0.800000012
    509,         -1.5,  0.866025388,  0.899999976
    510,        -1.25,   1.29903805,  0.100000001
    511,        -1.25,   1.29903805,  0.200000003
    512,        -1.25,   1.29903805,  0.300000012
    513,        -1.25,   1.29903805,  0.400000006
    514,        -1.25,   1.29903805,          0.5
    515,        -1.25,   1.29903805,  0.600000024
    516,        -1.25,   1.29903805,  0.699999988
    517,        -1.25,   1.29903805,  0.800000012
    518,        -1.25,   1.29903805,  0.899999976
    519,  -1.20000005,   1.38564062,          0.5
    520,  -1.14999998,   1.47224319,          0.5
    521,  -1.10000002,   1.55884576,          0.5
    522,  -1.04999995,   1.64544821,          0.5
    523,  -1.14999998,   1.47224319,  0.400000006
    524,  -1.14999998,   1.47224319,  0.300000012
    525,  -1.14999998,   1.47224319,  0.200000003
    526,  -1.14999998,   1.47224319,  0.100000001
    527,  -1.20000005,   1.38564062,  0.300000012
    528,  -1.20000005,   1.38564062,  0.400000006
    529,  -1.20000005,   1.38564062,  0.200000003
    530,  -1.20000005,   1.38564062,  0.100000001
    531,  -1.04999995,   1.64544821,  0.300000012
    532,  -1.10000002,   1.55884576,  0.300000012
    533,  -1.04999995,   1.64544821,  0.400000006
    534,  -1.10000002,   1.55884576,  0.400000006
    535,  -1.04999995,   1.64544821,  0.100000001
    536,  -1.04999995,   1.64544821,  0.200000003
    537,  -1.10000002,   1.55884576,  0.100000001
    538,  -1.10000002,   1.55884576,  0.200000003
    539,  -1.14999998,   1.47224319,  0.899999976
    540,  -1.14999998,   1.47224319,  0.800000012
    541,  -1.14999998,   1.47224319,  0.699999988
    542,  -1.14999998,   1.47224319,  0.600000024
    543,  -1.20000005,   1.38564062,  0.800000012
    544,  -1.20000005,   1.38564062,  0.899999976
    545,  -1.20000005,   1.38564062,  0.699999988
    546,  -1.20000005,   1.38564062,  0.600000024
    547,  -1.04999995,   1.64544821,  0.800000012
    548,  -1.10000002,   1.55884576,  0.800000012
    549,  -1.04999995,   1.64544821,  0.899999976
    550,  -1.10000002,   1.55884576,  0.899999976
    551,  -1.04999995,   1.64544821,  0.600000024
    552,  -1.04999995,   1.64544821,  0.699999988
    553,  -1.10000002,   1.55884576,  0.600000024
    554,  -1.10000002,   1.55884576,  0.699999988
    555,  -1.45000005,  0.952627957,          0.5
    556,  -1.39999998,   1.03923047,          0.5
    557,  -1.35000002,   1.12583303,          0.5
    558,  -1.29999995,    1.2124356,          0.5
    559,  -1.39999998,   1.03923047,  0.400000006
    560,  -1.39999998,   1.03923047,  0.300000012
    561,  -1.39999998,   1.03923047,  0.200000003
    562,  -1.39999998,   1.03923047,  0.100000001
    563,  -1.45000005,  0.952627957,  0.300000012
    564,  -1.45000005,  0.952627957,  0.400000006
    565,  -1.45000005,  0.952627957,  0.200000003
    566,  -1.45000005,  0.952627957,  0.100000001
    567,  -1.29999995,    1.2124356,  0.300000012
    568,  -1.35000002,   1.12583303,  0.300000012
    569,  -1.29999995,    1.2124356,  0.400000006
    570,  -1.35000002,   1.12583303,  0.400000006
    571,  -1.29999995,    1.2124356,  0.100000001
    572,  -1.29999995,    1.2124356,  0.200000003
    573,  -1.35000002,   1.12583303,  0.100000001
    574,  -1.35000002,   1.12583303,  0.200000003
    575,  -1.39999998,   1.03923047,  0.899999976
    576,  -1.39999998,   1.03923047,  0.800000012
    577,  -1.39999998,   1.03923047,  0.699999988
    578,  -1.39999998,   1.03923047,  0.600000024
    579,  -1.45000005,  0.952627957,  0.800000012
    580,  -1.45000005,  0.952627957,  0.899999976
    581,  -1.45000005,  0.952627957,  0.699999988
    582,  -1.45000005,  0.952627957,  0.600000024
    583,  -1.29999995,    1.2124356,  0.800000012
    584,  -1.35000002,   1.12583303,  0.800000012
    585,  -1.29999995,    1.2124356,  0.899999976
    586,  -1.35000002,   1.12583303,  0.899999976
    587,  -1.29999995,    1.2124356,  0.600000024
    588,  -1.29999995,    1.2124356,  0.699999988
    589,  -1.35000002,   1.12583303,  0.600000024
    590,  -1.35000002,   1.12583303,  0.699999988
    591,        -1.75,  0.433012694,  0.100000001
    592,        -1.75,  0.433012694,  0.200000003
    593,        -1.75,  0.433012694,  0.300000012
    594,        -1.75,  0.433012694,  0.400000006
    595,        -1.75,  0.433012694,          0.5
    596,        -1.75,  0.433012694,  0.600000024
    597,        -1.75,  0.433012694,  0.699999988
    598,        -1.75,  0.433012694,  0.800000012
    599,        -1.75,  0.433012694,  0.899999976
    600,  -1.70000005,  0.519615233,          0.5
    601,  -1.64999998,  0.606217802,          0.5
    602,  -1.60000002,  0.692820311,          0.5
    603,  -1.54999995,  0.779422879,          0.5
    604,  -1.64999998,  0.606217802,  0.400000006
    605,  -1.64999998,  0.606217802,  0.300000012
    606,  -1.64999998,  0.606217802,  0.200000003
    607,  -1.64999998,  0.606217802,  0.100000001
    608,  -1.70000005,  0.519615233,  0.300000012
    609,  -1.70000005,  0.519615233,  0.400000006
    610,  -1.70000005,  0.519615233,  0.200000003
    611,  -1.70000005,  0.519615233,  0.100000001
    612,  -1.54999995,  0.779422879,  0.300000012
    613,  -1.60000002,  0.692820311,  0.300000012
    614,  -1.54999995,  0.779422879,  0.400000006
    615,  -1.60000002,  0.692820311,  0.400000006
    616,  -1.54999995,  0.779422879,  0.100000001
    617,  -1.54999995,  0.779422879,  0.200000003
    618,  -1.60000002,  0.692820311,  0.100000001
    619,  -1.60000002,  0.692820311,  0.200000003
    620,  -1.64999998,  0.606217802,  0.899999976
    621,  -1.64999998,  0.606217802,  0.800000012
    622,  -1.64999998,  0.606217802,  0.699999988
    623,  -1.64999998,  0.606217802,  0.600000024
    624,  -1.70000005,  0.519615233,  0.800000012
    625,  -1.70000005,  0.519615233,  0.899999976
    626,  -1.70000005,  0.519615233,  0.699999988
    627,  -1.70000005,  0.519615233,  0.600000024
    628,  -1.54999995,  0.779422879,  0.800000012
    629,  -1.60000002,  0.692820311,  0.800000012
    630,  -1.54999995,  0.779422879,  0.899999976
    631,  -1.60000002,  0.692820311,  0.899999976
    632,  -1.54999995,  0.779422879,  0.600000024
    633,  -1.54999995,  0.779422879,  0.699999988
    634,  -1.60000002,  0.692820311,  0.600000024
    635,  -1.60000002,  0.692820311,  0.699999988
    636,  -1.95000005, 0.0866025388,          0.5
    637,  -1.89999998,  0.173205078,          0.5
    638,  -1.85000002,  0.259807616,          0.5
    639,  -1.79999995,  0.346410155,          0.5
    640,  -1.89999998,  0.173205078,  0.400000006
    641,  -1.89999998,  0.173205078,  0.300000012
    642,  -1.89999998,  0.173205078,  0.200000003
    643,  -1.89999998,  0.173205078,  0.100000001
    644,  -1.95000005, 0.0866025388,  0.300000012
    645,  -1.95000005, 0.0866025388,  0.400000006
    646,  -1.95000005, 0.0866025388,  0.200000003
    647,  -1.95000005, 0.0866025388,  0.100000001
    648,  -1.79999995,  0.346410155,  0.300000012
    649,  -1.85000002,  0.259807616,  0.300000012
    650,  -1.79999995,  0.346410155,  0.400000006
    651,  -1.85000002,  0.259807616,  0.400000006
    652,  -1.79999995,  0.346410155,  0.100000001
    653,  -1.79999995,  0.346410155,  0.200000003
    654,  -1.85000002,  0.259807616,  0.100000001
    655,  -1.85000002,  0.259807616,  0.200000003
    656,  -1.89999998,  0.173205078,  0.899999976
    657,  -1.89999998,  0.173205078,  0.800000012
    658,  -1.89999998,  0.173205078,  0.699999988
    659,  -1.89999998,  0.173205078,  0.600000024
    660,  -1.95000005, 0.0866025388,  0.800000012
    661,  -1.95000005, 0.0866025388,  0.899999976
    662,  -1.95000005, 0.0866025388,  0.699999988
    663,  -1.95000005, 0.0866025388,  0.600000024
    664,  -1.79999995,  0.346410155,  0.800000012
    665,  -1.85000002,  0.259807616,  0.800000012
    666,  -1.79999995,  0.346410155,  0.899999976
    667,  -1.85000002,  0.259807616,  0.899999976
    668,  -1.79999995,  0.346410155,  0.600000024
    669,  -1.79999995,  0.346410155,  0.699999988
    670,  -1.85000002,  0.259807616,  0.600000024
    671,  -1.85000002,  0.259807616,  0.699999988
    672,          -1.,  -1.73205078,           0.
    673,          -1.,  -1.73205078,  0.100000001
    674,          -1.,  -1.73205078,  0.200000003
    675,          -1.,  -1.73205078,  0.300000012
    676,          -1.,  -1.73205078,  0.400000006
    677,          -1.,  -1.73205078,          0.5
    678,          -1.,  -1.73205078,  0.600000024
    679,          -1.,  -1.73205078,  0.699999988
    680,          -1.,  -1.73205078,  0.800000012
    681,          -1.,  -1.73205078,  0.899999976
    682,          -1.,  -1.73205078,           1.
    683,  -1.04999995,  -1.64544821,           1.
    684,  -1.10000002,  -1.55884576,           1.
    685,  -1.14999998,  -1.47224319,           1.
    686,  -1.20000005,  -1.38564062,           1.
    687,        -1.25,  -1.29903805,           1.
    688,  -1.29999995,   -1.2124356,           1.
    689,  -1.35000002,  -1.12583303,           1.
    690,  -1.39999998,  -1.03923047,           1.
    691,  -1.45000005, -0.952627957,           1.
    692,         -1.5, -0.866025388,           1.
    693,  -1.54999995, -0.779422879,           1.
    694,  -1.60000002, -0.692820311,           1.
    695,  -1.64999998, -0.606217802,           1.
    696,  -1.70000005, -0.519615233,           1.
    697,        -1.75, -0.433012694,           1.
    698,  -1.79999995, -0.346410155,           1.
    699,  -1.85000002, -0.259807616,           1.
    700,  -1.89999998, -0.173205078,           1.
    701,  -1.95000005, -0.0866025388,           1.
    702,  -1.95000005, -0.0866025388,           0.
    703,  -1.89999998, -0.173205078,           0.
    704,  -1.85000002, -0.259807616,           0.
    705,  -1.79999995, -0.346410155,           0.
    706,        -1.75, -0.433012694,           0.
    707,  -1.70000005, -0.519615233,           0.
    708,  -1.64999998, -0.606217802,           0.
    709,  -1.60000002, -0.692820311,           0.
    710,  -1.54999995, -0.779422879,           0.
    711,         -1.5, -0.866025388,           0.
    712,  -1.45000005, -0.952627957,           0.
    713,  -1.39999998,  -1.03923047,           0.
    714,  -1.35000002,  -1.12583303,           0.
    715,  -1.29999995,   -1.2124356,           0.
    716,        -1.25,  -1.29903805,           0.
    717,  -1.20000005,  -1.38564062,           0.
    718,  -1.14999998,  -1.47224319,           0.
    719,  -1.10000002,  -1.55884576,           0.
    720,  -1.04999995,  -1.64544821,           0.
    721,         -1.5, -0.866025388,  0.899999976
    722,         -1.5, -0.866025388,  0.800000012
    723,         -1.5, -0.866025388,  0.699999988
    724,         -1.5, -0.866025388,  0.600000024
    725,         -1.5, -0.866025388,          0.5
    726,         -1.5, -0.866025388,  0.400000006
    727,         -1.5, -0.866025388,  0.300000012
    728,         -1.5, -0.866025388,  0.200000003
    729,         -1.5, -0.866025388,  0.100000001
    730,        -1.25,  -1.29903805,  0.899999976
    731,        -1.25,  -1.29903805,  0.800000012
    732,        -1.25,  -1.29903805,  0.699999988
    733,        -1.25,  -1.29903805,  0.600000024
    734,        -1.25,  -1.29903805,          0.5
    735,        -1.25,  -1.29903805,  0.400000006
    736,        -1.25,  -1.29903805,  0.300000012
    737,        -1.25,  -1.29903805,  0.200000003
    738,        -1.25,  -1.29903805,  0.100000001
    739,  -1.20000005,  -1.38564062,          0.5
    740,  -1.14999998,  -1.47224319,          0.5
    741,  -1.10000002,  -1.55884576,          0.5
    742,  -1.04999995,  -1.64544821,          0.5
    743,  -1.14999998,  -1.47224319,  0.600000024
    744,  -1.14999998,  -1.47224319,  0.699999988
    745,  -1.14999998,  -1.47224319,  0.800000012
    746,  -1.14999998,  -1.47224319,  0.899999976
    747,  -1.20000005,  -1.38564062,  0.699999988
    748,  -1.20000005,  -1.38564062,  0.600000024
    749,  -1.20000005,  -1.38564062,  0.800000012
    750,  -1.20000005,  -1.38564062,  0.899999976
    751,  -1.04999995,  -1.64544821,  0.699999988
    752,  -1.10000002,  -1.55884576,  0.699999988
    753,  -1.04999995,  -1.64544821,  0.600000024
    754,  -1.10000002,  -1.55884576,  0.600000024
    755,  -1.04999995,  -1.64544821,  0.899999976
    756,  -1.04999995,  -1.64544821,  0.800000012
    757,  -1.10000002,  -1.55884576,  0.899999976
    758,  -1.10000002,  -1.55884576,  0.800000012
    759,  -1.14999998,  -1.47224319,  0.100000001
    760,  -1.14999998,  -1.47224319,  0.200000003
    761,  -1.14999998,  -1.47224319,  0.300000012
    762,  -1.14999998,  -1.47224319,  0.400000006
    763,  -1.20000005,  -1.38564062,  0.200000003
    764,  -1.20000005,  -1.38564062,  0.100000001
    765,  -1.20000005,  -1.38564062,  0.300000012
    766,  -1.20000005,  -1.38564062,  0.400000006
    767,  -1.04999995,  -1.64544821,  0.200000003
    768,  -1.10000002,  -1.55884576,  0.200000003
    769,  -1.04999995,  -1.64544821,  0.100000001
    770,  -1.10000002,  -1.55884576,  0.100000001
    771,  -1.04999995,  -1.64544821,  0.400000006
    772,  -1.04999995,  -1.64544821,  0.300000012
    773,  -1.10000002,  -1.55884576,  0.400000006
    774,  -1.10000002,  -1.55884576,  0.300000012
    775,  -1.45000005, -0.952627957,          0.5
    776,  -1.39999998,  -1.03923047,          0.5
    777,  -1.35000002,  -1.12583303,          0.5
    778,  -1.29999995,   -1.2124356,          0.5
    779,  -1.39999998,  -1.03923047,  0.600000024
    780,  -1.39999998,  -1.03923047,  0.699999988
    781,  -1.39999998,  -1.03923047,  0.800000012
    782,  -1.39999998,  -1.03923047,  0.899999976
    783,  -1.45000005, -0.952627957,  0.699999988
    784,  -1.45000005, -0.952627957,  0.600000024
    785,  -1.45000005, -0.952627957,  0.800000012
    786,  -1.45000005, -0.952627957,  0.899999976
    787,  -1.29999995,   -1.2124356,  0.699999988
    788,  -1.35000002,  -1.12583303,  0.699999988
    789,  -1.29999995,   -1.2124356,  0.600000024
    790,  -1.35000002,  -1.12583303,  0.600000024
    791,  -1.29999995,   -1.2124356,  0.899999976
    792,  -1.29999995,   -1.2124356,  0.800000012
    793,  -1.35000002,  -1.12583303,  0.899999976
    794,  -1.35000002,  -1.12583303,  0.800000012
    795,  -1.39999998,  -1.03923047,  0.100000001
    796,  -1.39999998,  -1.03923047,  0.200000003
    797,  -1.39999998,  -1.03923047,  0.300000012
    798,  -1.39999998,  -1.03923047,  0.400000006
    799,  -1.45000005, -0.952627957,  0.200000003
    800,  -1.45000005, -0.952627957,  0.100000001
    801,  -1.45000005, -0.952627957,  0.300000012
    802,  -1.45000005, -0.952627957,  0.400000006
    803,  -1.29999995,   -1.2124356,  0.200000003
    804,  -1.35000002,  -1.12583303,  0.200000003
    805,  -1.29999995,   -1.2124356,  0.100000001
    806,  -1.35000002,  -1.12583303,  0.100000001
    807,  -1.29999995,   -1.2124356,  0.400000006
    808,  -1.29999995,   -1.2124356,  0.300000012
    809,  -1.35000002,  -1.12583303,  0.400000006
    810,  -1.35000002,  -1.12583303,  0.300000012
    811,        -1.75, -0.433012694,  0.899999976
    812,        -1.75, -0.433012694,  0.800000012
    813,        -1.75, -0.433012694,  0.699999988
    814,        -1.75, -0.433012694,  0.600000024
    815,        -1.75, -0.433012694,          0.5
    816,        -1.75, -0.433012694,  0.400000006
    817,        -1.75, -0.433012694,  0.300000012
    818,        -1.75, -0.433012694,  0.200000003
    819,        -1.75, -0.433012694,  0.100000001
    820,  -1.70000005, -0.519615233,          0.5
    821,  -1.64999998, -0.606217802,          0.5
    822,  -1.60000002, -0.692820311,          0.5
    823,  -1.54999995, -0.779422879,          0.5
    824,  -1.64999998, -0.606217802,  0.600000024
    825,  -1.64999998, -0.606217802,  0.699999988
    826,  -1.64999998, -0.606217802,  0.800000012
    827,  -1.64999998, -0.606217802,  0.899999976
    828,  -1.70000005, -0.519615233,  0.699999988
    829,  -1.70000005, -0.519615233,  0.600000024
    830,  -1.70000005, -0.519615233,  0.800000012
    831,  -1.70000005, -0.519615233,  0.899999976
    832,  -1.54999995, -0.779422879,  0.699999988
    833,  -1.60000002, -0.692820311,  0.699999988
    834,  -1.54999995, -0.779422879,  0.600000024
    835,  -1.60000002, -0.692820311,  0.600000024
    836,  -1.54999995, -0.779422879,  0.899999976
    837,  -1.54999995, -0.779422879,  0.800000012
    838,  -1.60000002, -0.692820311,  0.899999976
    839,  -1.60000002, -0.692820311,  0.800000012
    840,  -1.64999998, -0.606217802,  0.100000001
    841,  -1.64999998, -0.606217802,  0.200000003
    842,  -1.64999998, -0.606217802,  0.300000012
    843,  -1.64999998, -0.606217802,  0.400000006
    844,  -1.70000005, -0.519615233,  0.200000003
    845,  -1.70000005, -0.519615233,  0.100000001
    846,  -1.70000005, -0.519615233,  0.300000012
    847,  -1.70000005, -0.519615233,  0.400000006
    848,  -1.54999995, -0.779422879,  0.200000003
    849,  -1.60000002, -0.692820311,  0.200000003
    850,  -1.54999995, -0.779422879,  0.100000001
    851,  -1.60000002, -0.692820311,  0.100000001
    852,  -1.54999995, -0.779422879,  0.400000006
    853,  -1.54999995, -0.779422879,  0.300000012
    854,  -1.60000002, -0.692820311,  0.400000006
    855,  -1.60000002, -0.692820311,  0.300000012
    856,  -1.95000005, -0.0866025388,          0.5
    857,  -1.89999998, -0.173205078,          0.5
    858,  -1.85000002, -0.259807616,          0.5
    859,  -1.79999995, -0.346410155,          0.5
    860,  -1.89999998, -0.173205078,  0.600000024
    861,  -1.89999998, -0.173205078,  0.699999988
    862,  -1.89999998, -0.173205078,  0.800000012
    863,  -1.89999998, -0.173205078,  0.899999976
    864,  -1.95000005, -0.0866025388,  0.699999988
    865,  -1.95000005, -0.0866025388,  0.600000024
    866,  -1.95000005, -0.0866025388,  0.800000012
    867,  -1.95000005, -0.0866025388,  0.899999976
    868,  -1.79999995, -0.346410155,  0.699999988
    869,  -1.85000002, -0.259807616,  0.699999988
    870,  -1.79999995, -0.346410155,  0.600000024
    871,  -1.85000002, -0.259807616,  0.600000024
    872,  -1.79999995, -0.346410155,  0.899999976
    873,  -1.79999995, -0.346410155,  0.800000012
    874,  -1.85000002, -0.259807616,  0.899999976
    875,  -1.85000002, -0.259807616,  0.800000012
    876,  -1.89999998, -0.173205078,  0.100000001
    877,  -1.89999998, -0.173205078,  0.200000003
    878,  -1.89999998, -0.173205078,  0.300000012
    879,  -1.89999998, -0.173205078,  0.400000006
    880,  -1.95000005, -0.0866025388,  0.200000003
    881,  -1.95000005, -0.0866025388,  0.100000001
    882,  -1.95000005, -0.0866025388,  0.300000012
    883,  -1.95000005, -0.0866025388,  0.400000006
    884,  -1.79999995, -0.346410155,  0.200000003
    885,  -1.85000002, -0.259807616,  0.200000003
    886,  -1.79999995, -0.346410155,  0.100000001
    887,  -1.85000002, -0.259807616,  0.100000001
    888,  -1.79999995, -0.346410155,  0.400000006
    889,  -1.79999995, -0.346410155,  0.300000012
    890,  -1.85000002, -0.259807616,  0.400000006
    891,  -1.85000002, -0.259807616,  0.300000012
    892,  -3.02886748,           0.,           1.
    893,  -3.02886748,           0.,  0.899999976
    894,  -3.02886748,           0.,  0.800000012
    895,  -3.02886748,           0.,  0.699999988
    896,  -3.02886748,           0.,  0.600000024
    897,  -3.02886748,           0.,          0.5
    898,  -3.02886748,           0.,  0.400000006
    899,  -3.02886748,           0.,  0.300000012
    900,  -3.02886748,           0.,  0.200000003
    901,  -3.02886748,           0.,  0.100000001
    902,  -3.02886748,           0.,           0.
    903,  -2.92598081,           0.,           0.
    904,  -2.82309413,           0.,           0.
    905,  -2.72020721,           0.,           0.
    906,  -2.61732054,           0.,           0.
    907,  -2.51443386,           0.,           0.
    908,  -2.41154695,           0.,           0.
    909,  -2.30866027,           0.,           0.
    910,  -2.20577359,           0.,           0.
    911,  -2.10288668,           0.,           0.
    912,  -2.10288668,           0.,           1.
    913,  -2.20577359,           0.,           1.
    914,  -2.30866027,           0.,           1.
    915,  -2.41154695,           0.,           1.
    916,  -2.51443386,           0.,           1.
    917,  -2.61732054,           0.,           1.
    918,  -2.72020721,           0.,           1.
    919,  -2.82309413,           0.,           1.
    920,  -2.92598081,           0.,           1.
    921,  -2.51443386,           0.,  0.100000001
    922,  -2.51443386,           0.,  0.200000003
    923,  -2.51443386,           0.,  0.300000012
    924,  -2.51443386,           0.,  0.400000006
    925,  -2.51443386,           0.,          0.5
    926,  -2.51443386,           0.,  0.600000024
    927,  -2.51443386,           0.,  0.699999988
    928,  -2.51443386,           0.,  0.800000012
    929,  -2.51443386,           0.,  0.899999976
    930,  -2.61732054,           0.,          0.5
    931,  -2.72020721,           0.,          0.5
    932,  -2.82309413,           0.,          0.5
    933,  -2.92598081,           0.,          0.5
    934,  -2.72020721,           0.,  0.400000006
    935,  -2.72020721,           0.,  0.300000012
    936,  -2.72020721,           0.,  0.200000003
    937,  -2.72020721,           0.,  0.100000001
    938,  -2.61732054,           0.,  0.300000012
    939,  -2.61732054,           0.,  0.400000006
    940,  -2.61732054,           0.,  0.200000003
    941,  -2.61732054,           0.,  0.100000001
    942,  -2.92598081,           0.,  0.300000012
    943,  -2.82309413,           0.,  0.300000012
    944,  -2.92598081,           0.,  0.400000006
    945,  -2.82309413,           0.,  0.400000006
    946,  -2.92598081,           0.,  0.100000001
    947,  -2.92598081,           0.,  0.200000003
    948,  -2.82309413,           0.,  0.100000001
    949,  -2.82309413,           0.,  0.200000003
    950,  -2.72020721,           0.,  0.899999976
    951,  -2.72020721,           0.,  0.800000012
    952,  -2.72020721,           0.,  0.699999988
    953,  -2.72020721,           0.,  0.600000024
    954,  -2.61732054,           0.,  0.800000012
    955,  -2.61732054,           0.,  0.899999976
    956,  -2.61732054,           0.,  0.699999988
    957,  -2.61732054,           0.,  0.600000024
    958,  -2.92598081,           0.,  0.800000012
    959,  -2.82309413,           0.,  0.800000012
    960,  -2.92598081,           0.,  0.899999976
    961,  -2.82309413,           0.,  0.899999976
    962,  -2.92598081,           0.,  0.600000024
    963,  -2.92598081,           0.,  0.699999988
    964,  -2.82309413,           0.,  0.600000024
    965,  -2.82309413,           0.,  0.699999988
    966,  -2.10288668,           0.,          0.5
    967,  -2.20577359,           0.,          0.5
    968,  -2.30866027,           0.,          0.5
    969,  -2.41154695,           0.,          0.5
    970,  -2.20577359,           0.,  0.400000006
    971,  -2.20577359,           0.,  0.300000012
    972,  -2.20577359,           0.,  0.200000003
    973,  -2.20577359,           0.,  0.100000001
    974,  -2.10288668,           0.,  0.300000012
    975,  -2.10288668,           0.,  0.400000006
    976,  -2.10288668,           0.,  0.200000003
    977,  -2.10288668,           0.,  0.100000001
    978,  -2.41154695,           0.,  0.300000012
    979,  -2.30866027,           0.,  0.300000012
    980,  -2.41154695,           0.,  0.400000006
    981,  -2.30866027,           0.,  0.400000006
    982,  -2.41154695,           0.,  0.100000001
    983,  -2.41154695,           0.,  0.200000003
    984,  -2.30866027,           0.,  0.100000001
    985,  -2.30866027,           0.,  0.200000003
    986,  -2.20577359,           0.,  0.899999976
    987,  -2.20577359,           0.,  0.800000012
    988,  -2.20577359,           0.,  0.699999988
    989,  -2.20577359,           0.,  0.600000024
    990,  -2.10288668,           0.,  0.800000012
    991,  -2.10288668,           0.,  0.899999976
    992,  -2.10288668,           0.,  0.699999988
    993,  -2.10288668,           0.,  0.600000024
    994,  -2.41154695,           0.,  0.800000012
    995,  -2.30866027,           0.,  0.800000012
    996,  -2.41154695,           0.,  0.899999976
    997,  -2.30866027,           0.,  0.899999976
    998,  -2.41154695,           0.,  0.600000024
    999,  -2.41154695,           0.,  0.699999988
   1000,  -2.30866027,           0.,  0.600000024
   1001,  -2.30866027,           0.,  0.699999988
   1002,   3.02886748,           0.,           1.
   1003,   3.02886748,           0.,  0.899999976
   1004,   3.02886748,           0.,  0.800000012
   1005,   3.02886748,           0.,  0.699999988
   1006,   3.02886748,           0.,  0.600000024
   1007,   3.02886748,           0.,          0.5
   1008,   3.02886748,           0.,  0.400000006
   1009,   3.02886748,           0.,  0.300000012
   1010,   3.02886748,           0.,  0.200000003
   1011,   3.02886748,           0.,  0.100000001
   1012,   3.02886748,           0.,           0.
   1013,   2.92598081,           0.,           0.
   1014,   2.82309413,           0.,           0.
   1015,   2.72020721,           0.,           0.
   1016,   2.61732054,           0.,           0.
   1017,   2.51443386,           0.,           0.
   1018,   2.41154695,           0.,           0.
   1019,   2.30866027,           0.,           0.
   1020,   2.20577359,           0.,           0.
   1021,   2.10288668,           0.,           0.
   1022,   2.10288668,           0.,           1.
   1023,   2.20577359,           0.,           1.
   1024,   2.30866027,           0.,           1.
   1025,   2.41154695,           0.,           1.
   1026,   2.51443386,           0.,           1.
   1027,   2.61732054,           0.,           1.
   1028,   2.72020721,           0.,           1.
   1029,   2.82309413,           0.,           1.
   1030,   2.92598081,           0.,           1.
   1031,   2.51443386,           0.,  0.100000001
   1032,   2.51443386,           0.,  0.200000003
   1033,   2.51443386,           0.,  0.300000012
   1034,   2.51443386,           0.,  0.400000006
   1035,   2.51443386,           0.,          0.5
   1036,   2.51443386,           0.,  0.600000024
   1037,   2.51443386,           0.,  0.699999988
   1038,   2.51443386,           0.,  0.800000012
   1039,   2.51443386,           0.,  0.899999976
   1040,   2.61732054,           0.,          0.5
   1041,   2.72020721,           0.,          0.5
   1042,   2.82309413,           0.,          0.5
   1043,   2.92598081,           0.,          0.5
   1044,   2.72020721,           0.,  0.400000006
   1045,   2.72020721,           0.,  0.300000012
   1046,   2.72020721,           0.,  0.200000003
   1047,   2.72020721,           0.,  0.100000001
   1048,   2.61732054,           0.,  0.300000012
   1049,   2.61732054,           0.,  0.400000006
   1050,   2.61732054,           0.,  0.200000003
   1051,   2.61732054,           0.,  0.100000001
   1052,   2.92598081,           0.,  0.300000012
   1053,   2.82309413,           0.,  0.300000012
   1054,   2.92598081,           0.,  0.400000006
   1055,   2.82309413,           0.,  0.400000006
   1056,   2.92598081,           0.,  0.100000001
   1057,   2.92598081,           0.,  0.200000003
   1058,   2.82309413,           0.,  0.100000001
   1059,   2.82309413,           0.,  0.200000003
   1060,   2.72020721,           0.,  0.899999976
   1061,   2.72020721,           0.,  0.800000012
   1062,   2.72020721,           0.,  0.699999988
   1063,   2.72020721,           0.,  0.600000024
   1064,   2.61732054,           0.,  0.800000012
   1065,   2.61732054,           0.,  0.899999976
   1066,   2.61732054,           0.,  0.699999988
   1067,   2.61732054,           0.,  0.600000024
   1068,   2.92598081,           0.,  0.800000012
   1069,   2.82309413,           0.,  0.800000012
   1070,   2.92598081,           0.,  0.899999976
   1071,   2.82309413,           0.,  0.899999976
   1072,   2.92598081,           0.,  0.600000024
   1073,   2.92598081,           0.,  0.699999988
   1074,   2.82309413,           0.,  0.600000024
   1075,   2.82309413,           0.,  0.699999988
   1076,   2.10288668,           0.,          0.5
   1077,   2.20577359,           0.,          0.5
   1078,   2.30866027,           0.,          0.5
   1079,   2.41154695,           0.,          0.5
   1080,   2.20577359,           0.,  0.400000006
   1081,   2.20577359,           0.,  0.300000012
   1082,   2.20577359,           0.,  0.200000003
   1083,   2.20577359,           0.,  0.100000001
   1084,   2.10288668,           0.,  0.300000012
   1085,   2.10288668,           0.,  0.400000006
   1086,   2.10288668,           0.,  0.200000003
   1087,   2.10288668,           0.,  0.100000001
   1088,   2.41154695,           0.,  0.300000012
   1089,   2.30866027,           0.,  0.300000012
   1090,   2.41154695,           0.,  0.400000006
   1091,   2.30866027,           0.,  0.400000006
   1092,   2.41154695,           0.,  0.100000001
   1093,   2.41154695,           0.,  0.200000003
   1094,   2.30866027,           0.,  0.100000001
   1095,   2.30866027,           0.,  0.200000003
   1096,   2.20577359,           0.,  0.899999976
   1097,   2.20577359,           0.,  0.800000012
   1098,   2.20577359,           0.,  0.699999988
   1099,   2.20577359,           0.,  0.600000024
   1100,   2.10288668,           0.,  0.800000012
   1101,   2.10288668,           0.,  0.899999976
   1102,   2.10288668,           0.,  0.699999988
   1103,   2.10288668,           0.,  0.600000024
   1104,   2.41154695,           0.,  0.800000012
   1105,   2.30866027,           0.,  0.800000012
   1106,   2.41154695,           0.,  0.899999976
   1107,   2.30866027,           0.,  0.899999976
   1108,   2.41154695,           0.,  0.600000024
   1109,   2.41154695,           0.,  0.699999988
   1110,   2.30866027,           0.,  0.600000024
   1111,   2.30866027,           0.,  0.699999988
   1112,           1.,  -1.73205078,           1.
   1113,           1.,  -1.73205078,  0.899999976
   1114,           1.,  -1.73205078,  0.800000012
   1115,           1.,  -1.73205078,  0.699999988
   1116,           1.,  -1.73205078,  0.600000024
   1117,           1.,  -1.73205078,          0.5
   1118,           1.,  -1.73205078,  0.400000006
   1119,           1.,  -1.73205078,  0.300000012
   1120,           1.,  -1.73205078,  0.200000003
   1121,           1.,  -1.73205078,  0.100000001
   1122,           1.,  -1.73205078,           0.
   1123,   1.04999995,  -1.64544821,           0.
   1124,   1.10000002,  -1.55884576,           0.
   1125,   1.14999998,  -1.47224319,           0.
   1126,   1.20000005,  -1.38564062,           0.
   1127,         1.25,  -1.29903805,           0.
   1128,   1.29999995,   -1.2124356,           0.
   1129,   1.35000002,  -1.12583303,           0.
   1130,   1.39999998,  -1.03923047,           0.
   1131,   1.45000005, -0.952627957,           0.
   1132,          1.5, -0.866025388,           0.
   1133,   1.54999995, -0.779422879,           0.
   1134,   1.60000002, -0.692820311,           0.
   1135,   1.64999998, -0.606217802,           0.
   1136,   1.70000005, -0.519615233,           0.
   1137,         1.75, -0.433012694,           0.
   1138,   1.79999995, -0.346410155,           0.
   1139,   1.85000002, -0.259807616,           0.
   1140,   1.89999998, -0.173205078,           0.
   1141,   1.95000005, -0.0866025388,           0.
   1142,   1.95000005, -0.0866025388,           1.
   1143,   1.89999998, -0.173205078,           1.
   1144,   1.85000002, -0.259807616,           1.
   1145,   1.79999995, -0.346410155,           1.
   1146,         1.75, -0.433012694,           1.
   1147,   1.70000005, -0.519615233,           1.
   1148,   1.64999998, -0.606217802,           1.
   1149,   1.60000002, -0.692820311,           1.
   1150,   1.54999995, -0.779422879,           1.
   1151,          1.5, -0.866025388,           1.
   1152,   1.45000005, -0.952627957,           1.
   1153,   1.39999998,  -1.03923047,           1.
   1154,   1.35000002,  -1.12583303,           1.
   1155,   1.29999995,   -1.2124356,           1.
   1156,         1.25,  -1.29903805,           1.
   1157,   1.20000005,  -1.38564062,           1.
   1158,   1.14999998,  -1.47224319,           1.
   1159,   1.10000002,  -1.55884576,           1.
   1160,   1.04999995,  -1.64544821,           1.
   1161,          1.5, -0.866025388,  0.100000001
   1162,          1.5, -0.866025388,  0.200000003
   1163,          1.5, -0.866025388,  0.300000012
   1164,          1.5, -0.866025388,  0.400000006
   1165,          1.5, -0.866025388,          0.5
   1166,          1.5, -0.866025388,  0.600000024
   1167,          1.5, -0.866025388,  0.699999988
   1168,          1.5, -0.866025388,  0.800000012
   1169,          1.5, -0.866025388,  0.899999976
   1170,         1.25,  -1.29903805,  0.100000001
   1171,         1.25,  -1.29903805,  0.200000003
   1172,         1.25,  -1.29903805,  0.300000012
   1173,         1.25,  -1.29903805,  0.400000006
   1174,         1.25,  -1.29903805,          0.5
   1175,         1.25,  -1.29903805,  0.600000024
   1176,         1.25,  -1.29903805,  0.699999988
   1177,         1.25,  -1.29903805,  0.800000012
   1178,         1.25,  -1.29903805,  0.899999976
   1179,   1.20000005,  -1.38564062,          0.5
   1180,   1.14999998,  -1.47224319,          0.5
   1181,   1.10000002,  -1.55884576,          0.5
   1182,   1.04999995,  -1.64544821,          0.5
   1183,   1.14999998,  -1.47224319,  0.400000006
   1184,   1.14999998,  -1.47224319,  0.300000012
   1185,   1.14999998,  -1.47224319,  0.200000003
   1186,   1.14999998,  -1.47224319,  0.100000001
   1187,   1.20000005,  -1.38564062,  0.300000012
   1188,   1.20000005,  -1.38564062,  0.400000006
   1189,   1.20000005,  -1.38564062,  0.200000003
   1190,   1.20000005,  -1.38564062,  0.100000001
   1191,   1.04999995,  -1.64544821,  0.300000012
   1192,   1.10000002,  -1.55884576,  0.300000012
   1193,   1.04999995,  -1.64544821,  0.400000006
   1194,   1.10000002,  -1.55884576,  0.400000006
   1195,   1.04999995,  -1.64544821,  0.100000001
   1196,   1.04999995,  -1.64544821,  0.200000003
   1197,   1.10000002,  -1.55884576,  0.100000001
   1198,   1.10000002,  -1.55884576,  0.200000003
   1199,   1.14999998,  -1.47224319,  0.899999976
   1200,   1.14999998,  -1.47224319,  0.800000012
   1201,   1.14999998,  -1.47224319,  0.699999988
   1202,   1.14999998,  -1.47224319,  0.600000024
   1203,   1.20000005,  -1.38564062,  0.800000012
   1204,   1.20000005,  -1.38564062,  0.899999976
   1205,   1.20000005,  -1.38564062,  0.699999988
   1206,   1.20000005,  -1.38564062,  0.600000024
   1207,   1.04999995,  -1.64544821,  0.800000012
   1208,   1.10000002,  -1.55884576,  0.800000012
   1209,   1.04999995,  -1.64544821,  0.899999976
   1210,   1.10000002,  -1.55884576,  0.899999976
   1211,   1.04999995,  -1.64544821,  0.600000024
   1212,   1.04999995,  -1.64544821,  0.699999988
   1213,   1.10000002,  -1.55884576,  0.600000024
   1214,   1.10000002,  -1.55884576,  0.699999988
   1215,   1.45000005, -0.952627957,          0.5
   1216,   1.39999998,  -1.03923047,          0.5
   1217,   1.35000002,  -1.12583303,          0.5
   1218,   1.29999995,   -1.2124356,          0.5
   1219,   1.39999998,  -1.03923047,  0.400000006
   1220,   1.39999998,  -1.03923047,  0.300000012
   1221,   1.39999998,  -1.03923047,  0.200000003
   1222,   1.39999998,  -1.03923047,  0.100000001
   1223,   1.45000005, -0.952627957,  0.300000012
   1224,   1.45000005, -0.952627957,  0.400000006
   1225,   1.45000005, -0.952627957,  0.200000003
   1226,   1.45000005, -0.952627957,  0.100000001
   1227,   1.29999995,   -1.2124356,  0.300000012
   1228,   1.35000002,  -1.12583303,  0.300000012
   1229,   1.29999995,   -1.2124356,  0.400000006
   1230,   1.35000002,  -1.12583303,  0.400000006
   1231,   1.29999995,   -1.2124356,  0.100000001
   1232,   1.29999995,   -1.2124356,  0.200000003
   1233,   1.35000002,  -1.12583303,  0.100000001
   1234,   1.35000002,  -1.12583303,  0.200000003
   1235,   1.39999998,  -1.03923047,  0.899999976
   1236,   1.39999998,  -1.03923047,  0.800000012
   1237,   1.39999998,  -1.03923047,  0.699999988
   1238,   1.39999998,  -1.03923047,  0.600000024
   1239,   1.45000005, -0.952627957,  0.800000012
   1240,   1.45000005, -0.952627957,  0.899999976
   1241,   1.45000005, -0.952627957,  0.699999988
   1242,   1.45000005, -0.952627957,  0.600000024
   1243,   1.29999995,   -1.2124356,  0.800000012
   1244,   1.35000002,  -1.12583303,  0.800000012
   1245,   1.29999995,   -1.2124356,  0.899999976
   1246,   1.35000002,  -1.12583303,  0.899999976
   1247,   1.29999995,   -1.2124356,  0.600000024
   1248,   1.29999995,   -1.2124356,  0.699999988
   1249,   1.35000002,  -1.12583303,  0.600000024
   1250,   1.35000002,  -1.12583303,  0.699999988
   1251,         1.75, -0.433012694,  0.100000001
   1252,         1.75, -0.433012694,  0.200000003
   1253,         1.75, -0.433012694,  0.300000012
   1254,         1.75, -0.433012694,  0.400000006
   1255,         1.75, -0.433012694,          0.5
   1256,         1.75, -0.433012694,  0.600000024
   1257,         1.75, -0.433012694,  0.699999988
   1258,         1.75, -0.433012694,  0.800000012
   1259,         1.75, -0.433012694,  0.899999976
   1260,   1.70000005, -0.519615233,          0.5
   1261,   1.64999998, -0.606217802,          0.5
   1262,   1.60000002, -0.692820311,          0.5
   1263,   1.54999995, -0.779422879,          0.5
   1264,   1.64999998, -0.606217802,  0.400000006
   1265,   1.64999998, -0.606217802,  0.300000012
   1266,   1.64999998, -0.606217802,  0.200000003
   1267,   1.64999998, -0.606217802,  0.100000001
   1268,   1.70000005, -0.519615233,  0.300000012
   1269,   1.70000005, -0.519615233,  0.400000006
   1270,   1.70000005, -0.519615233,  0.200000003
   1271,   1.70000005, -0.519615233,  0.100000001
   1272,   1.54999995, -0.779422879,  0.300000012
   1273,   1.60000002, -0.692820311,  0.300000012
   1274,   1.54999995, -0.779422879,  0.400000006
   1275,   1.60000002, -0.692820311,  0.400000006
   1276,   1.54999995, -0.779422879,  0.100000001
   1277,   1.54999995, -0.779422879,  0.200000003
   1278,   1.60000002, -0.692820311,  0.100000001
   1279,   1.60000002, -0.692820311,  0.200000003
   1280,   1.64999998, -0.606217802,  0.899999976
   1281,   1.64999998, -0.606217802,  0.800000012
   1282,   1.64999998, -0.606217802,  0.699999988
   1283,   1.64999998, -0.606217802,  0.600000024
   1284,   1.70000005, -0.519615233,  0.800000012
   1285,   1.70000005, -0.519615233,  0.899999976
   1286,   1.70000005, -0.519615233,  0.699999988
   1287,   1.70000005, -0.519615233,  0.600000024
   1288,   1.54999995, -0.779422879,  0.800000012
   1289,   1.60000002, -0.692820311,  0.800000012
   1290,   1.54999995, -0.779422879,  0.899999976
   1291,   1.60000002, -0.692820311,  0.899999976
   1292,   1.54999995, -0.779422879,  0.600000024
   1293,   1.54999995, -0.779422879,  0.699999988
   1294,   1.60000002, -0.692820311,  0.600000024
   1295,   1.60000002, -0.692820311,  0.699999988
   1296,   1.95000005, -0.0866025388,          0.5
   1297,   1.89999998, -0.173205078,          0.5
   1298,   1.85000002, -0.259807616,          0.5
   1299,   1.79999995, -0.346410155,          0.5
   1300,   1.89999998, -0.173205078,  0.400000006
   1301,   1.89999998, -0.173205078,  0.300000012
   1302,   1.89999998, -0.173205078,  0.200000003
   1303,   1.89999998, -0.173205078,  0.100000001
   1304,   1.95000005, -0.0866025388,  0.300000012
   1305,   1.95000005, -0.0866025388,  0.400000006
   1306,   1.95000005, -0.0866025388,  0.200000003
   1307,   1.95000005, -0.0866025388,  0.100000001
   1308,   1.79999995, -0.346410155,  0.300000012
   1309,   1.85000002, -0.259807616,  0.300000012
   1310,   1.79999995, -0.346410155,  0.400000006
   1311,   1.85000002, -0.259807616,  0.400000006
   1312,   1.79999995, -0.346410155,  0.100000001
   1313,   1.79999995, -0.346410155,  0.200000003
   1314,   1.85000002, -0.259807616,  0.100000001
   1315,   1.85000002, -0.259807616,  0.200000003
   1316,   1.89999998, -0.173205078,  0.899999976
   1317,   1.89999998, -0.173205078,  0.800000012
   1318,   1.89999998, -0.173205078,  0.699999988
   1319,   1.89999998, -0.173205078,  0.600000024
   1320,   1.95000005, -0.0866025388,  0.800000012
   1321,   1.95000005, -0.0866025388,  0.899999976
   1322,   1.95000005, -0.0866025388,  0.699999988
   1323,   1.95000005, -0.0866025388,  0.600000024
   1324,   1.79999995, -0.346410155,  0.800000012
   1325,   1.85000002, -0.259807616,  0.800000012
   1326,   1.79999995, -0.346410155,  0.899999976
   1327,   1.85000002, -0.259807616,  0.899999976
   1328,   1.79999995, -0.346410155,  0.600000024
   1329,   1.79999995, -0.346410155,  0.699999988
   1330,   1.85000002, -0.259807616,  0.600000024
   1331,   1.85000002, -0.259807616,  0.699999988
   1332, -0.899999976,  -1.73205078,           0.
   1333, -0.800000012,  -1.73205078,           0.
   1334, -0.699999988,  -1.73205078,           0.
   1335, -0.600000024,  -1.73205078,           0.
   1336,         -0.5,  -1.73205078,           0.
   1337, -0.400000006,  -1.73205078,           0.
   1338, -0.300000012,  -1.73205078,           0.
   1339, -0.200000003,  -1.73205078,           0.
   1340, -0.100000001,  -1.73205078,           0.
   1341,           0.,  -1.73205078,           0.
   1342,  0.100000001,  -1.73205078,           0.
   1343,  0.200000003,  -1.73205078,           0.
   1344,  0.300000012,  -1.73205078,           0.
   1345,  0.400000006,  -1.73205078,           0.
   1346,          0.5,  -1.73205078,           0.
   1347,  0.600000024,  -1.73205078,           0.
   1348,  0.699999988,  -1.73205078,           0.
   1349,  0.800000012,  -1.73205078,           0.
   1350,  0.899999976,  -1.73205078,           0.
   1351,  0.899999976,  -1.73205078,           1.
   1352,  0.800000012,  -1.73205078,           1.
   1353,  0.699999988,  -1.73205078,           1.
   1354,  0.600000024,  -1.73205078,           1.
   1355,          0.5,  -1.73205078,           1.
   1356,  0.400000006,  -1.73205078,           1.
   1357,  0.300000012,  -1.73205078,           1.
   1358,  0.200000003,  -1.73205078,           1.
   1359,  0.100000001,  -1.73205078,           1.
   1360,           0.,  -1.73205078,           1.
   1361, -0.100000001,  -1.73205078,           1.
   1362, -0.200000003,  -1.73205078,           1.
   1363, -0.300000012,  -1.73205078,           1.
   1364, -0.400000006,  -1.73205078,           1.
   1365,         -0.5,  -1.73205078,           1.
   1366, -0.600000024,  -1.73205078,           1.
   1367, -0.699999988,  -1.73205078,           1.
   1368, -0.800000012,  -1.73205078,           1.
   1369, -0.899999976,  -1.73205078,           1.
   1370,           0.,  -1.73205078,  0.100000001
   1371,           0.,  -1.73205078,  0.200000003
   1372,           0.,  -1.73205078,  0.300000012
   1373,           0.,  -1.73205078,  0.400000006
   1374,           0.,  -1.73205078,          0.5
   1375,           0.,  -1.73205078,  0.600000024
   1376,           0.,  -1.73205078,  0.699999988
   1377,           0.,  -1.73205078,  0.800000012
   1378,           0.,  -1.73205078,  0.899999976
   1379, -0.100000001,  -1.73205078,          0.5
   1380, -0.200000003,  -1.73205078,          0.5
   1381, -0.300000012,  -1.73205078,          0.5
   1382, -0.400000006,  -1.73205078,          0.5
   1383,         -0.5,  -1.73205078,          0.5
   1384, -0.600000024,  -1.73205078,          0.5
   1385, -0.699999988,  -1.73205078,          0.5
   1386, -0.800000012,  -1.73205078,          0.5
   1387, -0.899999976,  -1.73205078,          0.5
   1388,         -0.5,  -1.73205078,  0.400000006
   1389,         -0.5,  -1.73205078,  0.300000012
   1390,         -0.5,  -1.73205078,  0.200000003
   1391,         -0.5,  -1.73205078,  0.100000001
   1392, -0.400000006,  -1.73205078,  0.300000012
   1393, -0.300000012,  -1.73205078,  0.300000012
   1394, -0.200000003,  -1.73205078,  0.300000012
   1395, -0.100000001,  -1.73205078,  0.300000012
   1396, -0.300000012,  -1.73205078,  0.400000006
   1397, -0.400000006,  -1.73205078,  0.400000006
   1398, -0.200000003,  -1.73205078,  0.400000006
   1399, -0.100000001,  -1.73205078,  0.400000006
   1400, -0.300000012,  -1.73205078,  0.100000001
   1401, -0.300000012,  -1.73205078,  0.200000003
   1402, -0.400000006,  -1.73205078,  0.100000001
   1403, -0.400000006,  -1.73205078,  0.200000003
   1404, -0.100000001,  -1.73205078,  0.100000001
   1405, -0.200000003,  -1.73205078,  0.100000001
   1406, -0.100000001,  -1.73205078,  0.200000003
   1407, -0.200000003,  -1.73205078,  0.200000003
   1408, -0.899999976,  -1.73205078,  0.300000012
   1409, -0.800000012,  -1.73205078,  0.300000012
   1410, -0.699999988,  -1.73205078,  0.300000012
   1411, -0.600000024,  -1.73205078,  0.300000012
   1412, -0.800000012,  -1.73205078,  0.400000006
   1413, -0.899999976,  -1.73205078,  0.400000006
   1414, -0.699999988,  -1.73205078,  0.400000006
   1415, -0.600000024,  -1.73205078,  0.400000006
   1416, -0.800000012,  -1.73205078,  0.100000001
   1417, -0.800000012,  -1.73205078,  0.200000003
   1418, -0.899999976,  -1.73205078,  0.100000001
   1419, -0.899999976,  -1.73205078,  0.200000003
   1420, -0.600000024,  -1.73205078,  0.100000001
   1421, -0.699999988,  -1.73205078,  0.100000001
   1422, -0.600000024,  -1.73205078,  0.200000003
   1423, -0.699999988,  -1.73205078,  0.200000003
   1424,         -0.5,  -1.73205078,  0.899999976
   1425,         -0.5,  -1.73205078,  0.800000012
   1426,         -0.5,  -1.73205078,  0.699999988
   1427,         -0.5,  -1.73205078,  0.600000024
   1428, -0.400000006,  -1.73205078,  0.800000012
   1429, -0.300000012,  -1.73205078,  0.800000012
   1430, -0.200000003,  -1.73205078,  0.800000012
   1431, -0.100000001,  -1.73205078,  0.800000012
   1432, -0.300000012,  -1.73205078,  0.899999976
   1433, -0.400000006,  -1.73205078,  0.899999976
   1434, -0.200000003,  -1.73205078,  0.899999976
   1435, -0.100000001,  -1.73205078,  0.899999976
   1436, -0.300000012,  -1.73205078,  0.600000024
   1437, -0.300000012,  -1.73205078,  0.699999988
   1438, -0.400000006,  -1.73205078,  0.600000024
   1439, -0.400000006,  -1.73205078,  0.699999988
   1440, -0.200000003,  -1.73205078,  0.600000024
   1441, -0.200000003,  -1.73205078,  0.699999988
   1442, -0.100000001,  -1.73205078,  0.600000024
   1443, -0.100000001,  -1.73205078,  0.699999988
   1444, -0.899999976,  -1.73205078,  0.800000012
   1445, -0.800000012,  -1.73205078,  0.800000012
   1446, -0.699999988,  -1.73205078,  0.800000012
   1447, -0.600000024,  -1.73205078,  0.800000012
   1448, -0.800000012,  -1.73205078,  0.899999976
   1449, -0.899999976,  -1.73205078,  0.899999976
   1450, -0.699999988,  -1.73205078,  0.899999976
   1451, -0.600000024,  -1.73205078,  0.899999976
   1452, -0.800000012,  -1.73205078,  0.600000024
   1453, -0.800000012,  -1.73205078,  0.699999988
   1454, -0.899999976,  -1.73205078,  0.600000024
   1455, -0.899999976,  -1.73205078,  0.699999988
   1456, -0.600000024,  -1.73205078,  0.600000024
   1457, -0.699999988,  -1.73205078,  0.600000024
   1458, -0.600000024,  -1.73205078,  0.699999988
   1459, -0.699999988,  -1.73205078,  0.699999988
   1460,  0.899999976,  -1.73205078,          0.5
   1461,  0.800000012,  -1.73205078,          0.5
   1462,  0.699999988,  -1.73205078,          0.5
   1463,  0.600000024,  -1.73205078,          0.5
   1464,          0.5,  -1.73205078,          0.5
   1465,  0.400000006,  -1.73205078,          0.5
   1466,  0.300000012,  -1.73205078,          0.5
   1467,  0.200000003,  -1.73205078,          0.5
   1468,  0.100000001,  -1.73205078,          0.5
   1469,          0.5,  -1.73205078,  0.400000006
   1470,          0.5,  -1.73205078,  0.300000012
   1471,          0.5,  -1.73205078,  0.200000003
   1472,          0.5,  -1.73205078,  0.100000001
   1473,  0.600000024,  -1.73205078,  0.300000012
   1474,  0.699999988,  -1.73205078,  0.300000012
   1475,  0.800000012,  -1.73205078,  0.300000012
   1476,  0.899999976,  -1.73205078,  0.300000012
   1477,  0.699999988,  -1.73205078,  0.400000006
   1478,  0.600000024,  -1.73205078,  0.400000006
   1479,  0.800000012,  -1.73205078,  0.400000006
   1480,  0.899999976,  -1.73205078,  0.400000006
   1481,  0.699999988,  -1.73205078,  0.100000001
   1482,  0.699999988,  -1.73205078,  0.200000003
   1483,  0.600000024,  -1.73205078,  0.100000001
   1484,  0.600000024,  -1.73205078,  0.200000003
   1485,  0.899999976,  -1.73205078,  0.100000001
   1486,  0.800000012,  -1.73205078,  0.100000001
   1487,  0.899999976,  -1.73205078,  0.200000003
   1488,  0.800000012,  -1.73205078,  0.200000003
   1489,  0.100000001,  -1.73205078,  0.300000012
   1490,  0.200000003,  -1.73205078,  0.300000012
   1491,  0.300000012,  -1.73205078,  0.300000012
   1492,  0.400000006,  -1.73205078,  0.300000012
   1493,  0.200000003,  -1.73205078,  0.400000006
   1494,  0.100000001,  -1.73205078,  0.400000006
   1495,  0.300000012,  -1.73205078,  0.400000006
   1496,  0.400000006,  -1.73205078,  0.400000006
   1497,  0.200000003,  -1.73205078,  0.100000001
   1498,  0.200000003,  -1.73205078,  0.200000003
   1499,  0.100000001,  -1.73205078,  0.100000001
   1500,  0.100000001,  -1.73205078,  0.200000003
   1501,  0.400000006,  -1.73205078,  0.100000001
   1502,  0.300000012,  -1.73205078,  0.100000001
   1503,  0.400000006,  -1.73205078,  0.200000003
   1504,  0.300000012,  -1.73205078,  0.200000003
   1505,          0.5,  -1.73205078,  0.899999976
   1506,          0.5,  -1.73205078,  0.800000012
   1507,          0.5,  -1.73205078,  0.699999988
   1508,          0.5,  -1.73205078,  0.600000024
   1509,  0.600000024,  -1.73205078,  0.800000012
   1510,  0.699999988,  -1.73205078,  0.800000012
   1511,  0.800000012,  -1.73205078,  0.800000012
   1512,  0.899999976,  -1.73205078,  0.800000012
   1513,  0.699999988,  -1.73205078,  0.899999976
   1514,  0.600000024,  -1.73205078,  0.899999976
   1515,  0.800000012,  -1.73205078,  0.899999976
   1516,  0.899999976,  -1.73205078,  0.899999976
   1517,  0.699999988,  -1.73205078,  0.600000024
   1518,  0.699999988,  -1.73205078,  0.699999988
   1519,  0.600000024,  -1.73205078,  0.600000024
   1520,  0.600000024,  -1.73205078,  0.699999988
   1521,  0.899999976,  -1.73205078,  0.600000024
   1522,  0.800000012,  -1.73205078,  0.600000024
   1523,  0.899999976,  -1.73205078,  0.699999988
   1524,  0.800000012,  -1.73205078,  0.699999988
   1525,  0.100000001,  -1.73205078,  0.800000012
   1526,  0.200000003,  -1.73205078,  0.800000012
   1527,  0.300000012,  -1.73205078,  0.800000012
   1528,  0.400000006,  -1.73205078,  0.800000012
   1529,  0.200000003,  -1.73205078,  0.899999976
   1530,  0.100000001,  -1.73205078,  0.899999976
   1531,  0.300000012,  -1.73205078,  0.899999976
   1532,  0.400000006,  -1.73205078,  0.899999976
   1533,  0.200000003,  -1.73205078,  0.600000024
   1534,  0.200000003,  -1.73205078,  0.699999988
   1535,  0.100000001,  -1.73205078,  0.600000024
   1536,  0.100000001,  -1.73205078,  0.699999988
   1537,  0.400000006,  -1.73205078,  0.600000024
   1538,  0.300000012,  -1.73205078,  0.600000024
   1539,  0.400000006,  -1.73205078,  0.699999988
   1540,  0.300000012,  -1.73205078,  0.699999988
*Element, type=S4R
   1,   84,   87,   88,   83
   2,   83,   88,   79,   80
   3,   87,   72,   73,   88
   4,   88,   73,   74,   79
   5,   85,   89,   87,   84
   6,   89,   71,   72,   87
   7,   63,   64,   90,   86
   8,   86,   90,   89,   85
   9,   64,   65,   70,   90
  10,   90,   70,   71,   89
  11,   18,   91,   93,   17
  12,   17,   93,   82,   16
  13,   91,   92,   94,   93
  14,   93,   94,   81,   82
  15,   92,   84,   83,   94
  16,   94,   83,   80,   81
  17,   21,   61,   95,   20
  18,   20,   95,   96,   19
  19,   19,   96,   91,   18
  20,   86,   97,   62,   63
  21,   97,   95,   61,   62
  22,   84,   92,   98,   85
  23,   85,   98,   97,   86
  24,   92,   91,   96,   98
  25,   98,   96,   95,   97
  26,  100,  103,  104,   99
  27,   99,  104,    7,    8
  28,  103,   77,   78,  104
  29,  104,   78,    6,    7
  30,  101,  105,  103,  100
  31,  105,   76,   77,  103
  32,   80,   79,  106,  102
  33,  102,  106,  105,  101
  34,   79,   74,   75,  106
  35,  106,   75,   76,  105
  36,   13,  107,  109,   12
  37,   12,  109,   10,   11
  38,  107,  108,  110,  109
  39,  109,  110,    9,   10
  40,  108,  100,   99,  110
  41,  110,   99,    8,    9
  42,   16,   82,  111,   15
  43,   15,  111,  112,   14
  44,   14,  112,  107,   13
  45,  102,  113,   81,   80
  46,  113,  111,   82,   81
  47,  100,  108,  114,  101
  48,  101,  114,  113,  102
  49,  108,  107,  112,  114
  50,  114,  112,  111,  113
  51,  120,  123,  124,  119
  52,  119,  124,  115,  116
  53,  123,   54,   55,  124
  54,  124,   55,   56,  115
  55,  121,  125,  123,  120
  56,  125,   53,   54,  123
  57,   68,   69,  126,  122
  58,  122,  126,  125,  121
  59,   69,   51,   52,  126
  60,  126,   52,   53,  125
  61,   72,  127,  129,   73
  62,   73,  129,  118,   74
  63,  127,  128,  130,  129
  64,  129,  130,  117,  118
  65,  128,  120,  119,  130
  66,  130,  119,  116,  117
  67,   65,   66,  131,   70
  68,   70,  131,  132,   71
  69,   71,  132,  127,   72
  70,  122,  133,   67,   68
  71,  133,  131,   66,   67
  72,  120,  128,  134,  121
  73,  121,  134,  133,  122
  74,  128,  127,  132,  134
  75,  134,  132,  131,  133
  76,  136,  139,  140,  135
  77,  135,  140,    2,    3
  78,  139,   59,   60,  140
  79,  140,   60,    1,    2
  80,  137,  141,  139,  136
  81,  141,   58,   59,  139
  82,  116,  115,  142,  138
  83,  138,  142,  141,  137
  84,  115,   56,   57,  142
  85,  142,   57,   58,  141
  86,   77,  143,  145,   78
  87,   78,  145,    5,    6
  88,  135,  146,  144,  136
  89,  146,  145,  143,  144
  90,    3,    4,  146,  135
  91,    4,    5,  145,  146
  92,   74,  118,  147,   75
  93,   75,  147,  148,   76
  94,   76,  148,  143,   77
  95,  138,  149,  117,  116
  96,  149,  147,  118,  117
  97,  136,  144,  150,  137
  98,  137,  150,  149,  138
  99,  144,  143,  148,  150
 100,  150,  148,  147,  149
 101,  165,  168,  169,  164
 102,  164,  169,  160,  161
 103,  168,  153,  154,  169
 104,  169,  154,  155,  160
 105,  166,  170,  168,  165
 106,  170,  152,  153,  168
 107,  167,  171,  170,  166
 108,  171,  151,  152,  170
 109,   34,   35,  171,  167
 110,   35,   36,  151,  171
 111,   28,  172,  174,   27
 112,   27,  174,  163,   26
 113,  172,  173,  175,  174
 114,  174,  175,  162,  163
 115,  173,  165,  164,  175
 116,  175,  164,  161,  162
 117,   31,   32,  176,   30
 118,   30,  176,  177,   29
 119,   29,  177,  172,   28
 120,  167,  178,   33,   34
 121,  178,  176,   32,   33
 122,  165,  173,  179,  166
 123,  166,  179,  178,  167
 124,  173,  172,  177,  179
 125,  179,  177,  176,  178
 126,  181,  184,  185,  180
 127,  180,  185,   64,   63
 128,  184,  158,  159,  185
 129,  185,  159,   65,   64
 130,  182,  186,  184,  181
 131,  186,  157,  158,  184
 132,  161,  160,  187,  183
 133,  183,  187,  186,  182
 134,  160,  155,  156,  187
 135,  187,  156,  157,  186
 136,   23,  188,  190,   22
 137,   22,  190,   61,   21
 138,  188,  189,  191,  190
 139,  190,  191,   62,   61
 140,  189,  181,  180,  191
 141,  191,  180,   63,   62
 142,   26,  163,  192,   25
 143,   25,  192,  193,   24
 144,   24,  193,  188,   23
 145,  183,  194,  162,  161
 146,  194,  192,  163,  162
 147,  181,  189,  195,  182
 148,  182,  195,  194,  183
 149,  189,  188,  193,  195
 150,  195,  193,  192,  194
 151,  201,  204,  205,  200
 152,  200,  205,  196,  197
 153,  204,   44,   45,  205
 154,  205,   45,   46,  196
 155,  202,  206,  204,  201
 156,  206,   43,   44,  204
 157,   39,   40,  207,  203
 158,  203,  207,  206,  202
 159,   40,   41,   42,  207
 160,  207,   42,   43,  206
 161,  153,  208,  210,  154
 162,  154,  210,  199,  155
 163,  208,  209,  211,  210
 164,  210,  211,  198,  199
 165,  209,  201,  200,  211
 166,  211,  200,  197,  198
 167,   36,   37,  212,  151
 168,  151,  212,  213,  152
 169,  152,  213,  208,  153
 170,  203,  214,   38,   39
 171,  214,  212,   37,   38
 172,  201,  209,  215,  202
 173,  202,  215,  214,  203
 174,  209,  208,  213,  215
 175,  215,  213,  212,  214
 176,  217,  220,  221,  216
 177,  216,  221,   69,   68
 178,  220,   49,   50,  221
 179,  221,   50,   51,   69
 180,  218,  222,  220,  217
 181,  222,   48,   49,  220
 182,  197,  196,  223,  219
 183,  219,  223,  222,  218
 184,  196,   46,   47,  223
 185,  223,   47,   48,  222
 186,  158,  224,  226,  159
 187,  159,  226,   66,   65
 188,  224,  225,  227,  226
 189,  226,  227,   67,   66
 190,  225,  217,  216,  227
 191,  227,  216,   68,   67
 192,  155,  199,  228,  156
 193,  156,  228,  229,  157
 194,  157,  229,  224,  158
 195,  219,  230,  198,  197
 196,  230,  228,  199,  198
 197,  217,  225,  231,  218
 198,  218,  231,  230,  219
 199,  225,  224,  229,  231
 200,  231,  229,  228,  230
 201,  307,  308,  303,  304
 202,  308,  299,  300,  303
 203,  292,  293,  308,  307
 204,  293,  294,  299,  308
 205,  304,  305,  309,  307
 206,  307,  309,  291,  292
 207,  235,  310,  306,  234
 208,  310,  309,  305,  306
 209,  236,  290,  310,  235
 210,  290,  291,  309,  310
 211,  311,  313,   35,   34
 212,  313,  302,   36,   35
 213,  312,  314,  313,  311
 214,  314,  301,  302,  313
 215,  304,  303,  314,  312
 216,  303,  300,  301,  314
 217,  232,  315,   32,   31
 218,  315,  316,   33,   32
 219,  316,  311,   34,   33
 220,  234,  306,  317,  233
 221,  233,  317,  315,  232
 222,  312,  318,  305,  304
 223,  318,  317,  306,  305
 224,  311,  316,  318,  312
 225,  316,  315,  317,  318
 226,  323,  324,  319,  320
 227,  324,  277,  278,  319
 228,  297,  298,  324,  323
 229,  298,  276,  277,  324
 230,  320,  321,  325,  323
 231,  323,  325,  296,  297
 232,  299,  326,  322,  300
 233,  326,  325,  321,  322
 234,  294,  295,  326,  299
 235,  295,  296,  325,  326
 236,  327,  329,   40,   39
 237,  329,  280,   41,   40
 238,  328,  330,  329,  327
 239,  330,  279,  280,  329
 240,  320,  319,  330,  328
 241,  319,  278,  279,  330
 242,  302,  331,   37,   36
 243,  331,  332,   38,   37
 244,  332,  327,   39,   38
 245,  300,  322,  333,  301
 246,  301,  333,  331,  302
 247,  328,  334,  321,  320
 248,  334,  333,  322,  321
 249,  327,  332,  334,  328
 250,  332,  331,  333,  334
 251,  343,  344,  339,  340
 252,  344,  335,  336,  339
 253,  283,  284,  344,  343
 254,  284,  285,  335,  344
 255,  340,  341,  345,  343
 256,  343,  345,  282,  283
 257,  240,  346,  342,  239
 258,  346,  345,  341,  342
 259,  241,  281,  346,  240
 260,  281,  282,  345,  346
 261,  347,  349,  293,  292
 262,  349,  338,  294,  293
 263,  348,  350,  349,  347
 264,  350,  337,  338,  349
 265,  340,  339,  350,  348
 266,  339,  336,  337,  350
 267,  237,  351,  290,  236
 268,  351,  352,  291,  290
 269,  352,  347,  292,  291
 270,  239,  342,  353,  238
 271,  238,  353,  351,  237
 272,  348,  354,  341,  340
 273,  354,  353,  342,  341
 274,  347,  352,  354,  348
 275,  352,  351,  353,  354
 276,  359,  360,  355,  356
 277,  360,  272,  273,  355
 278,  288,  289,  360,  359
 279,  289,  271,  272,  360
 280,  356,  357,  361,  359
 281,  359,  361,  287,  288
 282,  335,  362,  358,  336
 283,  362,  361,  357,  358
 284,  285,  286,  362,  335
 285,  286,  287,  361,  362
 286,  363,  365,  298,  297
 287,  365,  275,  276,  298
 288,  364,  366,  365,  363
 289,  366,  274,  275,  365
 290,  356,  355,  366,  364
 291,  355,  273,  274,  366
 292,  338,  367,  295,  294
 293,  367,  368,  296,  295
 294,  368,  363,  297,  296
 295,  336,  358,  369,  337
 296,  337,  369,  367,  338
 297,  364,  370,  357,  356
 298,  370,  369,  358,  357
 299,  363,  368,  370,  364
 300,  368,  367,  369,  370
 301,  388,  389,  384,  385
 302,  389,  380,  381,  384
 303,  373,  374,  389,  388
 304,  374,  375,  380,  389
 305,  385,  386,  390,  388
 306,  388,  390,  372,  373
 307,  245,  391,  387,  244
 308,  391,  390,  386,  387
 309,  246,  371,  391,  245
 310,  371,  372,  390,  391
 311,  392,  394,  284,  283
 312,  394,  383,  285,  284
 313,  393,  395,  394,  392
 314,  395,  382,  383,  394
 315,  385,  384,  395,  393
 316,  384,  381,  382,  395
 317,  242,  396,  281,  241
 318,  396,  397,  282,  281
 319,  397,  392,  283,  282
 320,  244,  387,  398,  243
 321,  243,  398,  396,  242
 322,  393,  399,  386,  385
 323,  399,  398,  387,  386
 324,  392,  397,  399,  393
 325,  397,  396,  398,  399
 326,  404,  405,  400,  401
 327,  405,  267,  268,  400
 328,  378,  379,  405,  404
 329,  379,  266,  267,  405
 330,  401,  402,  406,  404
 331,  404,  406,  377,  378
 332,  380,  407,  403,  381
 333,  407,  406,  402,  403
 334,  375,  376,  407,  380
 335,  376,  377,  406,  407
 336,  408,  410,  289,  288
 337,  410,  270,  271,  289
 338,  409,  411,  410,  408
 339,  411,  269,  270,  410
 340,  401,  400,  411,  409
 341,  400,  268,  269,  411
 342,  383,  412,  286,  285
 343,  412,  413,  287,  286
 344,  413,  408,  288,  287
 345,  381,  403,  414,  382
 346,  382,  414,  412,  383
 347,  409,  415,  402,  401
 348,  415,  414,  403,  402
 349,  408,  413,  415,  409
 350,  413,  412,  414,  415
 351,  424,  425,  420,  421
 352,  425,  416,  417,  420
 353,  254,  255,  425,  424
 354,  255,  256,  416,  425
 355,  421,  422,  426,  424
 356,  424,  426,  253,  254
 357,  250,  427,  423,  249
 358,  427,  426,  422,  423
 359,  251,  252,  427,  250
 360,  252,  253,  426,  427
 361,  428,  430,  374,  373
 362,  430,  419,  375,  374
 363,  429,  431,  430,  428
 364,  431,  418,  419,  430
 365,  421,  420,  431,  429
 366,  420,  417,  418,  431
 367,  247,  432,  371,  246
 368,  432,  433,  372,  371
 369,  433,  428,  373,  372
 370,  249,  423,  434,  248
 371,  248,  434,  432,  247
 372,  423,  422,  435,  434
 373,  434,  435,  433,  432
 374,  422,  421,  429,  435
 375,  435,  429,  428,  433
 376,  440,  441,  436,  437
 377,  441,  262,  263,  436
 378,  259,  260,  441,  440
 379,  260,  261,  262,  441
 380,  437,  438,  442,  440
 381,  440,  442,  258,  259
 382,  416,  443,  439,  417
 383,  443,  442,  438,  439
 384,  256,  257,  443,  416
 385,  257,  258,  442,  443
 386,  444,  446,  379,  378
 387,  446,  265,  266,  379
 388,  445,  447,  446,  444
 389,  447,  264,  265,  446
 390,  437,  436,  447,  445
 391,  436,  263,  264,  447
 392,  419,  448,  376,  375
 393,  448,  449,  377,  376
 394,  449,  444,  378,  377
 395,  417,  439,  450,  418
 396,  418,  450,  448,  419
 397,  445,  451,  438,  437
 398,  451,  450,  439,  438
 399,  444,  449,  451,  445
 400,  449,  448,  450,  451
 401,  527,  528,  523,  524
 402,  528,  519,  520,  523
 403,  512,  513,  528,  527
 404,  513,  514,  519,  528
 405,  524,  525,  529,  527
 406,  527,  529,  511,  512
 407,  525,  526,  530,  529
 408,  529,  530,  510,  511
 409,  526,  454,  455,  530
 410,  530,  455,  456,  510
 411,  531,  533,    5,    4
 412,  533,  522,    6,    5
 413,  532,  534,  533,  531
 414,  534,  521,  522,  533
 415,  524,  523,  534,  532
 416,  523,  520,  521,  534
 417,  452,  535,    2,    1
 418,  535,  536,    3,    2
 419,  536,  531,    4,    3
 420,  454,  526,  537,  453
 421,  453,  537,  535,  452
 422,  532,  538,  525,  524
 423,  538,  537,  526,  525
 424,  531,  536,  538,  532
 425,  536,  535,  537,  538
 426,  543,  544,  539,  540
 427,  544,  497,  498,  539
 428,  517,  518,  544,  543
 429,  518,  496,  497,  544
 430,  540,  541,  545,  543
 431,  543,  545,  516,  517
 432,  519,  546,  542,  520
 433,  546,  545,  541,  542
 434,  514,  515,  546,  519
 435,  515,  516,  545,  546
 436,  547,  549,   10,    9
 437,  549,  500,   11,   10
 438,  548,  550,  549,  547
 439,  550,  499,  500,  549
 440,  540,  539,  550,  548
 441,  539,  498,  499,  550
 442,  522,  551,    7,    6
 443,  551,  552,    8,    7
 444,  552,  547,    9,    8
 445,  520,  542,  553,  521
 446,  521,  553,  551,  522
 447,  548,  554,  541,  540
 448,  554,  553,  542,  541
 449,  547,  552,  554,  548
 450,  552,  551,  553,  554
 451,  563,  564,  559,  560
 452,  564,  555,  556,  559
 453,  503,  504,  564,  563
 454,  504,  505,  555,  564
 455,  560,  561,  565,  563
 456,  563,  565,  502,  503
 457,  460,  566,  562,  459
 458,  566,  565,  561,  562
 459,  461,  501,  566,  460
 460,  501,  502,  565,  566
 461,  567,  569,  513,  512
 462,  569,  558,  514,  513
 463,  568,  570,  569,  567
 464,  570,  557,  558,  569
 465,  560,  559,  570,  568
 466,  559,  556,  557,  570
 467,  457,  571,  510,  456
 468,  571,  572,  511,  510
 469,  572,  567,  512,  511
 470,  459,  562,  573,  458
 471,  458,  573,  571,  457
 472,  568,  574,  561,  560
 473,  574,  573,  562,  561
 474,  567,  572,  574,  568
 475,  572,  571,  573,  574
 476,  493,  575,  580,  492
 477,  492,  580,  509,  491
 478,  575,  576,  579,  580
 479,  580,  579,  508,  509
 480,  576,  577,  581,  579
 481,  579,  581,  507,  508
 482,  577,  578,  582,  581
 483,  581,  582,  506,  507
 484,  578,  556,  555,  582
 485,  582,  555,  505,  506
 486,  583,  585,  518,  517
 487,  585,  495,  496,  518
 488,  584,  586,  585,  583
 489,  586,  494,  495,  585
 490,  576,  575,  586,  584
 491,  575,  493,  494,  586
 492,  558,  587,  515,  514
 493,  587,  588,  516,  515
 494,  588,  583,  517,  516
 495,  556,  578,  589,  557
 496,  557,  589,  587,  558
 497,  584,  590,  577,  576
 498,  590,  589,  578,  577
 499,  583,  588,  590,  584
 500,  588,  587,  589,  590
 501,  608,  609,  604,  605
 502,  609,  600,  601,  604
 503,  593,  594,  609,  608
 504,  594,  595,  600,  609
 505,  605,  606,  610,  608
 506,  608,  610,  592,  593
 507,  465,  611,  607,  464
 508,  611,  610,  606,  607
 509,  466,  591,  611,  465
 510,  591,  592,  610,  611
 511,  612,  614,  504,  503
 512,  614,  603,  505,  504
 513,  613,  615,  614,  612
 514,  615,  602,  603,  614
 515,  605,  604,  615,  613
 516,  604,  601,  602,  615
 517,  462,  616,  501,  461
 518,  616,  617,  502,  501
 519,  617,  612,  503,  502
 520,  464,  607,  618,  463
 521,  463,  618,  616,  462
 522,  613,  619,  606,  605
 523,  619,  618,  607,  606
 524,  612,  617,  619,  613
 525,  617,  616,  618,  619
 526,  624,  625,  620,  621
 527,  625,  487,  488,  620
 528,  598,  599,  625,  624
 529,  599,  486,  487,  625
 530,  621,  622,  626,  624
 531,  624,  626,  597,  598
 532,  600,  627,  623,  601
 533,  627,  626,  622,  623
 534,  595,  596,  627,  600
 535,  596,  597,  626,  627
 536,  628,  630,  509,  508
 537,  630,  490,  491,  509
 538,  629,  631,  630,  628
 539,  631,  489,  490,  630
 540,  621,  620,  631,  629
 541,  620,  488,  489,  631
 542,  603,  632,  506,  505
 543,  632,  633,  507,  506
 544,  633,  628,  508,  507
 545,  601,  623,  634,  602
 546,  602,  634,  632,  603
 547,  629,  635,  622,  621
 548,  635,  634,  623,  622
 549,  628,  633,  635,  629
 550,  633,  632,  634,  635
 551,  644,  645,  640,  641
 552,  645,  636,  637,  640
 553,  474,  475,  645,  644
 554,  475,  476,  636,  645
 555,  641,  642,  646,  644
 556,  644,  646,  473,  474
 557,  470,  647,  643,  469
 558,  647,  646,  642,  643
 559,  471,  472,  647,  470
 560,  472,  473,  646,  647
 561,  648,  650,  594,  593
 562,  650,  639,  595,  594
 563,  649,  651,  650,  648
 564,  651,  638,  639,  650
 565,  641,  640,  651,  649
 566,  640,  637,  638,  651
 567,  467,  652,  591,  466
 568,  652,  653,  592,  591
 569,  653,  648,  593,  592
 570,  469,  643,  654,  468
 571,  468,  654,  652,  467
 572,  649,  655,  642,  641
 573,  655,  654,  643,  642
 574,  648,  653,  655,  649
 575,  653,  652,  654,  655
 576,  660,  661,  656,  657
 577,  661,  482,  483,  656
 578,  479,  480,  661,  660
 579,  480,  481,  482,  661
 580,  657,  658,  662,  660
 581,  660,  662,  478,  479
 582,  636,  663,  659,  637
 583,  663,  662,  658,  659
 584,  476,  477,  663,  636
 585,  477,  478,  662,  663
 586,  664,  666,  599,  598
 587,  666,  485,  486,  599
 588,  665,  667,  666,  664
 589,  667,  484,  485,  666
 590,  657,  656,  667,  665
 591,  656,  483,  484,  667
 592,  639,  668,  596,  595
 593,  668,  669,  597,  596
 594,  669,  664,  598,  597
 595,  637,  659,  670,  638
 596,  638,  670,  668,  639
 597,  665,  671,  658,  657
 598,  671,  670,  659,  658
 599,  664,  669,  671,  665
 600,  669,  668,  670,  671
 601,  747,  748,  743,  744
 602,  748,  739,  740,  743
 603,  732,  733,  748,  747
 604,  733,  734,  739,  748
 605,  744,  745,  749,  747
 606,  747,  749,  731,  732
 607,  686,  750,  746,  685
 608,  750,  749,  745,  746
 609,  687,  730,  750,  686
 610,  730,  731,  749,  750
 611,  751,  753,  678,  679
 612,  753,  742,  677,  678
 613,  752,  754,  753,  751
 614,  754,  741,  742,  753
 615,  744,  743,  754,  752
 616,  743,  740,  741,  754
 617,  683,  755,  681,  682
 618,  755,  756,  680,  681
 619,  756,  751,  679,  680
 620,  685,  746,  757,  684
 621,  684,  757,  755,  683
 622,  746,  745,  758,  757
 623,  757,  758,  756,  755
 624,  745,  744,  752,  758
 625,  758,  752,  751,  756
 626,  763,  764,  759,  760
 627,  764,  717,  718,  759
 628,  737,  738,  764,  763
 629,  738,  716,  717,  764
 630,  760,  761,  765,  763
 631,  763,  765,  736,  737
 632,  739,  766,  762,  740
 633,  766,  765,  761,  762
 634,  734,  735,  766,  739
 635,  735,  736,  765,  766
 636,  767,  769,  673,  674
 637,  769,  720,  672,  673
 638,  768,  770,  769,  767
 639,  770,  719,  720,  769
 640,  760,  759,  770,  768
 641,  759,  718,  719,  770
 642,  742,  771,  676,  677
 643,  771,  772,  675,  676
 644,  772,  767,  674,  675
 645,  740,  762,  773,  741
 646,  741,  773,  771,  742
 647,  768,  774,  761,  760
 648,  774,  773,  762,  761
 649,  767,  772,  774,  768
 650,  772,  771,  773,  774
 651,  783,  784,  779,  780
 652,  784,  775,  776,  779
 653,  723,  724,  784,  783
 654,  724,  725,  775,  784
 655,  780,  781,  785,  783
 656,  783,  785,  722,  723
 657,  691,  786,  782,  690
 658,  786,  785,  781,  782
 659,  692,  721,  786,  691
 660,  721,  722,  785,  786
 661,  787,  789,  733,  732
 662,  789,  778,  734,  733
 663,  788,  790,  789,  787
 664,  790,  777,  778,  789
 665,  780,  779,  790,  788
 666,  779,  776,  777,  790
 667,  688,  791,  730,  687
 668,  791,  792,  731,  730
 669,  792,  787,  732,  731
 670,  690,  782,  793,  689
 671,  689,  793,  791,  688
 672,  782,  781,  794,  793
 673,  793,  794,  792,  791
 674,  781,  780,  788,  794
 675,  794,  788,  787,  792
 676,  799,  800,  795,  796
 677,  800,  712,  713,  795
 678,  728,  729,  800,  799
 679,  729,  711,  712,  800
 680,  796,  797,  801,  799
 681,  799,  801,  727,  728
 682,  775,  802,  798,  776
 683,  802,  801,  797,  798
 684,  725,  726,  802,  775
 685,  726,  727,  801,  802
 686,  803,  805,  738,  737
 687,  805,  715,  716,  738
 688,  804,  806,  805,  803
 689,  806,  714,  715,  805
 690,  796,  795,  806,  804
 691,  795,  713,  714,  806
 692,  778,  807,  735,  734
 693,  807,  808,  736,  735
 694,  808,  803,  737,  736
 695,  776,  798,  809,  777
 696,  777,  809,  807,  778
 697,  804,  810,  797,  796
 698,  810,  809,  798,  797
 699,  803,  808,  810,  804
 700,  808,  807,  809,  810
 701,  828,  829,  824,  825
 702,  829,  820,  821,  824
 703,  813,  814,  829,  828
 704,  814,  815,  820,  829
 705,  825,  826,  830,  828
 706,  828,  830,  812,  813
 707,  696,  831,  827,  695
 708,  831,  830,  826,  827
 709,  697,  811,  831,  696
 710,  811,  812,  830,  831
 711,  832,  834,  724,  723
 712,  834,  823,  725,  724
 713,  833,  835,  834,  832
 714,  835,  822,  823,  834
 715,  825,  824,  835,  833
 716,  824,  821,  822,  835
 717,  693,  836,  721,  692
 718,  836,  837,  722,  721
 719,  837,  832,  723,  722
 720,  695,  827,  838,  694
 721,  694,  838,  836,  693
 722,  833,  839,  826,  825
 723,  839,  838,  827,  826
 724,  832,  837,  839,  833
 725,  837,  836,  838,  839
 726,  844,  845,  840,  841
 727,  845,  707,  708,  840
 728,  818,  819,  845,  844
 729,  819,  706,  707,  845
 730,  841,  842,  846,  844
 731,  844,  846,  817,  818
 732,  820,  847,  843,  821
 733,  847,  846,  842,  843
 734,  815,  816,  847,  820
 735,  816,  817,  846,  847
 736,  848,  850,  729,  728
 737,  850,  710,  711,  729
 738,  849,  851,  850,  848
 739,  851,  709,  710,  850
 740,  841,  840,  851,  849
 741,  840,  708,  709,  851
 742,  823,  852,  726,  725
 743,  852,  853,  727,  726
 744,  853,  848,  728,  727
 745,  821,  843,  854,  822
 746,  822,  854,  852,  823
 747,  849,  855,  842,  841
 748,  855,  854,  843,  842
 749,  848,  853,  855,  849
 750,  853,  852,  854,  855
 751,  857,  860,  865,  856
 752,  856,  865,  477,  476
 753,  860,  861,  864,  865
 754,  865,  864,  478,  477
 755,  861,  862,  866,  864
 756,  864,  866,  479,  478
 757,  701,  867,  863,  700
 758,  867,  866,  862,  863
 759,  481,  480,  867,  701
 760,  480,  479,  866,  867
 761,  868,  870,  814,  813
 762,  870,  859,  815,  814
 763,  869,  871,  870,  868
 764,  871,  858,  859,  870
 765,  861,  860,  871,  869
 766,  860,  857,  858,  871
 767,  698,  872,  811,  697
 768,  872,  873,  812,  811
 769,  873,  868,  813,  812
 770,  700,  863,  874,  699
 771,  699,  874,  872,  698
 772,  863,  862,  875,  874
 773,  874,  875,  873,  872
 774,  862,  861,  869,  875
 775,  875,  869,  868,  873
 776,  703,  876,  881,  702
 777,  702,  881,  472,  471
 778,  876,  877,  880,  881
 779,  881,  880,  473,  472
 780,  877,  878,  882,  880
 781,  880,  882,  474,  473
 782,  856,  883,  879,  857
 783,  883,  882,  878,  879
 784,  476,  475,  883,  856
 785,  475,  474,  882,  883
 786,  884,  886,  819,  818
 787,  886,  705,  706,  819
 788,  885,  887,  886,  884
 789,  887,  704,  705,  886
 790,  877,  876,  887,  885
 791,  876,  703,  704,  887
 792,  859,  888,  816,  815
 793,  888,  889,  817,  816
 794,  889,  884,  818,  817
 795,  857,  879,  890,  858
 796,  858,  890,  888,  859
 797,  885,  891,  878,  877
 798,  891,  890,  879,  878
 799,  884,  889,  891,  885
 800,  889,  888,  890,  891
 801,  938,  939,  934,  935
 802,  939,  930,  931,  934
 803,  923,  924,  939,  938
 804,  924,  925,  930,  939
 805,  935,  936,  940,  938
 806,  938,  940,  922,  923
 807,  906,  941,  937,  905
 808,  941,  940,  936,  937
 809,  907,  921,  941,  906
 810,  921,  922,  940,  941
 811,  942,  944,  898,  899
 812,  944,  933,  897,  898
 813,  943,  945,  944,  942
 814,  945,  932,  933,  944
 815,  935,  934,  945,  943
 816,  934,  931,  932,  945
 817,  903,  946,  901,  902
 818,  946,  947,  900,  901
 819,  947,  942,  899,  900
 820,  905,  937,  948,  904
 821,  904,  948,  946,  903
 822,  943,  949,  936,  935
 823,  949,  948,  937,  936
 824,  942,  947,  949,  943
 825,  947,  946,  948,  949
 826,  954,  955,  950,  951
 827,  955,  917,  918,  950
 828,  928,  929,  955,  954
 829,  929,  916,  917,  955
 830,  951,  952,  956,  954
 831,  954,  956,  927,  928
 832,  930,  957,  953,  931
 833,  957,  956,  952,  953
 834,  925,  926,  957,  930
 835,  926,  927,  956,  957
 836,  958,  960,  893,  894
 837,  960,  920,  892,  893
 838,  959,  961,  960,  958
 839,  961,  919,  920,  960
 840,  951,  950,  961,  959
 841,  950,  918,  919,  961
 842,  933,  962,  896,  897
 843,  962,  963,  895,  896
 844,  963,  958,  894,  895
 845,  931,  953,  964,  932
 846,  932,  964,  962,  933
 847,  959,  965,  952,  951
 848,  965,  964,  953,  952
 849,  958,  963,  965,  959
 850,  963,  962,  964,  965
 851,  974,  975,  970,  971
 852,  975,  966,  967,  970
 853,  474,  475,  975,  974
 854,  475,  476,  966,  975
 855,  971,  972,  976,  974
 856,  974,  976,  473,  474
 857,  911,  977,  973,  910
 858,  977,  976,  972,  973
 859,  471,  472,  977,  911
 860,  472,  473,  976,  977
 861,  978,  980,  924,  923
 862,  980,  969,  925,  924
 863,  979,  981,  980,  978
 864,  981,  968,  969,  980
 865,  971,  970,  981,  979
 866,  970,  967,  968,  981
 867,  908,  982,  921,  907
 868,  982,  983,  922,  921
 869,  983,  978,  923,  922
 870,  910,  973,  984,  909
 871,  909,  984,  982,  908
 872,  979,  985,  972,  971
 873,  985,  984,  973,  972
 874,  978,  983,  985,  979
 875,  983,  982,  984,  985
 876,  990,  991,  986,  987
 877,  991,  912,  913,  986
 878,  479,  480,  991,  990
 879,  480,  481,  912,  991
 880,  987,  988,  992,  990
 881,  990,  992,  478,  479
 882,  966,  993,  989,  967
 883,  993,  992,  988,  989
 884,  476,  477,  993,  966
 885,  477,  478,  992,  993
 886,  994,  996,  929,  928
 887,  996,  915,  916,  929
 888,  995,  997,  996,  994
 889,  997,  914,  915,  996
 890,  987,  986,  997,  995
 891,  986,  913,  914,  997
 892,  969,  998,  926,  925
 893,  998,  999,  927,  926
 894,  999,  994,  928,  927
 895,  967,  989, 1000,  968
 896,  968, 1000,  998,  969
 897,  995, 1001,  988,  987
 898, 1001, 1000,  989,  988
 899,  994,  999, 1001,  995
 900,  999,  998, 1000, 1001
 901, 1048, 1049, 1044, 1045
 902, 1049, 1040, 1041, 1044
 903, 1033, 1034, 1049, 1048
 904, 1034, 1035, 1040, 1049
 905, 1045, 1046, 1050, 1048
 906, 1048, 1050, 1032, 1033
 907, 1016, 1051, 1047, 1015
 908, 1051, 1050, 1046, 1047
 909, 1017, 1031, 1051, 1016
 910, 1031, 1032, 1050, 1051
 911, 1052, 1054, 1008, 1009
 912, 1054, 1043, 1007, 1008
 913, 1053, 1055, 1054, 1052
 914, 1055, 1042, 1043, 1054
 915, 1045, 1044, 1055, 1053
 916, 1044, 1041, 1042, 1055
 917, 1013, 1056, 1011, 1012
 918, 1056, 1057, 1010, 1011
 919, 1057, 1052, 1009, 1010
 920, 1015, 1047, 1058, 1014
 921, 1014, 1058, 1056, 1013
 922, 1053, 1059, 1046, 1045
 923, 1059, 1058, 1047, 1046
 924, 1052, 1057, 1059, 1053
 925, 1057, 1056, 1058, 1059
 926, 1064, 1065, 1060, 1061
 927, 1065, 1027, 1028, 1060
 928, 1038, 1039, 1065, 1064
 929, 1039, 1026, 1027, 1065
 930, 1061, 1062, 1066, 1064
 931, 1064, 1066, 1037, 1038
 932, 1040, 1067, 1063, 1041
 933, 1067, 1066, 1062, 1063
 934, 1035, 1036, 1067, 1040
 935, 1036, 1037, 1066, 1067
 936, 1068, 1070, 1003, 1004
 937, 1070, 1030, 1002, 1003
 938, 1069, 1071, 1070, 1068
 939, 1071, 1029, 1030, 1070
 940, 1061, 1060, 1071, 1069
 941, 1060, 1028, 1029, 1071
 942, 1043, 1072, 1006, 1007
 943, 1072, 1073, 1005, 1006
 944, 1073, 1068, 1004, 1005
 945, 1041, 1063, 1074, 1042
 946, 1042, 1074, 1072, 1043
 947, 1069, 1075, 1062, 1061
 948, 1075, 1074, 1063, 1062
 949, 1068, 1073, 1075, 1069
 950, 1073, 1072, 1074, 1075
 951, 1084, 1085, 1080, 1081
 952, 1085, 1076, 1077, 1080
 953,  258,  257, 1085, 1084
 954,  257,  256, 1076, 1085
 955, 1081, 1082, 1086, 1084
 956, 1084, 1086,  259,  258
 957, 1021, 1087, 1083, 1020
 958, 1087, 1086, 1082, 1083
 959,  261,  260, 1087, 1021
 960,  260,  259, 1086, 1087
 961, 1088, 1090, 1034, 1033
 962, 1090, 1079, 1035, 1034
 963, 1089, 1091, 1090, 1088
 964, 1091, 1078, 1079, 1090
 965, 1081, 1080, 1091, 1089
 966, 1080, 1077, 1078, 1091
 967, 1018, 1092, 1031, 1017
 968, 1092, 1093, 1032, 1031
 969, 1093, 1088, 1033, 1032
 970, 1020, 1083, 1094, 1019
 971, 1019, 1094, 1092, 1018
 972, 1089, 1095, 1082, 1081
 973, 1095, 1094, 1083, 1082
 974, 1088, 1093, 1095, 1089
 975, 1093, 1092, 1094, 1095
 976, 1100, 1101, 1096, 1097
 977, 1101, 1022, 1023, 1096
 978,  253,  252, 1101, 1100
 979,  252,  251, 1022, 1101
 980, 1097, 1098, 1102, 1100
 981, 1100, 1102,  254,  253
 982, 1076, 1103, 1099, 1077
 983, 1103, 1102, 1098, 1099
 984,  256,  255, 1103, 1076
 985,  255,  254, 1102, 1103
 986, 1104, 1106, 1039, 1038
 987, 1106, 1025, 1026, 1039
 988, 1105, 1107, 1106, 1104
 989, 1107, 1024, 1025, 1106
 990, 1097, 1096, 1107, 1105
 991, 1096, 1023, 1024, 1107
 992, 1079, 1108, 1036, 1035
 993, 1108, 1109, 1037, 1036
 994, 1109, 1104, 1038, 1037
 995, 1077, 1099, 1110, 1078
 996, 1078, 1110, 1108, 1079
 997, 1105, 1111, 1098, 1097
 998, 1111, 1110, 1099, 1098
 999, 1104, 1109, 1111, 1105
1000, 1109, 1108, 1110, 1111
1001, 1187, 1188, 1183, 1184
1002, 1188, 1179, 1180, 1183
1003, 1172, 1173, 1188, 1187
1004, 1173, 1174, 1179, 1188
1005, 1184, 1185, 1189, 1187
1006, 1187, 1189, 1171, 1172
1007, 1126, 1190, 1186, 1125
1008, 1190, 1189, 1185, 1186
1009, 1127, 1170, 1190, 1126
1010, 1170, 1171, 1189, 1190
1011, 1191, 1193, 1118, 1119
1012, 1193, 1182, 1117, 1118
1013, 1192, 1194, 1193, 1191
1014, 1194, 1181, 1182, 1193
1015, 1184, 1183, 1194, 1192
1016, 1183, 1180, 1181, 1194
1017, 1123, 1195, 1121, 1122
1018, 1195, 1196, 1120, 1121
1019, 1196, 1191, 1119, 1120
1020, 1125, 1186, 1197, 1124
1021, 1124, 1197, 1195, 1123
1022, 1192, 1198, 1185, 1184
1023, 1198, 1197, 1186, 1185
1024, 1191, 1196, 1198, 1192
1025, 1196, 1195, 1197, 1198
1026, 1203, 1204, 1199, 1200
1027, 1204, 1157, 1158, 1199
1028, 1177, 1178, 1204, 1203
1029, 1178, 1156, 1157, 1204
1030, 1200, 1201, 1205, 1203
1031, 1203, 1205, 1176, 1177
1032, 1179, 1206, 1202, 1180
1033, 1206, 1205, 1201, 1202
1034, 1174, 1175, 1206, 1179
1035, 1175, 1176, 1205, 1206
1036, 1207, 1209, 1113, 1114
1037, 1209, 1160, 1112, 1113
1038, 1208, 1210, 1209, 1207
1039, 1210, 1159, 1160, 1209
1040, 1200, 1199, 1210, 1208
1041, 1199, 1158, 1159, 1210
1042, 1182, 1211, 1116, 1117
1043, 1211, 1212, 1115, 1116
1044, 1212, 1207, 1114, 1115
1045, 1180, 1202, 1213, 1181
1046, 1181, 1213, 1211, 1182
1047, 1208, 1214, 1201, 1200
1048, 1214, 1213, 1202, 1201
1049, 1207, 1212, 1214, 1208
1050, 1212, 1211, 1213, 1214
1051, 1223, 1224, 1219, 1220
1052, 1224, 1215, 1216, 1219
1053, 1163, 1164, 1224, 1223
1054, 1164, 1165, 1215, 1224
1055, 1220, 1221, 1225, 1223
1056, 1223, 1225, 1162, 1163
1057, 1131, 1226, 1222, 1130
1058, 1226, 1225, 1221, 1222
1059, 1132, 1161, 1226, 1131
1060, 1161, 1162, 1225, 1226
1061, 1227, 1229, 1173, 1172
1062, 1229, 1218, 1174, 1173
1063, 1228, 1230, 1229, 1227
1064, 1230, 1217, 1218, 1229
1065, 1220, 1219, 1230, 1228
1066, 1219, 1216, 1217, 1230
1067, 1128, 1231, 1170, 1127
1068, 1231, 1232, 1171, 1170
1069, 1232, 1227, 1172, 1171
1070, 1130, 1222, 1233, 1129
1071, 1129, 1233, 1231, 1128
1072, 1228, 1234, 1221, 1220
1073, 1234, 1233, 1222, 1221
1074, 1227, 1232, 1234, 1228
1075, 1232, 1231, 1233, 1234
1076, 1239, 1240, 1235, 1236
1077, 1240, 1152, 1153, 1235
1078, 1168, 1169, 1240, 1239
1079, 1169, 1151, 1152, 1240
1080, 1236, 1237, 1241, 1239
1081, 1239, 1241, 1167, 1168
1082, 1215, 1242, 1238, 1216
1083, 1242, 1241, 1237, 1238
1084, 1165, 1166, 1242, 1215
1085, 1166, 1167, 1241, 1242
1086, 1243, 1245, 1178, 1177
1087, 1245, 1155, 1156, 1178
1088, 1244, 1246, 1245, 1243
1089, 1246, 1154, 1155, 1245
1090, 1236, 1235, 1246, 1244
1091, 1235, 1153, 1154, 1246
1092, 1218, 1247, 1175, 1174
1093, 1247, 1248, 1176, 1175
1094, 1248, 1243, 1177, 1176
1095, 1216, 1238, 1249, 1217
1096, 1217, 1249, 1247, 1218
1097, 1244, 1250, 1237, 1236
1098, 1250, 1249, 1238, 1237
1099, 1243, 1248, 1250, 1244
1100, 1248, 1247, 1249, 1250
1101, 1268, 1269, 1264, 1265
1102, 1269, 1260, 1261, 1264
1103, 1253, 1254, 1269, 1268
1104, 1254, 1255, 1260, 1269
1105, 1265, 1266, 1270, 1268
1106, 1268, 1270, 1252, 1253
1107, 1136, 1271, 1267, 1135
1108, 1271, 1270, 1266, 1267
1109, 1137, 1251, 1271, 1136
1110, 1251, 1252, 1270, 1271
1111, 1272, 1274, 1164, 1163
1112, 1274, 1263, 1165, 1164
1113, 1273, 1275, 1274, 1272
1114, 1275, 1262, 1263, 1274
1115, 1265, 1264, 1275, 1273
1116, 1264, 1261, 1262, 1275
1117, 1133, 1276, 1161, 1132
1118, 1276, 1277, 1162, 1161
1119, 1277, 1272, 1163, 1162
1120, 1135, 1267, 1278, 1134
1121, 1134, 1278, 1276, 1133
1122, 1273, 1279, 1266, 1265
1123, 1279, 1278, 1267, 1266
1124, 1272, 1277, 1279, 1273
1125, 1277, 1276, 1278, 1279
1126, 1284, 1285, 1280, 1281
1127, 1285, 1147, 1148, 1280
1128, 1258, 1259, 1285, 1284
1129, 1259, 1146, 1147, 1285
1130, 1281, 1282, 1286, 1284
1131, 1284, 1286, 1257, 1258
1132, 1260, 1287, 1283, 1261
1133, 1287, 1286, 1282, 1283
1134, 1255, 1256, 1287, 1260
1135, 1256, 1257, 1286, 1287
1136, 1288, 1290, 1169, 1168
1137, 1290, 1150, 1151, 1169
1138, 1289, 1291, 1290, 1288
1139, 1291, 1149, 1150, 1290
1140, 1281, 1280, 1291, 1289
1141, 1280, 1148, 1149, 1291
1142, 1263, 1292, 1166, 1165
1143, 1292, 1293, 1167, 1166
1144, 1293, 1288, 1168, 1167
1145, 1261, 1283, 1294, 1262
1146, 1262, 1294, 1292, 1263
1147, 1283, 1282, 1295, 1294
1148, 1294, 1295, 1293, 1292
1149, 1282, 1281, 1289, 1295
1150, 1295, 1289, 1288, 1293
1151, 1304, 1305, 1300, 1301
1152, 1305, 1296, 1297, 1300
1153,  258,  257, 1305, 1304
1154,  257,  256, 1296, 1305
1155, 1301, 1302, 1306, 1304
1156, 1304, 1306,  259,  258
1157, 1141, 1307, 1303, 1140
1158, 1307, 1306, 1302, 1303
1159,  261,  260, 1307, 1141
1160,  260,  259, 1306, 1307
1161, 1308, 1310, 1254, 1253
1162, 1310, 1299, 1255, 1254
1163, 1309, 1311, 1310, 1308
1164, 1311, 1298, 1299, 1310
1165, 1301, 1300, 1311, 1309
1166, 1300, 1297, 1298, 1311
1167, 1138, 1312, 1251, 1137
1168, 1312, 1313, 1252, 1251
1169, 1313, 1308, 1253, 1252
1170, 1140, 1303, 1314, 1139
1171, 1139, 1314, 1312, 1138
1172, 1309, 1315, 1302, 1301
1173, 1315, 1314, 1303, 1302
1174, 1308, 1313, 1315, 1309
1175, 1313, 1312, 1314, 1315
1176, 1320, 1321, 1316, 1317
1177, 1321, 1142, 1143, 1316
1178,  253,  252, 1321, 1320
1179,  252,  251, 1142, 1321
1180, 1317, 1318, 1322, 1320
1181, 1320, 1322,  254,  253
1182, 1296, 1323, 1319, 1297
1183, 1323, 1322, 1318, 1319
1184,  256,  255, 1323, 1296
1185,  255,  254, 1322, 1323
1186, 1324, 1326, 1259, 1258
1187, 1326, 1145, 1146, 1259
1188, 1325, 1327, 1326, 1324
1189, 1327, 1144, 1145, 1326
1190, 1317, 1316, 1327, 1325
1191, 1316, 1143, 1144, 1327
1192, 1299, 1328, 1256, 1255
1193, 1328, 1329, 1257, 1256
1194, 1329, 1324, 1258, 1257
1195, 1297, 1319, 1330, 1298
1196, 1298, 1330, 1328, 1299
1197, 1325, 1331, 1318, 1317
1198, 1331, 1330, 1319, 1318
1199, 1324, 1329, 1331, 1325
1200, 1329, 1328, 1330, 1331
1201, 1392, 1397, 1388, 1389
1202, 1397, 1382, 1383, 1388
1203, 1393, 1396, 1397, 1392
1204, 1396, 1381, 1382, 1397
1205, 1394, 1398, 1396, 1393
1206, 1398, 1380, 1381, 1396
1207, 1372, 1373, 1399, 1395
1208, 1395, 1399, 1398, 1394
1209, 1373, 1374, 1379, 1399
1210, 1399, 1379, 1380, 1398
1211, 1338, 1400, 1402, 1337
1212, 1337, 1402, 1391, 1336
1213, 1400, 1401, 1403, 1402
1214, 1402, 1403, 1390, 1391
1215, 1401, 1393, 1392, 1403
1216, 1403, 1392, 1389, 1390
1217, 1341, 1370, 1404, 1340
1218, 1340, 1404, 1405, 1339
1219, 1339, 1405, 1400, 1338
1220, 1395, 1406, 1371, 1372
1221, 1406, 1404, 1370, 1371
1222, 1393, 1401, 1407, 1394
1223, 1394, 1407, 1406, 1395
1224, 1401, 1400, 1405, 1407
1225, 1407, 1405, 1404, 1406
1226, 1409, 1412, 1413, 1408
1227, 1408, 1413,  676,  675
1228, 1412, 1386, 1387, 1413
1229, 1413, 1387,  677,  676
1230, 1410, 1414, 1412, 1409
1231, 1414, 1385, 1386, 1412
1232, 1389, 1388, 1415, 1411
1233, 1411, 1415, 1414, 1410
1234, 1388, 1383, 1384, 1415
1235, 1415, 1384, 1385, 1414
1236, 1333, 1416, 1418, 1332
1237, 1332, 1418,  673,  672
1238, 1416, 1417, 1419, 1418
1239, 1418, 1419,  674,  673
1240, 1417, 1409, 1408, 1419
1241, 1419, 1408,  675,  674
1242, 1336, 1391, 1420, 1335
1243, 1335, 1420, 1421, 1334
1244, 1334, 1421, 1416, 1333
1245, 1411, 1422, 1390, 1389
1246, 1422, 1420, 1391, 1390
1247, 1409, 1417, 1423, 1410
1248, 1410, 1423, 1422, 1411
1249, 1417, 1416, 1421, 1423
1250, 1423, 1421, 1420, 1422
1251, 1429, 1432, 1433, 1428
1252, 1428, 1433, 1424, 1425
1253, 1432, 1363, 1364, 1433
1254, 1433, 1364, 1365, 1424
1255, 1430, 1434, 1432, 1429
1256, 1434, 1362, 1363, 1432
1257, 1377, 1378, 1435, 1431
1258, 1431, 1435, 1434, 1430
1259, 1378, 1360, 1361, 1435
1260, 1435, 1361, 1362, 1434
1261, 1381, 1436, 1438, 1382
1262, 1382, 1438, 1427, 1383
1263, 1428, 1439, 1437, 1429
1264, 1439, 1438, 1436, 1437
1265, 1425, 1426, 1439, 1428
1266, 1426, 1427, 1438, 1439
1267, 1380, 1440, 1436, 1381
1268, 1440, 1441, 1437, 1436
1269, 1441, 1430, 1429, 1437
1270, 1374, 1375, 1442, 1379
1271, 1379, 1442, 1440, 1380
1272, 1375, 1376, 1443, 1442
1273, 1442, 1443, 1441, 1440
1274, 1376, 1377, 1431, 1443
1275, 1443, 1431, 1430, 1441
1276, 1445, 1448, 1449, 1444
1277, 1444, 1449,  681,  680
1278, 1448, 1368, 1369, 1449
1279, 1449, 1369,  682,  681
1280, 1446, 1450, 1448, 1445
1281, 1450, 1367, 1368, 1448
1282, 1425, 1424, 1451, 1447
1283, 1447, 1451, 1450, 1446
1284, 1424, 1365, 1366, 1451
1285, 1451, 1366, 1367, 1450
1286, 1386, 1452, 1454, 1387
1287, 1387, 1454,  678,  677
1288, 1452, 1453, 1455, 1454
1289, 1454, 1455,  679,  678
1290, 1453, 1445, 1444, 1455
1291, 1455, 1444,  680,  679
1292, 1383, 1427, 1456, 1384
1293, 1384, 1456, 1457, 1385
1294, 1385, 1457, 1452, 1386
1295, 1447, 1458, 1426, 1425
1296, 1458, 1456, 1427, 1426
1297, 1446, 1459, 1458, 1447
1298, 1459, 1457, 1456, 1458
1299, 1445, 1453, 1459, 1446
1300, 1453, 1452, 1457, 1459
1301, 1474, 1477, 1478, 1473
1302, 1473, 1478, 1469, 1470
1303, 1477, 1462, 1463, 1478
1304, 1478, 1463, 1464, 1469
1305, 1475, 1479, 1477, 1474
1306, 1479, 1461, 1462, 1477
1307, 1119, 1118, 1480, 1476
1308, 1476, 1480, 1479, 1475
1309, 1118, 1117, 1460, 1480
1310, 1480, 1460, 1461, 1479
1311, 1348, 1481, 1483, 1347
1312, 1347, 1483, 1472, 1346
1313, 1481, 1482, 1484, 1483
1314, 1483, 1484, 1471, 1472
1315, 1482, 1474, 1473, 1484
1316, 1484, 1473, 1470, 1471
1317, 1122, 1121, 1485, 1350
1318, 1350, 1485, 1486, 1349
1319, 1349, 1486, 1481, 1348
1320, 1476, 1487, 1120, 1119
1321, 1487, 1485, 1121, 1120
1322, 1474, 1482, 1488, 1475
1323, 1475, 1488, 1487, 1476
1324, 1482, 1481, 1486, 1488
1325, 1488, 1486, 1485, 1487
1326, 1490, 1493, 1494, 1489
1327, 1489, 1494, 1373, 1372
1328, 1493, 1467, 1468, 1494
1329, 1494, 1468, 1374, 1373
1330, 1491, 1495, 1493, 1490
1331, 1495, 1466, 1467, 1493
1332, 1470, 1469, 1496, 1492
1333, 1492, 1496, 1495, 1491
1334, 1469, 1464, 1465, 1496
1335, 1496, 1465, 1466, 1495
1336, 1343, 1497, 1499, 1342
1337, 1342, 1499, 1370, 1341
1338, 1489, 1500, 1498, 1490
1339, 1500, 1499, 1497, 1498
1340, 1372, 1371, 1500, 1489
1341, 1371, 1370, 1499, 1500
1342, 1346, 1472, 1501, 1345
1343, 1345, 1501, 1502, 1344
1344, 1344, 1502, 1497, 1343
1345, 1492, 1503, 1471, 1470
1346, 1503, 1501, 1472, 1471
1347, 1490, 1498, 1504, 1491
1348, 1491, 1504, 1503, 1492
1349, 1498, 1497, 1502, 1504
1350, 1504, 1502, 1501, 1503
1351, 1510, 1513, 1514, 1509
1352, 1509, 1514, 1505, 1506
1353, 1513, 1353, 1354, 1514
1354, 1514, 1354, 1355, 1505
1355, 1511, 1515, 1513, 1510
1356, 1515, 1352, 1353, 1513
1357, 1114, 1113, 1516, 1512
1358, 1512, 1516, 1515, 1511
1359, 1113, 1112, 1351, 1516
1360, 1516, 1351, 1352, 1515
1361, 1462, 1517, 1519, 1463
1362, 1463, 1519, 1508, 1464
1363, 1509, 1520, 1518, 1510
1364, 1520, 1519, 1517, 1518
1365, 1506, 1507, 1520, 1509
1366, 1507, 1508, 1519, 1520
1367, 1117, 1116, 1521, 1460
1368, 1460, 1521, 1522, 1461
1369, 1461, 1522, 1517, 1462
1370, 1512, 1523, 1115, 1114
1371, 1523, 1521, 1116, 1115
1372, 1510, 1518, 1524, 1511
1373, 1511, 1524, 1523, 1512
1374, 1518, 1517, 1522, 1524
1375, 1524, 1522, 1521, 1523
1376, 1526, 1529, 1530, 1525
1377, 1525, 1530, 1378, 1377
1378, 1529, 1358, 1359, 1530
1379, 1530, 1359, 1360, 1378
1380, 1527, 1531, 1529, 1526
1381, 1531, 1357, 1358, 1529
1382, 1506, 1505, 1532, 1528
1383, 1528, 1532, 1531, 1527
1384, 1505, 1355, 1356, 1532
1385, 1532, 1356, 1357, 1531
1386, 1467, 1533, 1535, 1468
1387, 1468, 1535, 1375, 1374
1388, 1533, 1534, 1536, 1535
1389, 1535, 1536, 1376, 1375
1390, 1534, 1526, 1525, 1536
1391, 1536, 1525, 1377, 1376
1392, 1464, 1508, 1537, 1465
1393, 1465, 1537, 1538, 1466
1394, 1466, 1538, 1533, 1467
1395, 1528, 1539, 1507, 1506
1396, 1539, 1537, 1508, 1507
1397, 1527, 1540, 1539, 1528
1398, 1540, 1538, 1537, 1539
1399, 1526, 1534, 1540, 1527
1400, 1534, 1533, 1538, 1540
*Elset, elset=_PickedSet2, internal, generate
  801,  1000,     1
*Elset, elset=_PickedSet3, internal, generate
   1,  200,    1
*Elset, elset=_PickedSet4, internal, generate
 1201,  1400,     1
*Elset, elset=_PickedSet5, internal
  201,  202,  203,  204,  205,  206,  207,  208,  209,  210,  211,  212,  213,  214,  215,  216
  217,  218,  219,  220,  221,  222,  223,  224,  225,  226,  227,  228,  229,  230,  231,  232
  233,  234,  235,  236,  237,  238,  239,  240,  241,  242,  243,  244,  245,  246,  247,  248
  249,  250,  251,  252,  253,  254,  255,  256,  257,  258,  259,  260,  261,  262,  263,  264
  265,  266,  267,  268,  269,  270,  271,  272,  273,  274,  275,  276,  277,  278,  279,  280
  281,  282,  283,  284,  285,  286,  287,  288,  289,  290,  291,  292,  293,  294,  295,  296
  297,  298,  299,  300,  301,  302,  303,  304,  305,  306,  307,  308,  309,  310,  311,  312
  313,  314,  315,  316,  317,  318,  319,  320,  321,  322,  323,  324,  325,  326,  327,  328
  329,  330,  331,  332,  333,  334,  335,  336,  337,  338,  339,  340,  341,  342,  343,  344
  345,  346,  347,  348,  349,  350,  351,  352,  353,  354,  355,  356,  357,  358,  359,  360
  361,  362,  363,  364,  365,  366,  367,  368,  369,  370,  371,  372,  373,  374,  375,  376
  377,  378,  379,  380,  381,  382,  383,  384,  385,  386,  387,  388,  389,  390,  391,  392
  393,  394,  395,  396,  397,  398,  399,  400,  401,  402,  403,  404,  405,  406,  407,  408
  409,  410,  411,  412,  413,  414,  415,  416,  417,  418,  419,  420,  421,  422,  423,  424
  425,  426,  427,  428,  429,  430,  431,  432,  433,  434,  435,  436,  437,  438,  439,  440
  441,  442,  443,  444,  445,  446,  447,  448,  449,  450,  451,  452,  453,  454,  455,  456
  457,  458,  459,  460,  461,  462,  463,  464,  465,  466,  467,  468,  469,  470,  471,  472
  473,  474,  475,  476,  477,  478,  479,  480,  481,  482,  483,  484,  485,  486,  487,  488
  489,  490,  491,  492,  493,  494,  495,  496,  497,  498,  499,  500,  501,  502,  503,  504
  505,  506,  507,  508,  509,  510,  511,  512,  513,  514,  515,  516,  517,  518,  519,  520
  521,  522,  523,  524,  525,  526,  527,  528,  529,  530,  531,  532,  533,  534,  535,  536
  537,  538,  539,  540,  541,  542,  543,  544,  545,  546,  547,  548,  549,  550,  551,  552
  553,  554,  555,  556,  557,  558,  559,  560,  561,  562,  563,  564,  565,  566,  567,  568
  569,  570,  571,  572,  573,  574,  575,  576,  577,  578,  579,  580,  581,  582,  583,  584
  585,  586,  587,  588,  589,  590,  591,  592,  593,  594,  595,  596,  597,  598,  599,  600
  601,  602,  603,  604,  605,  606,  607,  608,  609,  610,  611,  612,  613,  614,  615,  616
  617,  618,  619,  620,  621,  622,  623,  624,  625,  626,  627,  628,  629,  630,  631,  632
  633,  634,  635,  636,  637,  638,  639,  640,  641,  642,  643,  644,  645,  646,  647,  648
  649,  650,  651,  652,  653,  654,  655,  656,  657,  658,  659,  660,  661,  662,  663,  664
  665,  666,  667,  668,  669,  670,  671,  672,  673,  674,  675,  676,  677,  678,  679,  680
  681,  682,  683,  684,  685,  686,  687,  688,  689,  690,  691,  692,  693,  694,  695,  696
  697,  698,  699,  700,  701,  702,  703,  704,  705,  706,  707,  708,  709,  710,  711,  712
  713,  714,  715,  716,  717,  718,  719,  720,  721,  722,  723,  724,  725,  726,  727,  728
  729,  730,  731,  732,  733,  734,  735,  736,  737,  738,  739,  740,  741,  742,  743,  744
  745,  746,  747,  748,  749,  750,  751,  752,  753,  754,  755,  756,  757,  758,  759,  760
  761,  762,  763,  764,  765,  766,  767,  768,  769,  770,  771,  772,  773,  774,  775,  776
  777,  778,  779,  780,  781,  782,  783,  784,  785,  786,  787,  788,  789,  790,  791,  792
  793,  794,  795,  796,  797,  798,  799,  800, 1001, 1002, 1003, 1004, 1005, 1006, 1007, 1008
 1009, 1010, 1011, 1012, 1013, 1014, 1015, 1016, 1017, 1018, 1019, 1020, 1021, 1022, 1023, 1024
 1025, 1026, 1027, 1028, 1029, 1030, 1031, 1032, 1033, 1034, 1035, 1036, 1037, 1038, 1039, 1040
 1041, 1042, 1043, 1044, 1045, 1046, 1047, 1048, 1049, 1050, 1051, 1052, 1053, 1054, 1055, 1056
 1057, 1058, 1059, 1060, 1061, 1062, 1063, 1064, 1065, 1066, 1067, 1068, 1069, 1070, 1071, 1072
 1073, 1074, 1075, 1076, 1077, 1078, 1079, 1080, 1081, 1082, 1083, 1084, 1085, 1086, 1087, 1088
 1089, 1090, 1091, 1092, 1093, 1094, 1095, 1096, 1097, 1098, 1099, 1100, 1101, 1102, 1103, 1104
 1105, 1106, 1107, 1108, 1109, 1110, 1111, 1112, 1113, 1114, 1115, 1116, 1117, 1118, 1119, 1120
 1121, 1122, 1123, 1124, 1125, 1126, 1127, 1128, 1129, 1130, 1131, 1132, 1133, 1134, 1135, 1136
 1137, 1138, 1139, 1140, 1141, 1142, 1143, 1144, 1145, 1146, 1147, 1148, 1149, 1150, 1151, 1152
 1153, 1154, 1155, 1156, 1157, 1158, 1159, 1160, 1161, 1162, 1163, 1164, 1165, 1166, 1167, 1168
 1169, 1170, 1171, 1172, 1173, 1174, 1175, 1176, 1177, 1178, 1179, 1180, 1181, 1182, 1183, 1184
 1185, 1186, 1187, 1188, 1189, 1190, 1191, 1192, 1193, 1194, 1195, 1196, 1197, 1198, 1199, 1200
** Section: Section-0P05
*Shell Section, elset=_PickedSet3, material=Material-1, offset=SPOS
0.05, 5
** Section: Section-0P05
*Shell Section, elset=_PickedSet5, material=Material-1
0.05, 5
** Section: Section-0P1
*Shell Section, elset=_PickedSet2, material=Material-1
0.1, 5
** Section: Section-0P05
*Shell Section, elset=_PickedSet4, material=Material-1, offset=SPOS
0.05, 5
*End Part
**  
**
** ASSEMBLY
**
*Assembly, name=Assembly
**  
*Instance, name=PART-1-1, part=PART-1
*End Instance
**  
*End Assembly
** 
** MATERIALS
** 
*Material, name=Material-1
*Elastic
1., 0.3
