*Heading
** Job name: Plate_T4 Model name: Model-1
** Generated by: Abaqus/CAE 2020
*Preprint, echo=NO, model=NO, history=NO, contact=NO
**
** PARTS
**
*Part, name=Part-1
*Node
      1,          -1.,          -1.,  0.100000001
      2,          -1., -0.857142866,  0.100000001
      3,          -1., -0.714285731,  0.100000001
      4,          -1., -0.571428597,  0.100000001
      5,          -1., -0.428571433,  0.100000001
      6,          -1., -0.285714298,  0.100000001
      7,          -1., -0.142857149,  0.100000001
      8,          -1.,           0.,  0.100000001
      9,          -1.,  0.142857149,  0.100000001
     10,          -1.,  0.285714298,  0.100000001
     11,          -1.,  0.428571433,  0.100000001
     12,          -1.,  0.571428597,  0.100000001
     13,          -1.,  0.714285731,  0.100000001
     14,          -1.,  0.857142866,  0.100000001
     15,          -1.,           1.,  0.100000001
     16,          -1.,          -1.,  0.075000003
     17,          -1., -0.857142866,  0.075000003
     18,          -1., -0.714285731,  0.075000003
     19,          -1., -0.571428597,  0.075000003
     20,          -1., -0.428571433,  0.075000003
     21,          -1., -0.285714298,  0.075000003
     22,          -1., -0.142857149,  0.075000003
     23,          -1.,           0.,  0.075000003
     24,          -1.,  0.142857149,  0.075000003
     25,          -1.,  0.285714298,  0.075000003
     26,          -1.,  0.428571433,  0.075000003
     27,          -1.,  0.571428597,  0.075000003
     28,          -1.,  0.714285731,  0.075000003
     29,          -1.,  0.857142866,  0.075000003
     30,          -1.,           1.,  0.075000003
     31,          -1.,          -1., 0.0500000007
     32,          -1., -0.857142866, 0.0500000007
     33,          -1., -0.714285731, 0.0500000007
     34,          -1., -0.571428597, 0.0500000007
     35,          -1., -0.428571433, 0.0500000007
     36,          -1., -0.285714298, 0.0500000007
     37,          -1., -0.142857149, 0.0500000007
     38,          -1.,           0., 0.0500000007
     39,          -1.,  0.142857149, 0.0500000007
     40,          -1.,  0.285714298, 0.0500000007
     41,          -1.,  0.428571433, 0.0500000007
     42,          -1.,  0.571428597, 0.0500000007
     43,          -1.,  0.714285731, 0.0500000007
     44,          -1.,  0.857142866, 0.0500000007
     45,          -1.,           1., 0.0500000007
     46,          -1.,          -1., 0.0250000004
     47,          -1., -0.857142866, 0.0250000004
     48,          -1., -0.714285731, 0.0250000004
     49,          -1., -0.571428597, 0.0250000004
     50,          -1., -0.428571433, 0.0250000004
     51,          -1., -0.285714298, 0.0250000004
     52,          -1., -0.142857149, 0.0250000004
     53,          -1.,           0., 0.0250000004
     54,          -1.,  0.142857149, 0.0250000004
     55,          -1.,  0.285714298, 0.0250000004
     56,          -1.,  0.428571433, 0.0250000004
     57,          -1.,  0.571428597, 0.0250000004
     58,          -1.,  0.714285731, 0.0250000004
     59,          -1.,  0.857142866, 0.0250000004
     60,          -1.,           1., 0.0250000004
     61,          -1.,          -1.,           0.
     62,          -1., -0.857142866,           0.
     63,          -1., -0.714285731,           0.
     64,          -1., -0.571428597,           0.
     65,          -1., -0.428571433,           0.
     66,          -1., -0.285714298,           0.
     67,          -1., -0.142857149,           0.
     68,          -1.,           0.,           0.
     69,          -1.,  0.142857149,           0.
     70,          -1.,  0.285714298,           0.
     71,          -1.,  0.428571433,           0.
     72,          -1.,  0.571428597,           0.
     73,          -1.,  0.714285731,           0.
     74,          -1.,  0.857142866,           0.
     75,          -1.,           1.,           0.
     76, -0.866666675,          -1.,  0.100000001
     77, -0.866666675, -0.857142866,  0.100000001
     78, -0.866666675, -0.714285731,  0.100000001
     79, -0.866666675, -0.571428597,  0.100000001
     80, -0.866666675, -0.428571433,  0.100000001
     81, -0.866666675, -0.285714298,  0.100000001
     82, -0.866666675, -0.142857149,  0.100000001
     83, -0.866666675,           0.,  0.100000001
     84, -0.866666675,  0.142857149,  0.100000001
     85, -0.866666675,  0.285714298,  0.100000001
     86, -0.866666675,  0.428571433,  0.100000001
     87, -0.866666675,  0.571428597,  0.100000001
     88, -0.866666675,  0.714285731,  0.100000001
     89, -0.866666675,  0.857142866,  0.100000001
     90, -0.866666675,           1.,  0.100000001
     91, -0.866666675,          -1.,  0.075000003
     92, -0.866666675, -0.857142866,  0.075000003
     93, -0.866666675, -0.714285731,  0.075000003
     94, -0.866666675, -0.571428597,  0.075000003
     95, -0.866666675, -0.428571433,  0.075000003
     96, -0.866666675, -0.285714298,  0.075000003
     97, -0.866666675, -0.142857149,  0.075000003
     98, -0.866666675,           0.,  0.075000003
     99, -0.866666675,  0.142857149,  0.075000003
    100, -0.866666675,  0.285714298,  0.075000003
    101, -0.866666675,  0.428571433,  0.075000003
    102, -0.866666675,  0.571428597,  0.075000003
    103, -0.866666675,  0.714285731,  0.075000003
    104, -0.866666675,  0.857142866,  0.075000003
    105, -0.866666675,           1.,  0.075000003
    106, -0.866666675,          -1., 0.0500000007
    107, -0.866666675, -0.857142866, 0.0500000007
    108, -0.866666675, -0.714285731, 0.0500000007
    109, -0.866666675, -0.571428597, 0.0500000007
    110, -0.866666675, -0.428571433, 0.0500000007
    111, -0.866666675, -0.285714298, 0.0500000007
    112, -0.866666675, -0.142857149, 0.0500000007
    113, -0.866666675,           0., 0.0500000007
    114, -0.866666675,  0.142857149, 0.0500000007
    115, -0.866666675,  0.285714298, 0.0500000007
    116, -0.866666675,  0.428571433, 0.0500000007
    117, -0.866666675,  0.571428597, 0.0500000007
    118, -0.866666675,  0.714285731, 0.0500000007
    119, -0.866666675,  0.857142866, 0.0500000007
    120, -0.866666675,           1., 0.0500000007
    121, -0.866666675,          -1., 0.0250000004
    122, -0.866666675, -0.857142866, 0.0250000004
    123, -0.866666675, -0.714285731, 0.0250000004
    124, -0.866666675, -0.571428597, 0.0250000004
    125, -0.866666675, -0.428571433, 0.0250000004
    126, -0.866666675, -0.285714298, 0.0250000004
    127, -0.866666675, -0.142857149, 0.0250000004
    128, -0.866666675,           0., 0.0250000004
    129, -0.866666675,  0.142857149, 0.0250000004
    130, -0.866666675,  0.285714298, 0.0250000004
    131, -0.866666675,  0.428571433, 0.0250000004
    132, -0.866666675,  0.571428597, 0.0250000004
    133, -0.866666675,  0.714285731, 0.0250000004
    134, -0.866666675,  0.857142866, 0.0250000004
    135, -0.866666675,           1., 0.0250000004
    136, -0.866666675,          -1.,           0.
    137, -0.866666675, -0.857142866,           0.
    138, -0.866666675, -0.714285731,           0.
    139, -0.866666675, -0.571428597,           0.
    140, -0.866666675, -0.428571433,           0.
    141, -0.866666675, -0.285714298,           0.
    142, -0.866666675, -0.142857149,           0.
    143, -0.866666675,           0.,           0.
    144, -0.866666675,  0.142857149,           0.
    145, -0.866666675,  0.285714298,           0.
    146, -0.866666675,  0.428571433,           0.
    147, -0.866666675,  0.571428597,           0.
    148, -0.866666675,  0.714285731,           0.
    149, -0.866666675,  0.857142866,           0.
    150, -0.866666675,           1.,           0.
    151, -0.733333349,          -1.,  0.100000001
    152, -0.733333349, -0.857142866,  0.100000001
    153, -0.733333349, -0.714285731,  0.100000001
    154, -0.733333349, -0.571428597,  0.100000001
    155, -0.733333349, -0.428571433,  0.100000001
    156, -0.733333349, -0.285714298,  0.100000001
    157, -0.733333349, -0.142857149,  0.100000001
    158, -0.733333349,           0.,  0.100000001
    159, -0.733333349,  0.142857149,  0.100000001
    160, -0.733333349,  0.285714298,  0.100000001
    161, -0.733333349,  0.428571433,  0.100000001
    162, -0.733333349,  0.571428597,  0.100000001
    163, -0.733333349,  0.714285731,  0.100000001
    164, -0.733333349,  0.857142866,  0.100000001
    165, -0.733333349,           1.,  0.100000001
    166, -0.733333349,          -1.,  0.075000003
    167, -0.733333349, -0.857142866,  0.075000003
    168, -0.733333349, -0.714285731,  0.075000003
    169, -0.733333349, -0.571428597,  0.075000003
    170, -0.733333349, -0.428571433,  0.075000003
    171, -0.733333349, -0.285714298,  0.075000003
    172, -0.733333349, -0.142857149,  0.075000003
    173, -0.733333349,           0.,  0.075000003
    174, -0.733333349,  0.142857149,  0.075000003
    175, -0.733333349,  0.285714298,  0.075000003
    176, -0.733333349,  0.428571433,  0.075000003
    177, -0.733333349,  0.571428597,  0.075000003
    178, -0.733333349,  0.714285731,  0.075000003
    179, -0.733333349,  0.857142866,  0.075000003
    180, -0.733333349,           1.,  0.075000003
    181, -0.733333349,          -1., 0.0500000007
    182, -0.733333349, -0.857142866, 0.0500000007
    183, -0.733333349, -0.714285731, 0.0500000007
    184, -0.733333349, -0.571428597, 0.0500000007
    185, -0.733333349, -0.428571433, 0.0500000007
    186, -0.733333349, -0.285714298, 0.0500000007
    187, -0.733333349, -0.142857149, 0.0500000007
    188, -0.733333349,           0., 0.0500000007
    189, -0.733333349,  0.142857149, 0.0500000007
    190, -0.733333349,  0.285714298, 0.0500000007
    191, -0.733333349,  0.428571433, 0.0500000007
    192, -0.733333349,  0.571428597, 0.0500000007
    193, -0.733333349,  0.714285731, 0.0500000007
    194, -0.733333349,  0.857142866, 0.0500000007
    195, -0.733333349,           1., 0.0500000007
    196, -0.733333349,          -1., 0.0250000004
    197, -0.733333349, -0.857142866, 0.0250000004
    198, -0.733333349, -0.714285731, 0.0250000004
    199, -0.733333349, -0.571428597, 0.0250000004
    200, -0.733333349, -0.428571433, 0.0250000004
    201, -0.733333349, -0.285714298, 0.0250000004
    202, -0.733333349, -0.142857149, 0.0250000004
    203, -0.733333349,           0., 0.0250000004
    204, -0.733333349,  0.142857149, 0.0250000004
    205, -0.733333349,  0.285714298, 0.0250000004
    206, -0.733333349,  0.428571433, 0.0250000004
    207, -0.733333349,  0.571428597, 0.0250000004
    208, -0.733333349,  0.714285731, 0.0250000004
    209, -0.733333349,  0.857142866, 0.0250000004
    210, -0.733333349,           1., 0.0250000004
    211, -0.733333349,          -1.,           0.
    212, -0.733333349, -0.857142866,           0.
    213, -0.733333349, -0.714285731,           0.
    214, -0.733333349, -0.571428597,           0.
    215, -0.733333349, -0.428571433,           0.
    216, -0.733333349, -0.285714298,           0.
    217, -0.733333349, -0.142857149,           0.
    218, -0.733333349,           0.,           0.
    219, -0.733333349,  0.142857149,           0.
    220, -0.733333349,  0.285714298,           0.
    221, -0.733333349,  0.428571433,           0.
    222, -0.733333349,  0.571428597,           0.
    223, -0.733333349,  0.714285731,           0.
    224, -0.733333349,  0.857142866,           0.
    225, -0.733333349,           1.,           0.
    226, -0.600000024,          -1.,  0.100000001
    227, -0.600000024, -0.857142866,  0.100000001
    228, -0.600000024, -0.714285731,  0.100000001
    229, -0.600000024, -0.571428597,  0.100000001
    230, -0.600000024, -0.428571433,  0.100000001
    231, -0.600000024, -0.285714298,  0.100000001
    232, -0.600000024, -0.142857149,  0.100000001
    233, -0.600000024,           0.,  0.100000001
    234, -0.600000024,  0.142857149,  0.100000001
    235, -0.600000024,  0.285714298,  0.100000001
    236, -0.600000024,  0.428571433,  0.100000001
    237, -0.600000024,  0.571428597,  0.100000001
    238, -0.600000024,  0.714285731,  0.100000001
    239, -0.600000024,  0.857142866,  0.100000001
    240, -0.600000024,           1.,  0.100000001
    241, -0.600000024,          -1.,  0.075000003
    242, -0.600000024, -0.857142866,  0.075000003
    243, -0.600000024, -0.714285731,  0.075000003
    244, -0.600000024, -0.571428597,  0.075000003
    245, -0.600000024, -0.428571433,  0.075000003
    246, -0.600000024, -0.285714298,  0.075000003
    247, -0.600000024, -0.142857149,  0.075000003
    248, -0.600000024,           0.,  0.075000003
    249, -0.600000024,  0.142857149,  0.075000003
    250, -0.600000024,  0.285714298,  0.075000003
    251, -0.600000024,  0.428571433,  0.075000003
    252, -0.600000024,  0.571428597,  0.075000003
    253, -0.600000024,  0.714285731,  0.075000003
    254, -0.600000024,  0.857142866,  0.075000003
    255, -0.600000024,           1.,  0.075000003
    256, -0.600000024,          -1., 0.0500000007
    257, -0.600000024, -0.857142866, 0.0500000007
    258, -0.600000024, -0.714285731, 0.0500000007
    259, -0.600000024, -0.571428597, 0.0500000007
    260, -0.600000024, -0.428571433, 0.0500000007
    261, -0.600000024, -0.285714298, 0.0500000007
    262, -0.600000024, -0.142857149, 0.0500000007
    263, -0.600000024,           0., 0.0500000007
    264, -0.600000024,  0.142857149, 0.0500000007
    265, -0.600000024,  0.285714298, 0.0500000007
    266, -0.600000024,  0.428571433, 0.0500000007
    267, -0.600000024,  0.571428597, 0.0500000007
    268, -0.600000024,  0.714285731, 0.0500000007
    269, -0.600000024,  0.857142866, 0.0500000007
    270, -0.600000024,           1., 0.0500000007
    271, -0.600000024,          -1., 0.0250000004
    272, -0.600000024, -0.857142866, 0.0250000004
    273, -0.600000024, -0.714285731, 0.0250000004
    274, -0.600000024, -0.571428597, 0.0250000004
    275, -0.600000024, -0.428571433, 0.0250000004
    276, -0.600000024, -0.285714298, 0.0250000004
    277, -0.600000024, -0.142857149, 0.0250000004
    278, -0.600000024,           0., 0.0250000004
    279, -0.600000024,  0.142857149, 0.0250000004
    280, -0.600000024,  0.285714298, 0.0250000004
    281, -0.600000024,  0.428571433, 0.0250000004
    282, -0.600000024,  0.571428597, 0.0250000004
    283, -0.600000024,  0.714285731, 0.0250000004
    284, -0.600000024,  0.857142866, 0.0250000004
    285, -0.600000024,           1., 0.0250000004
    286, -0.600000024,          -1.,           0.
    287, -0.600000024, -0.857142866,           0.
    288, -0.600000024, -0.714285731,           0.
    289, -0.600000024, -0.571428597,           0.
    290, -0.600000024, -0.428571433,           0.
    291, -0.600000024, -0.285714298,           0.
    292, -0.600000024, -0.142857149,           0.
    293, -0.600000024,           0.,           0.
    294, -0.600000024,  0.142857149,           0.
    295, -0.600000024,  0.285714298,           0.
    296, -0.600000024,  0.428571433,           0.
    297, -0.600000024,  0.571428597,           0.
    298, -0.600000024,  0.714285731,           0.
    299, -0.600000024,  0.857142866,           0.
    300, -0.600000024,           1.,           0.
    301, -0.466666669,          -1.,  0.100000001
    302, -0.466666669, -0.857142866,  0.100000001
    303, -0.466666669, -0.714285731,  0.100000001
    304, -0.466666669, -0.571428597,  0.100000001
    305, -0.466666669, -0.428571433,  0.100000001
    306, -0.466666669, -0.285714298,  0.100000001
    307, -0.466666669, -0.142857149,  0.100000001
    308, -0.466666669,           0.,  0.100000001
    309, -0.466666669,  0.142857149,  0.100000001
    310, -0.466666669,  0.285714298,  0.100000001
    311, -0.466666669,  0.428571433,  0.100000001
    312, -0.466666669,  0.571428597,  0.100000001
    313, -0.466666669,  0.714285731,  0.100000001
    314, -0.466666669,  0.857142866,  0.100000001
    315, -0.466666669,           1.,  0.100000001
    316, -0.466666669,          -1.,  0.075000003
    317, -0.466666669, -0.857142866,  0.075000003
    318, -0.466666669, -0.714285731,  0.075000003
    319, -0.466666669, -0.571428597,  0.075000003
    320, -0.466666669, -0.428571433,  0.075000003
    321, -0.466666669, -0.285714298,  0.075000003
    322, -0.466666669, -0.142857149,  0.075000003
    323, -0.466666669,           0.,  0.075000003
    324, -0.466666669,  0.142857149,  0.075000003
    325, -0.466666669,  0.285714298,  0.075000003
    326, -0.466666669,  0.428571433,  0.075000003
    327, -0.466666669,  0.571428597,  0.075000003
    328, -0.466666669,  0.714285731,  0.075000003
    329, -0.466666669,  0.857142866,  0.075000003
    330, -0.466666669,           1.,  0.075000003
    331, -0.466666669,          -1., 0.0500000007
    332, -0.466666669, -0.857142866, 0.0500000007
    333, -0.466666669, -0.714285731, 0.0500000007
    334, -0.466666669, -0.571428597, 0.0500000007
    335, -0.466666669, -0.428571433, 0.0500000007
    336, -0.466666669, -0.285714298, 0.0500000007
    337, -0.466666669, -0.142857149, 0.0500000007
    338, -0.466666669,           0., 0.0500000007
    339, -0.466666669,  0.142857149, 0.0500000007
    340, -0.466666669,  0.285714298, 0.0500000007
    341, -0.466666669,  0.428571433, 0.0500000007
    342, -0.466666669,  0.571428597, 0.0500000007
    343, -0.466666669,  0.714285731, 0.0500000007
    344, -0.466666669,  0.857142866, 0.0500000007
    345, -0.466666669,           1., 0.0500000007
    346, -0.466666669,          -1., 0.0250000004
    347, -0.466666669, -0.857142866, 0.0250000004
    348, -0.466666669, -0.714285731, 0.0250000004
    349, -0.466666669, -0.571428597, 0.0250000004
    350, -0.466666669, -0.428571433, 0.0250000004
    351, -0.466666669, -0.285714298, 0.0250000004
    352, -0.466666669, -0.142857149, 0.0250000004
    353, -0.466666669,           0., 0.0250000004
    354, -0.466666669,  0.142857149, 0.0250000004
    355, -0.466666669,  0.285714298, 0.0250000004
    356, -0.466666669,  0.428571433, 0.0250000004
    357, -0.466666669,  0.571428597, 0.0250000004
    358, -0.466666669,  0.714285731, 0.0250000004
    359, -0.466666669,  0.857142866, 0.0250000004
    360, -0.466666669,           1., 0.0250000004
    361, -0.466666669,          -1.,           0.
    362, -0.466666669, -0.857142866,           0.
    363, -0.466666669, -0.714285731,           0.
    364, -0.466666669, -0.571428597,           0.
    365, -0.466666669, -0.428571433,           0.
    366, -0.466666669, -0.285714298,           0.
    367, -0.466666669, -0.142857149,           0.
    368, -0.466666669,           0.,           0.
    369, -0.466666669,  0.142857149,           0.
    370, -0.466666669,  0.285714298,           0.
    371, -0.466666669,  0.428571433,           0.
    372, -0.466666669,  0.571428597,           0.
    373, -0.466666669,  0.714285731,           0.
    374, -0.466666669,  0.857142866,           0.
    375, -0.466666669,           1.,           0.
    376, -0.333333343,          -1.,  0.100000001
    377, -0.333333343, -0.857142866,  0.100000001
    378, -0.333333343, -0.714285731,  0.100000001
    379, -0.333333343, -0.571428597,  0.100000001
    380, -0.333333343, -0.428571433,  0.100000001
    381, -0.333333343, -0.285714298,  0.100000001
    382, -0.333333343, -0.142857149,  0.100000001
    383, -0.333333343,           0.,  0.100000001
    384, -0.333333343,  0.142857149,  0.100000001
    385, -0.333333343,  0.285714298,  0.100000001
    386, -0.333333343,  0.428571433,  0.100000001
    387, -0.333333343,  0.571428597,  0.100000001
    388, -0.333333343,  0.714285731,  0.100000001
    389, -0.333333343,  0.857142866,  0.100000001
    390, -0.333333343,           1.,  0.100000001
    391, -0.333333343,          -1.,  0.075000003
    392, -0.333333343, -0.857142866,  0.075000003
    393, -0.333333343, -0.714285731,  0.075000003
    394, -0.333333343, -0.571428597,  0.075000003
    395, -0.333333343, -0.428571433,  0.075000003
    396, -0.333333343, -0.285714298,  0.075000003
    397, -0.333333343, -0.142857149,  0.075000003
    398, -0.333333343,           0.,  0.075000003
    399, -0.333333343,  0.142857149,  0.075000003
    400, -0.333333343,  0.285714298,  0.075000003
    401, -0.333333343,  0.428571433,  0.075000003
    402, -0.333333343,  0.571428597,  0.075000003
    403, -0.333333343,  0.714285731,  0.075000003
    404, -0.333333343,  0.857142866,  0.075000003
    405, -0.333333343,           1.,  0.075000003
    406, -0.333333343,          -1., 0.0500000007
    407, -0.333333343, -0.857142866, 0.0500000007
    408, -0.333333343, -0.714285731, 0.0500000007
    409, -0.333333343, -0.571428597, 0.0500000007
    410, -0.333333343, -0.428571433, 0.0500000007
    411, -0.333333343, -0.285714298, 0.0500000007
    412, -0.333333343, -0.142857149, 0.0500000007
    413, -0.333333343,           0., 0.0500000007
    414, -0.333333343,  0.142857149, 0.0500000007
    415, -0.333333343,  0.285714298, 0.0500000007
    416, -0.333333343,  0.428571433, 0.0500000007
    417, -0.333333343,  0.571428597, 0.0500000007
    418, -0.333333343,  0.714285731, 0.0500000007
    419, -0.333333343,  0.857142866, 0.0500000007
    420, -0.333333343,           1., 0.0500000007
    421, -0.333333343,          -1., 0.0250000004
    422, -0.333333343, -0.857142866, 0.0250000004
    423, -0.333333343, -0.714285731, 0.0250000004
    424, -0.333333343, -0.571428597, 0.0250000004
    425, -0.333333343, -0.428571433, 0.0250000004
    426, -0.333333343, -0.285714298, 0.0250000004
    427, -0.333333343, -0.142857149, 0.0250000004
    428, -0.333333343,           0., 0.0250000004
    429, -0.333333343,  0.142857149, 0.0250000004
    430, -0.333333343,  0.285714298, 0.0250000004
    431, -0.333333343,  0.428571433, 0.0250000004
    432, -0.333333343,  0.571428597, 0.0250000004
    433, -0.333333343,  0.714285731, 0.0250000004
    434, -0.333333343,  0.857142866, 0.0250000004
    435, -0.333333343,           1., 0.0250000004
    436, -0.333333343,          -1.,           0.
    437, -0.333333343, -0.857142866,           0.
    438, -0.333333343, -0.714285731,           0.
    439, -0.333333343, -0.571428597,           0.
    440, -0.333333343, -0.428571433,           0.
    441, -0.333333343, -0.285714298,           0.
    442, -0.333333343, -0.142857149,           0.
    443, -0.333333343,           0.,           0.
    444, -0.333333343,  0.142857149,           0.
    445, -0.333333343,  0.285714298,           0.
    446, -0.333333343,  0.428571433,           0.
    447, -0.333333343,  0.571428597,           0.
    448, -0.333333343,  0.714285731,           0.
    449, -0.333333343,  0.857142866,           0.
    450, -0.333333343,           1.,           0.
    451, -0.200000003,          -1.,  0.100000001
    452, -0.200000003, -0.857142866,  0.100000001
    453, -0.200000003, -0.714285731,  0.100000001
    454, -0.200000003, -0.571428597,  0.100000001
    455, -0.200000003, -0.428571433,  0.100000001
    456, -0.200000003, -0.285714298,  0.100000001
    457, -0.200000003, -0.142857149,  0.100000001
    458, -0.200000003,           0.,  0.100000001
    459, -0.200000003,  0.142857149,  0.100000001
    460, -0.200000003,  0.285714298,  0.100000001
    461, -0.200000003,  0.428571433,  0.100000001
    462, -0.200000003,  0.571428597,  0.100000001
    463, -0.200000003,  0.714285731,  0.100000001
    464, -0.200000003,  0.857142866,  0.100000001
    465, -0.200000003,           1.,  0.100000001
    466, -0.200000003,          -1.,  0.075000003
    467, -0.200000003, -0.857142866,  0.075000003
    468, -0.200000003, -0.714285731,  0.075000003
    469, -0.200000003, -0.571428597,  0.075000003
    470, -0.200000003, -0.428571433,  0.075000003
    471, -0.200000003, -0.285714298,  0.075000003
    472, -0.200000003, -0.142857149,  0.075000003
    473, -0.200000003,           0.,  0.075000003
    474, -0.200000003,  0.142857149,  0.075000003
    475, -0.200000003,  0.285714298,  0.075000003
    476, -0.200000003,  0.428571433,  0.075000003
    477, -0.200000003,  0.571428597,  0.075000003
    478, -0.200000003,  0.714285731,  0.075000003
    479, -0.200000003,  0.857142866,  0.075000003
    480, -0.200000003,           1.,  0.075000003
    481, -0.200000003,          -1., 0.0500000007
    482, -0.200000003, -0.857142866, 0.0500000007
    483, -0.200000003, -0.714285731, 0.0500000007
    484, -0.200000003, -0.571428597, 0.0500000007
    485, -0.200000003, -0.428571433, 0.0500000007
    486, -0.200000003, -0.285714298, 0.0500000007
    487, -0.200000003, -0.142857149, 0.0500000007
    488, -0.200000003,           0., 0.0500000007
    489, -0.200000003,  0.142857149, 0.0500000007
    490, -0.200000003,  0.285714298, 0.0500000007
    491, -0.200000003,  0.428571433, 0.0500000007
    492, -0.200000003,  0.571428597, 0.0500000007
    493, -0.200000003,  0.714285731, 0.0500000007
    494, -0.200000003,  0.857142866, 0.0500000007
    495, -0.200000003,           1., 0.0500000007
    496, -0.200000003,          -1., 0.0250000004
    497, -0.200000003, -0.857142866, 0.0250000004
    498, -0.200000003, -0.714285731, 0.0250000004
    499, -0.200000003, -0.571428597, 0.0250000004
    500, -0.200000003, -0.428571433, 0.0250000004
    501, -0.200000003, -0.285714298, 0.0250000004
    502, -0.200000003, -0.142857149, 0.0250000004
    503, -0.200000003,           0., 0.0250000004
    504, -0.200000003,  0.142857149, 0.0250000004
    505, -0.200000003,  0.285714298, 0.0250000004
    506, -0.200000003,  0.428571433, 0.0250000004
    507, -0.200000003,  0.571428597, 0.0250000004
    508, -0.200000003,  0.714285731, 0.0250000004
    509, -0.200000003,  0.857142866, 0.0250000004
    510, -0.200000003,           1., 0.0250000004
    511, -0.200000003,          -1.,           0.
    512, -0.200000003, -0.857142866,           0.
    513, -0.200000003, -0.714285731,           0.
    514, -0.200000003, -0.571428597,           0.
    515, -0.200000003, -0.428571433,           0.
    516, -0.200000003, -0.285714298,           0.
    517, -0.200000003, -0.142857149,           0.
    518, -0.200000003,           0.,           0.
    519, -0.200000003,  0.142857149,           0.
    520, -0.200000003,  0.285714298,           0.
    521, -0.200000003,  0.428571433,           0.
    522, -0.200000003,  0.571428597,           0.
    523, -0.200000003,  0.714285731,           0.
    524, -0.200000003,  0.857142866,           0.
    525, -0.200000003,           1.,           0.
    526, -0.0666666701,          -1.,  0.100000001
    527, -0.0666666701, -0.857142866,  0.100000001
    528, -0.0666666701, -0.714285731,  0.100000001
    529, -0.0666666701, -0.571428597,  0.100000001
    530, -0.0666666701, -0.428571433,  0.100000001
    531, -0.0666666701, -0.285714298,  0.100000001
    532, -0.0666666701, -0.142857149,  0.100000001
    533, -0.0666666701,           0.,  0.100000001
    534, -0.0666666701,  0.142857149,  0.100000001
    535, -0.0666666701,  0.285714298,  0.100000001
    536, -0.0666666701,  0.428571433,  0.100000001
    537, -0.0666666701,  0.571428597,  0.100000001
    538, -0.0666666701,  0.714285731,  0.100000001
    539, -0.0666666701,  0.857142866,  0.100000001
    540, -0.0666666701,           1.,  0.100000001
    541, -0.0666666701,          -1.,  0.075000003
    542, -0.0666666701, -0.857142866,  0.075000003
    543, -0.0666666701, -0.714285731,  0.075000003
    544, -0.0666666701, -0.571428597,  0.075000003
    545, -0.0666666701, -0.428571433,  0.075000003
    546, -0.0666666701, -0.285714298,  0.075000003
    547, -0.0666666701, -0.142857149,  0.075000003
    548, -0.0666666701,           0.,  0.075000003
    549, -0.0666666701,  0.142857149,  0.075000003
    550, -0.0666666701,  0.285714298,  0.075000003
    551, -0.0666666701,  0.428571433,  0.075000003
    552, -0.0666666701,  0.571428597,  0.075000003
    553, -0.0666666701,  0.714285731,  0.075000003
    554, -0.0666666701,  0.857142866,  0.075000003
    555, -0.0666666701,           1.,  0.075000003
    556, -0.0666666701,          -1., 0.0500000007
    557, -0.0666666701, -0.857142866, 0.0500000007
    558, -0.0666666701, -0.714285731, 0.0500000007
    559, -0.0666666701, -0.571428597, 0.0500000007
    560, -0.0666666701, -0.428571433, 0.0500000007
    561, -0.0666666701, -0.285714298, 0.0500000007
    562, -0.0666666701, -0.142857149, 0.0500000007
    563, -0.0666666701,           0., 0.0500000007
    564, -0.0666666701,  0.142857149, 0.0500000007
    565, -0.0666666701,  0.285714298, 0.0500000007
    566, -0.0666666701,  0.428571433, 0.0500000007
    567, -0.0666666701,  0.571428597, 0.0500000007
    568, -0.0666666701,  0.714285731, 0.0500000007
    569, -0.0666666701,  0.857142866, 0.0500000007
    570, -0.0666666701,           1., 0.0500000007
    571, -0.0666666701,          -1., 0.0250000004
    572, -0.0666666701, -0.857142866, 0.0250000004
    573, -0.0666666701, -0.714285731, 0.0250000004
    574, -0.0666666701, -0.571428597, 0.0250000004
    575, -0.0666666701, -0.428571433, 0.0250000004
    576, -0.0666666701, -0.285714298, 0.0250000004
    577, -0.0666666701, -0.142857149, 0.0250000004
    578, -0.0666666701,           0., 0.0250000004
    579, -0.0666666701,  0.142857149, 0.0250000004
    580, -0.0666666701,  0.285714298, 0.0250000004
    581, -0.0666666701,  0.428571433, 0.0250000004
    582, -0.0666666701,  0.571428597, 0.0250000004
    583, -0.0666666701,  0.714285731, 0.0250000004
    584, -0.0666666701,  0.857142866, 0.0250000004
    585, -0.0666666701,           1., 0.0250000004
    586, -0.0666666701,          -1.,           0.
    587, -0.0666666701, -0.857142866,           0.
    588, -0.0666666701, -0.714285731,           0.
    589, -0.0666666701, -0.571428597,           0.
    590, -0.0666666701, -0.428571433,           0.
    591, -0.0666666701, -0.285714298,           0.
    592, -0.0666666701, -0.142857149,           0.
    593, -0.0666666701,           0.,           0.
    594, -0.0666666701,  0.142857149,           0.
    595, -0.0666666701,  0.285714298,           0.
    596, -0.0666666701,  0.428571433,           0.
    597, -0.0666666701,  0.571428597,           0.
    598, -0.0666666701,  0.714285731,           0.
    599, -0.0666666701,  0.857142866,           0.
    600, -0.0666666701,           1.,           0.
    601, 0.0666666701,          -1.,  0.100000001
    602, 0.0666666701, -0.857142866,  0.100000001
    603, 0.0666666701, -0.714285731,  0.100000001
    604, 0.0666666701, -0.571428597,  0.100000001
    605, 0.0666666701, -0.428571433,  0.100000001
    606, 0.0666666701, -0.285714298,  0.100000001
    607, 0.0666666701, -0.142857149,  0.100000001
    608, 0.0666666701,           0.,  0.100000001
    609, 0.0666666701,  0.142857149,  0.100000001
    610, 0.0666666701,  0.285714298,  0.100000001
    611, 0.0666666701,  0.428571433,  0.100000001
    612, 0.0666666701,  0.571428597,  0.100000001
    613, 0.0666666701,  0.714285731,  0.100000001
    614, 0.0666666701,  0.857142866,  0.100000001
    615, 0.0666666701,           1.,  0.100000001
    616, 0.0666666701,          -1.,  0.075000003
    617, 0.0666666701, -0.857142866,  0.075000003
    618, 0.0666666701, -0.714285731,  0.075000003
    619, 0.0666666701, -0.571428597,  0.075000003
    620, 0.0666666701, -0.428571433,  0.075000003
    621, 0.0666666701, -0.285714298,  0.075000003
    622, 0.0666666701, -0.142857149,  0.075000003
    623, 0.0666666701,           0.,  0.075000003
    624, 0.0666666701,  0.142857149,  0.075000003
    625, 0.0666666701,  0.285714298,  0.075000003
    626, 0.0666666701,  0.428571433,  0.075000003
    627, 0.0666666701,  0.571428597,  0.075000003
    628, 0.0666666701,  0.714285731,  0.075000003
    629, 0.0666666701,  0.857142866,  0.075000003
    630, 0.0666666701,           1.,  0.075000003
    631, 0.0666666701,          -1., 0.0500000007
    632, 0.0666666701, -0.857142866, 0.0500000007
    633, 0.0666666701, -0.714285731, 0.0500000007
    634, 0.0666666701, -0.571428597, 0.0500000007
    635, 0.0666666701, -0.428571433, 0.0500000007
    636, 0.0666666701, -0.285714298, 0.0500000007
    637, 0.0666666701, -0.142857149, 0.0500000007
    638, 0.0666666701,           0., 0.0500000007
    639, 0.0666666701,  0.142857149, 0.0500000007
    640, 0.0666666701,  0.285714298, 0.0500000007
    641, 0.0666666701,  0.428571433, 0.0500000007
    642, 0.0666666701,  0.571428597, 0.0500000007
    643, 0.0666666701,  0.714285731, 0.0500000007
    644, 0.0666666701,  0.857142866, 0.0500000007
    645, 0.0666666701,           1., 0.0500000007
    646, 0.0666666701,          -1., 0.0250000004
    647, 0.0666666701, -0.857142866, 0.0250000004
    648, 0.0666666701, -0.714285731, 0.0250000004
    649, 0.0666666701, -0.571428597, 0.0250000004
    650, 0.0666666701, -0.428571433, 0.0250000004
    651, 0.0666666701, -0.285714298, 0.0250000004
    652, 0.0666666701, -0.142857149, 0.0250000004
    653, 0.0666666701,           0., 0.0250000004
    654, 0.0666666701,  0.142857149, 0.0250000004
    655, 0.0666666701,  0.285714298, 0.0250000004
    656, 0.0666666701,  0.428571433, 0.0250000004
    657, 0.0666666701,  0.571428597, 0.0250000004
    658, 0.0666666701,  0.714285731, 0.0250000004
    659, 0.0666666701,  0.857142866, 0.0250000004
    660, 0.0666666701,           1., 0.0250000004
    661, 0.0666666701,          -1.,           0.
    662, 0.0666666701, -0.857142866,           0.
    663, 0.0666666701, -0.714285731,           0.
    664, 0.0666666701, -0.571428597,           0.
    665, 0.0666666701, -0.428571433,           0.
    666, 0.0666666701, -0.285714298,           0.
    667, 0.0666666701, -0.142857149,           0.
    668, 0.0666666701,           0.,           0.
    669, 0.0666666701,  0.142857149,           0.
    670, 0.0666666701,  0.285714298,           0.
    671, 0.0666666701,  0.428571433,           0.
    672, 0.0666666701,  0.571428597,           0.
    673, 0.0666666701,  0.714285731,           0.
    674, 0.0666666701,  0.857142866,           0.
    675, 0.0666666701,           1.,           0.
    676,  0.200000003,          -1.,  0.100000001
    677,  0.200000003, -0.857142866,  0.100000001
    678,  0.200000003, -0.714285731,  0.100000001
    679,  0.200000003, -0.571428597,  0.100000001
    680,  0.200000003, -0.428571433,  0.100000001
    681,  0.200000003, -0.285714298,  0.100000001
    682,  0.200000003, -0.142857149,  0.100000001
    683,  0.200000003,           0.,  0.100000001
    684,  0.200000003,  0.142857149,  0.100000001
    685,  0.200000003,  0.285714298,  0.100000001
    686,  0.200000003,  0.428571433,  0.100000001
    687,  0.200000003,  0.571428597,  0.100000001
    688,  0.200000003,  0.714285731,  0.100000001
    689,  0.200000003,  0.857142866,  0.100000001
    690,  0.200000003,           1.,  0.100000001
    691,  0.200000003,          -1.,  0.075000003
    692,  0.200000003, -0.857142866,  0.075000003
    693,  0.200000003, -0.714285731,  0.075000003
    694,  0.200000003, -0.571428597,  0.075000003
    695,  0.200000003, -0.428571433,  0.075000003
    696,  0.200000003, -0.285714298,  0.075000003
    697,  0.200000003, -0.142857149,  0.075000003
    698,  0.200000003,           0.,  0.075000003
    699,  0.200000003,  0.142857149,  0.075000003
    700,  0.200000003,  0.285714298,  0.075000003
    701,  0.200000003,  0.428571433,  0.075000003
    702,  0.200000003,  0.571428597,  0.075000003
    703,  0.200000003,  0.714285731,  0.075000003
    704,  0.200000003,  0.857142866,  0.075000003
    705,  0.200000003,           1.,  0.075000003
    706,  0.200000003,          -1., 0.0500000007
    707,  0.200000003, -0.857142866, 0.0500000007
    708,  0.200000003, -0.714285731, 0.0500000007
    709,  0.200000003, -0.571428597, 0.0500000007
    710,  0.200000003, -0.428571433, 0.0500000007
    711,  0.200000003, -0.285714298, 0.0500000007
    712,  0.200000003, -0.142857149, 0.0500000007
    713,  0.200000003,           0., 0.0500000007
    714,  0.200000003,  0.142857149, 0.0500000007
    715,  0.200000003,  0.285714298, 0.0500000007
    716,  0.200000003,  0.428571433, 0.0500000007
    717,  0.200000003,  0.571428597, 0.0500000007
    718,  0.200000003,  0.714285731, 0.0500000007
    719,  0.200000003,  0.857142866, 0.0500000007
    720,  0.200000003,           1., 0.0500000007
    721,  0.200000003,          -1., 0.0250000004
    722,  0.200000003, -0.857142866, 0.0250000004
    723,  0.200000003, -0.714285731, 0.0250000004
    724,  0.200000003, -0.571428597, 0.0250000004
    725,  0.200000003, -0.428571433, 0.0250000004
    726,  0.200000003, -0.285714298, 0.0250000004
    727,  0.200000003, -0.142857149, 0.0250000004
    728,  0.200000003,           0., 0.0250000004
    729,  0.200000003,  0.142857149, 0.0250000004
    730,  0.200000003,  0.285714298, 0.0250000004
    731,  0.200000003,  0.428571433, 0.0250000004
    732,  0.200000003,  0.571428597, 0.0250000004
    733,  0.200000003,  0.714285731, 0.0250000004
    734,  0.200000003,  0.857142866, 0.0250000004
    735,  0.200000003,           1., 0.0250000004
    736,  0.200000003,          -1.,           0.
    737,  0.200000003, -0.857142866,           0.
    738,  0.200000003, -0.714285731,           0.
    739,  0.200000003, -0.571428597,           0.
    740,  0.200000003, -0.428571433,           0.
    741,  0.200000003, -0.285714298,           0.
    742,  0.200000003, -0.142857149,           0.
    743,  0.200000003,           0.,           0.
    744,  0.200000003,  0.142857149,           0.
    745,  0.200000003,  0.285714298,           0.
    746,  0.200000003,  0.428571433,           0.
    747,  0.200000003,  0.571428597,           0.
    748,  0.200000003,  0.714285731,           0.
    749,  0.200000003,  0.857142866,           0.
    750,  0.200000003,           1.,           0.
    751,  0.333333343,          -1.,  0.100000001
    752,  0.333333343, -0.857142866,  0.100000001
    753,  0.333333343, -0.714285731,  0.100000001
    754,  0.333333343, -0.571428597,  0.100000001
    755,  0.333333343, -0.428571433,  0.100000001
    756,  0.333333343, -0.285714298,  0.100000001
    757,  0.333333343, -0.142857149,  0.100000001
    758,  0.333333343,           0.,  0.100000001
    759,  0.333333343,  0.142857149,  0.100000001
    760,  0.333333343,  0.285714298,  0.100000001
    761,  0.333333343,  0.428571433,  0.100000001
    762,  0.333333343,  0.571428597,  0.100000001
    763,  0.333333343,  0.714285731,  0.100000001
    764,  0.333333343,  0.857142866,  0.100000001
    765,  0.333333343,           1.,  0.100000001
    766,  0.333333343,          -1.,  0.075000003
    767,  0.333333343, -0.857142866,  0.075000003
    768,  0.333333343, -0.714285731,  0.075000003
    769,  0.333333343, -0.571428597,  0.075000003
    770,  0.333333343, -0.428571433,  0.075000003
    771,  0.333333343, -0.285714298,  0.075000003
    772,  0.333333343, -0.142857149,  0.075000003
    773,  0.333333343,           0.,  0.075000003
    774,  0.333333343,  0.142857149,  0.075000003
    775,  0.333333343,  0.285714298,  0.075000003
    776,  0.333333343,  0.428571433,  0.075000003
    777,  0.333333343,  0.571428597,  0.075000003
    778,  0.333333343,  0.714285731,  0.075000003
    779,  0.333333343,  0.857142866,  0.075000003
    780,  0.333333343,           1.,  0.075000003
    781,  0.333333343,          -1., 0.0500000007
    782,  0.333333343, -0.857142866, 0.0500000007
    783,  0.333333343, -0.714285731, 0.0500000007
    784,  0.333333343, -0.571428597, 0.0500000007
    785,  0.333333343, -0.428571433, 0.0500000007
    786,  0.333333343, -0.285714298, 0.0500000007
    787,  0.333333343, -0.142857149, 0.0500000007
    788,  0.333333343,           0., 0.0500000007
    789,  0.333333343,  0.142857149, 0.0500000007
    790,  0.333333343,  0.285714298, 0.0500000007
    791,  0.333333343,  0.428571433, 0.0500000007
    792,  0.333333343,  0.571428597, 0.0500000007
    793,  0.333333343,  0.714285731, 0.0500000007
    794,  0.333333343,  0.857142866, 0.0500000007
    795,  0.333333343,           1., 0.0500000007
    796,  0.333333343,          -1., 0.0250000004
    797,  0.333333343, -0.857142866, 0.0250000004
    798,  0.333333343, -0.714285731, 0.0250000004
    799,  0.333333343, -0.571428597, 0.0250000004
    800,  0.333333343, -0.428571433, 0.0250000004
    801,  0.333333343, -0.285714298, 0.0250000004
    802,  0.333333343, -0.142857149, 0.0250000004
    803,  0.333333343,           0., 0.0250000004
    804,  0.333333343,  0.142857149, 0.0250000004
    805,  0.333333343,  0.285714298, 0.0250000004
    806,  0.333333343,  0.428571433, 0.0250000004
    807,  0.333333343,  0.571428597, 0.0250000004
    808,  0.333333343,  0.714285731, 0.0250000004
    809,  0.333333343,  0.857142866, 0.0250000004
    810,  0.333333343,           1., 0.0250000004
    811,  0.333333343,          -1.,           0.
    812,  0.333333343, -0.857142866,           0.
    813,  0.333333343, -0.714285731,           0.
    814,  0.333333343, -0.571428597,           0.
    815,  0.333333343, -0.428571433,           0.
    816,  0.333333343, -0.285714298,           0.
    817,  0.333333343, -0.142857149,           0.
    818,  0.333333343,           0.,           0.
    819,  0.333333343,  0.142857149,           0.
    820,  0.333333343,  0.285714298,           0.
    821,  0.333333343,  0.428571433,           0.
    822,  0.333333343,  0.571428597,           0.
    823,  0.333333343,  0.714285731,           0.
    824,  0.333333343,  0.857142866,           0.
    825,  0.333333343,           1.,           0.
    826,  0.466666669,          -1.,  0.100000001
    827,  0.466666669, -0.857142866,  0.100000001
    828,  0.466666669, -0.714285731,  0.100000001
    829,  0.466666669, -0.571428597,  0.100000001
    830,  0.466666669, -0.428571433,  0.100000001
    831,  0.466666669, -0.285714298,  0.100000001
    832,  0.466666669, -0.142857149,  0.100000001
    833,  0.466666669,           0.,  0.100000001
    834,  0.466666669,  0.142857149,  0.100000001
    835,  0.466666669,  0.285714298,  0.100000001
    836,  0.466666669,  0.428571433,  0.100000001
    837,  0.466666669,  0.571428597,  0.100000001
    838,  0.466666669,  0.714285731,  0.100000001
    839,  0.466666669,  0.857142866,  0.100000001
    840,  0.466666669,           1.,  0.100000001
    841,  0.466666669,          -1.,  0.075000003
    842,  0.466666669, -0.857142866,  0.075000003
    843,  0.466666669, -0.714285731,  0.075000003
    844,  0.466666669, -0.571428597,  0.075000003
    845,  0.466666669, -0.428571433,  0.075000003
    846,  0.466666669, -0.285714298,  0.075000003
    847,  0.466666669, -0.142857149,  0.075000003
    848,  0.466666669,           0.,  0.075000003
    849,  0.466666669,  0.142857149,  0.075000003
    850,  0.466666669,  0.285714298,  0.075000003
    851,  0.466666669,  0.428571433,  0.075000003
    852,  0.466666669,  0.571428597,  0.075000003
    853,  0.466666669,  0.714285731,  0.075000003
    854,  0.466666669,  0.857142866,  0.075000003
    855,  0.466666669,           1.,  0.075000003
    856,  0.466666669,          -1., 0.0500000007
    857,  0.466666669, -0.857142866, 0.0500000007
    858,  0.466666669, -0.714285731, 0.0500000007
    859,  0.466666669, -0.571428597, 0.0500000007
    860,  0.466666669, -0.428571433, 0.0500000007
    861,  0.466666669, -0.285714298, 0.0500000007
    862,  0.466666669, -0.142857149, 0.0500000007
    863,  0.466666669,           0., 0.0500000007
    864,  0.466666669,  0.142857149, 0.0500000007
    865,  0.466666669,  0.285714298, 0.0500000007
    866,  0.466666669,  0.428571433, 0.0500000007
    867,  0.466666669,  0.571428597, 0.0500000007
    868,  0.466666669,  0.714285731, 0.0500000007
    869,  0.466666669,  0.857142866, 0.0500000007
    870,  0.466666669,           1., 0.0500000007
    871,  0.466666669,          -1., 0.0250000004
    872,  0.466666669, -0.857142866, 0.0250000004
    873,  0.466666669, -0.714285731, 0.0250000004
    874,  0.466666669, -0.571428597, 0.0250000004
    875,  0.466666669, -0.428571433, 0.0250000004
    876,  0.466666669, -0.285714298, 0.0250000004
    877,  0.466666669, -0.142857149, 0.0250000004
    878,  0.466666669,           0., 0.0250000004
    879,  0.466666669,  0.142857149, 0.0250000004
    880,  0.466666669,  0.285714298, 0.0250000004
    881,  0.466666669,  0.428571433, 0.0250000004
    882,  0.466666669,  0.571428597, 0.0250000004
    883,  0.466666669,  0.714285731, 0.0250000004
    884,  0.466666669,  0.857142866, 0.0250000004
    885,  0.466666669,           1., 0.0250000004
    886,  0.466666669,          -1.,           0.
    887,  0.466666669, -0.857142866,           0.
    888,  0.466666669, -0.714285731,           0.
    889,  0.466666669, -0.571428597,           0.
    890,  0.466666669, -0.428571433,           0.
    891,  0.466666669, -0.285714298,           0.
    892,  0.466666669, -0.142857149,           0.
    893,  0.466666669,           0.,           0.
    894,  0.466666669,  0.142857149,           0.
    895,  0.466666669,  0.285714298,           0.
    896,  0.466666669,  0.428571433,           0.
    897,  0.466666669,  0.571428597,           0.
    898,  0.466666669,  0.714285731,           0.
    899,  0.466666669,  0.857142866,           0.
    900,  0.466666669,           1.,           0.
    901,  0.600000024,          -1.,  0.100000001
    902,  0.600000024, -0.857142866,  0.100000001
    903,  0.600000024, -0.714285731,  0.100000001
    904,  0.600000024, -0.571428597,  0.100000001
    905,  0.600000024, -0.428571433,  0.100000001
    906,  0.600000024, -0.285714298,  0.100000001
    907,  0.600000024, -0.142857149,  0.100000001
    908,  0.600000024,           0.,  0.100000001
    909,  0.600000024,  0.142857149,  0.100000001
    910,  0.600000024,  0.285714298,  0.100000001
    911,  0.600000024,  0.428571433,  0.100000001
    912,  0.600000024,  0.571428597,  0.100000001
    913,  0.600000024,  0.714285731,  0.100000001
    914,  0.600000024,  0.857142866,  0.100000001
    915,  0.600000024,           1.,  0.100000001
    916,  0.600000024,          -1.,  0.075000003
    917,  0.600000024, -0.857142866,  0.075000003
    918,  0.600000024, -0.714285731,  0.075000003
    919,  0.600000024, -0.571428597,  0.075000003
    920,  0.600000024, -0.428571433,  0.075000003
    921,  0.600000024, -0.285714298,  0.075000003
    922,  0.600000024, -0.142857149,  0.075000003
    923,  0.600000024,           0.,  0.075000003
    924,  0.600000024,  0.142857149,  0.075000003
    925,  0.600000024,  0.285714298,  0.075000003
    926,  0.600000024,  0.428571433,  0.075000003
    927,  0.600000024,  0.571428597,  0.075000003
    928,  0.600000024,  0.714285731,  0.075000003
    929,  0.600000024,  0.857142866,  0.075000003
    930,  0.600000024,           1.,  0.075000003
    931,  0.600000024,          -1., 0.0500000007
    932,  0.600000024, -0.857142866, 0.0500000007
    933,  0.600000024, -0.714285731, 0.0500000007
    934,  0.600000024, -0.571428597, 0.0500000007
    935,  0.600000024, -0.428571433, 0.0500000007
    936,  0.600000024, -0.285714298, 0.0500000007
    937,  0.600000024, -0.142857149, 0.0500000007
    938,  0.600000024,           0., 0.0500000007
    939,  0.600000024,  0.142857149, 0.0500000007
    940,  0.600000024,  0.285714298, 0.0500000007
    941,  0.600000024,  0.428571433, 0.0500000007
    942,  0.600000024,  0.571428597, 0.0500000007
    943,  0.600000024,  0.714285731, 0.0500000007
    944,  0.600000024,  0.857142866, 0.0500000007
    945,  0.600000024,           1., 0.0500000007
    946,  0.600000024,          -1., 0.0250000004
    947,  0.600000024, -0.857142866, 0.0250000004
    948,  0.600000024, -0.714285731, 0.0250000004
    949,  0.600000024, -0.571428597, 0.0250000004
    950,  0.600000024, -0.428571433, 0.0250000004
    951,  0.600000024, -0.285714298, 0.0250000004
    952,  0.600000024, -0.142857149, 0.0250000004
    953,  0.600000024,           0., 0.0250000004
    954,  0.600000024,  0.142857149, 0.0250000004
    955,  0.600000024,  0.285714298, 0.0250000004
    956,  0.600000024,  0.428571433, 0.0250000004
    957,  0.600000024,  0.571428597, 0.0250000004
    958,  0.600000024,  0.714285731, 0.0250000004
    959,  0.600000024,  0.857142866, 0.0250000004
    960,  0.600000024,           1., 0.0250000004
    961,  0.600000024,          -1.,           0.
    962,  0.600000024, -0.857142866,           0.
    963,  0.600000024, -0.714285731,           0.
    964,  0.600000024, -0.571428597,           0.
    965,  0.600000024, -0.428571433,           0.
    966,  0.600000024, -0.285714298,           0.
    967,  0.600000024, -0.142857149,           0.
    968,  0.600000024,           0.,           0.
    969,  0.600000024,  0.142857149,           0.
    970,  0.600000024,  0.285714298,           0.
    971,  0.600000024,  0.428571433,           0.
    972,  0.600000024,  0.571428597,           0.
    973,  0.600000024,  0.714285731,           0.
    974,  0.600000024,  0.857142866,           0.
    975,  0.600000024,           1.,           0.
    976,  0.733333349,          -1.,  0.100000001
    977,  0.733333349, -0.857142866,  0.100000001
    978,  0.733333349, -0.714285731,  0.100000001
    979,  0.733333349, -0.571428597,  0.100000001
    980,  0.733333349, -0.428571433,  0.100000001
    981,  0.733333349, -0.285714298,  0.100000001
    982,  0.733333349, -0.142857149,  0.100000001
    983,  0.733333349,           0.,  0.100000001
    984,  0.733333349,  0.142857149,  0.100000001
    985,  0.733333349,  0.285714298,  0.100000001
    986,  0.733333349,  0.428571433,  0.100000001
    987,  0.733333349,  0.571428597,  0.100000001
    988,  0.733333349,  0.714285731,  0.100000001
    989,  0.733333349,  0.857142866,  0.100000001
    990,  0.733333349,           1.,  0.100000001
    991,  0.733333349,          -1.,  0.075000003
    992,  0.733333349, -0.857142866,  0.075000003
    993,  0.733333349, -0.714285731,  0.075000003
    994,  0.733333349, -0.571428597,  0.075000003
    995,  0.733333349, -0.428571433,  0.075000003
    996,  0.733333349, -0.285714298,  0.075000003
    997,  0.733333349, -0.142857149,  0.075000003
    998,  0.733333349,           0.,  0.075000003
    999,  0.733333349,  0.142857149,  0.075000003
   1000,  0.733333349,  0.285714298,  0.075000003
   1001,  0.733333349,  0.428571433,  0.075000003
   1002,  0.733333349,  0.571428597,  0.075000003
   1003,  0.733333349,  0.714285731,  0.075000003
   1004,  0.733333349,  0.857142866,  0.075000003
   1005,  0.733333349,           1.,  0.075000003
   1006,  0.733333349,          -1., 0.0500000007
   1007,  0.733333349, -0.857142866, 0.0500000007
   1008,  0.733333349, -0.714285731, 0.0500000007
   1009,  0.733333349, -0.571428597, 0.0500000007
   1010,  0.733333349, -0.428571433, 0.0500000007
   1011,  0.733333349, -0.285714298, 0.0500000007
   1012,  0.733333349, -0.142857149, 0.0500000007
   1013,  0.733333349,           0., 0.0500000007
   1014,  0.733333349,  0.142857149, 0.0500000007
   1015,  0.733333349,  0.285714298, 0.0500000007
   1016,  0.733333349,  0.428571433, 0.0500000007
   1017,  0.733333349,  0.571428597, 0.0500000007
   1018,  0.733333349,  0.714285731, 0.0500000007
   1019,  0.733333349,  0.857142866, 0.0500000007
   1020,  0.733333349,           1., 0.0500000007
   1021,  0.733333349,          -1., 0.0250000004
   1022,  0.733333349, -0.857142866, 0.0250000004
   1023,  0.733333349, -0.714285731, 0.0250000004
   1024,  0.733333349, -0.571428597, 0.0250000004
   1025,  0.733333349, -0.428571433, 0.0250000004
   1026,  0.733333349, -0.285714298, 0.0250000004
   1027,  0.733333349, -0.142857149, 0.0250000004
   1028,  0.733333349,           0., 0.0250000004
   1029,  0.733333349,  0.142857149, 0.0250000004
   1030,  0.733333349,  0.285714298, 0.0250000004
   1031,  0.733333349,  0.428571433, 0.0250000004
   1032,  0.733333349,  0.571428597, 0.0250000004
   1033,  0.733333349,  0.714285731, 0.0250000004
   1034,  0.733333349,  0.857142866, 0.0250000004
   1035,  0.733333349,           1., 0.0250000004
   1036,  0.733333349,          -1.,           0.
   1037,  0.733333349, -0.857142866,           0.
   1038,  0.733333349, -0.714285731,           0.
   1039,  0.733333349, -0.571428597,           0.
   1040,  0.733333349, -0.428571433,           0.
   1041,  0.733333349, -0.285714298,           0.
   1042,  0.733333349, -0.142857149,           0.
   1043,  0.733333349,           0.,           0.
   1044,  0.733333349,  0.142857149,           0.
   1045,  0.733333349,  0.285714298,           0.
   1046,  0.733333349,  0.428571433,           0.
   1047,  0.733333349,  0.571428597,           0.
   1048,  0.733333349,  0.714285731,           0.
   1049,  0.733333349,  0.857142866,           0.
   1050,  0.733333349,           1.,           0.
   1051,  0.866666675,          -1.,  0.100000001
   1052,  0.866666675, -0.857142866,  0.100000001
   1053,  0.866666675, -0.714285731,  0.100000001
   1054,  0.866666675, -0.571428597,  0.100000001
   1055,  0.866666675, -0.428571433,  0.100000001
   1056,  0.866666675, -0.285714298,  0.100000001
   1057,  0.866666675, -0.142857149,  0.100000001
   1058,  0.866666675,           0.,  0.100000001
   1059,  0.866666675,  0.142857149,  0.100000001
   1060,  0.866666675,  0.285714298,  0.100000001
   1061,  0.866666675,  0.428571433,  0.100000001
   1062,  0.866666675,  0.571428597,  0.100000001
   1063,  0.866666675,  0.714285731,  0.100000001
   1064,  0.866666675,  0.857142866,  0.100000001
   1065,  0.866666675,           1.,  0.100000001
   1066,  0.866666675,          -1.,  0.075000003
   1067,  0.866666675, -0.857142866,  0.075000003
   1068,  0.866666675, -0.714285731,  0.075000003
   1069,  0.866666675, -0.571428597,  0.075000003
   1070,  0.866666675, -0.428571433,  0.075000003
   1071,  0.866666675, -0.285714298,  0.075000003
   1072,  0.866666675, -0.142857149,  0.075000003
   1073,  0.866666675,           0.,  0.075000003
   1074,  0.866666675,  0.142857149,  0.075000003
   1075,  0.866666675,  0.285714298,  0.075000003
   1076,  0.866666675,  0.428571433,  0.075000003
   1077,  0.866666675,  0.571428597,  0.075000003
   1078,  0.866666675,  0.714285731,  0.075000003
   1079,  0.866666675,  0.857142866,  0.075000003
   1080,  0.866666675,           1.,  0.075000003
   1081,  0.866666675,          -1., 0.0500000007
   1082,  0.866666675, -0.857142866, 0.0500000007
   1083,  0.866666675, -0.714285731, 0.0500000007
   1084,  0.866666675, -0.571428597, 0.0500000007
   1085,  0.866666675, -0.428571433, 0.0500000007
   1086,  0.866666675, -0.285714298, 0.0500000007
   1087,  0.866666675, -0.142857149, 0.0500000007
   1088,  0.866666675,           0., 0.0500000007
   1089,  0.866666675,  0.142857149, 0.0500000007
   1090,  0.866666675,  0.285714298, 0.0500000007
   1091,  0.866666675,  0.428571433, 0.0500000007
   1092,  0.866666675,  0.571428597, 0.0500000007
   1093,  0.866666675,  0.714285731, 0.0500000007
   1094,  0.866666675,  0.857142866, 0.0500000007
   1095,  0.866666675,           1., 0.0500000007
   1096,  0.866666675,          -1., 0.0250000004
   1097,  0.866666675, -0.857142866, 0.0250000004
   1098,  0.866666675, -0.714285731, 0.0250000004
   1099,  0.866666675, -0.571428597, 0.0250000004
   1100,  0.866666675, -0.428571433, 0.0250000004
   1101,  0.866666675, -0.285714298, 0.0250000004
   1102,  0.866666675, -0.142857149, 0.0250000004
   1103,  0.866666675,           0., 0.0250000004
   1104,  0.866666675,  0.142857149, 0.0250000004
   1105,  0.866666675,  0.285714298, 0.0250000004
   1106,  0.866666675,  0.428571433, 0.0250000004
   1107,  0.866666675,  0.571428597, 0.0250000004
   1108,  0.866666675,  0.714285731, 0.0250000004
   1109,  0.866666675,  0.857142866, 0.0250000004
   1110,  0.866666675,           1., 0.0250000004
   1111,  0.866666675,          -1.,           0.
   1112,  0.866666675, -0.857142866,           0.
   1113,  0.866666675, -0.714285731,           0.
   1114,  0.866666675, -0.571428597,           0.
   1115,  0.866666675, -0.428571433,           0.
   1116,  0.866666675, -0.285714298,           0.
   1117,  0.866666675, -0.142857149,           0.
   1118,  0.866666675,           0.,           0.
   1119,  0.866666675,  0.142857149,           0.
   1120,  0.866666675,  0.285714298,           0.
   1121,  0.866666675,  0.428571433,           0.
   1122,  0.866666675,  0.571428597,           0.
   1123,  0.866666675,  0.714285731,           0.
   1124,  0.866666675,  0.857142866,           0.
   1125,  0.866666675,           1.,           0.
   1126,           1.,          -1.,  0.100000001
   1127,           1., -0.857142866,  0.100000001
   1128,           1., -0.714285731,  0.100000001
   1129,           1., -0.571428597,  0.100000001
   1130,           1., -0.428571433,  0.100000001
   1131,           1., -0.285714298,  0.100000001
   1132,           1., -0.142857149,  0.100000001
   1133,           1.,           0.,  0.100000001
   1134,           1.,  0.142857149,  0.100000001
   1135,           1.,  0.285714298,  0.100000001
   1136,           1.,  0.428571433,  0.100000001
   1137,           1.,  0.571428597,  0.100000001
   1138,           1.,  0.714285731,  0.100000001
   1139,           1.,  0.857142866,  0.100000001
   1140,           1.,           1.,  0.100000001
   1141,           1.,          -1.,  0.075000003
   1142,           1., -0.857142866,  0.075000003
   1143,           1., -0.714285731,  0.075000003
   1144,           1., -0.571428597,  0.075000003
   1145,           1., -0.428571433,  0.075000003
   1146,           1., -0.285714298,  0.075000003
   1147,           1., -0.142857149,  0.075000003
   1148,           1.,           0.,  0.075000003
   1149,           1.,  0.142857149,  0.075000003
   1150,           1.,  0.285714298,  0.075000003
   1151,           1.,  0.428571433,  0.075000003
   1152,           1.,  0.571428597,  0.075000003
   1153,           1.,  0.714285731,  0.075000003
   1154,           1.,  0.857142866,  0.075000003
   1155,           1.,           1.,  0.075000003
   1156,           1.,          -1., 0.0500000007
   1157,           1., -0.857142866, 0.0500000007
   1158,           1., -0.714285731, 0.0500000007
   1159,           1., -0.571428597, 0.0500000007
   1160,           1., -0.428571433, 0.0500000007
   1161,           1., -0.285714298, 0.0500000007
   1162,           1., -0.142857149, 0.0500000007
   1163,           1.,           0., 0.0500000007
   1164,           1.,  0.142857149, 0.0500000007
   1165,           1.,  0.285714298, 0.0500000007
   1166,           1.,  0.428571433, 0.0500000007
   1167,           1.,  0.571428597, 0.0500000007
   1168,           1.,  0.714285731, 0.0500000007
   1169,           1.,  0.857142866, 0.0500000007
   1170,           1.,           1., 0.0500000007
   1171,           1.,          -1., 0.0250000004
   1172,           1., -0.857142866, 0.0250000004
   1173,           1., -0.714285731, 0.0250000004
   1174,           1., -0.571428597, 0.0250000004
   1175,           1., -0.428571433, 0.0250000004
   1176,           1., -0.285714298, 0.0250000004
   1177,           1., -0.142857149, 0.0250000004
   1178,           1.,           0., 0.0250000004
   1179,           1.,  0.142857149, 0.0250000004
   1180,           1.,  0.285714298, 0.0250000004
   1181,           1.,  0.428571433, 0.0250000004
   1182,           1.,  0.571428597, 0.0250000004
   1183,           1.,  0.714285731, 0.0250000004
   1184,           1.,  0.857142866, 0.0250000004
   1185,           1.,           1., 0.0250000004
   1186,           1.,          -1.,           0.
   1187,           1., -0.857142866,           0.
   1188,           1., -0.714285731,           0.
   1189,           1., -0.571428597,           0.
   1190,           1., -0.428571433,           0.
   1191,           1., -0.285714298,           0.
   1192,           1., -0.142857149,           0.
   1193,           1.,           0.,           0.
   1194,           1.,  0.142857149,           0.
   1195,           1.,  0.285714298,           0.
   1196,           1.,  0.428571433,           0.
   1197,           1.,  0.571428597,           0.
   1198,           1.,  0.714285731,           0.
   1199,           1.,  0.857142866,           0.
   1200,           1.,           1.,           0.
*Element, type=C3D8R
  1,   76,   77,   92,   91,    1,    2,   17,   16
  2,   77,   78,   93,   92,    2,    3,   18,   17
  3,   78,   79,   94,   93,    3,    4,   19,   18
  4,   79,   80,   95,   94,    4,    5,   20,   19
  5,   80,   81,   96,   95,    5,    6,   21,   20
  6,   81,   82,   97,   96,    6,    7,   22,   21
  7,   82,   83,   98,   97,    7,    8,   23,   22
  8,   83,   84,   99,   98,    8,    9,   24,   23
  9,   84,   85,  100,   99,    9,   10,   25,   24
 10,   85,   86,  101,  100,   10,   11,   26,   25
 11,   86,   87,  102,  101,   11,   12,   27,   26
 12,   87,   88,  103,  102,   12,   13,   28,   27
 13,   88,   89,  104,  103,   13,   14,   29,   28
 14,   89,   90,  105,  104,   14,   15,   30,   29
 15,   91,   92,  107,  106,   16,   17,   32,   31
 16,   92,   93,  108,  107,   17,   18,   33,   32
 17,   93,   94,  109,  108,   18,   19,   34,   33
 18,   94,   95,  110,  109,   19,   20,   35,   34
 19,   95,   96,  111,  110,   20,   21,   36,   35
 20,   96,   97,  112,  111,   21,   22,   37,   36
 21,   97,   98,  113,  112,   22,   23,   38,   37
 22,   98,   99,  114,  113,   23,   24,   39,   38
 23,   99,  100,  115,  114,   24,   25,   40,   39
 24,  100,  101,  116,  115,   25,   26,   41,   40
 25,  101,  102,  117,  116,   26,   27,   42,   41
 26,  102,  103,  118,  117,   27,   28,   43,   42
 27,  103,  104,  119,  118,   28,   29,   44,   43
 28,  104,  105,  120,  119,   29,   30,   45,   44
 29,  106,  107,  122,  121,   31,   32,   47,   46
 30,  107,  108,  123,  122,   32,   33,   48,   47
 31,  108,  109,  124,  123,   33,   34,   49,   48
 32,  109,  110,  125,  124,   34,   35,   50,   49
 33,  110,  111,  126,  125,   35,   36,   51,   50
 34,  111,  112,  127,  126,   36,   37,   52,   51
 35,  112,  113,  128,  127,   37,   38,   53,   52
 36,  113,  114,  129,  128,   38,   39,   54,   53
 37,  114,  115,  130,  129,   39,   40,   55,   54
 38,  115,  116,  131,  130,   40,   41,   56,   55
 39,  116,  117,  132,  131,   41,   42,   57,   56
 40,  117,  118,  133,  132,   42,   43,   58,   57
 41,  118,  119,  134,  133,   43,   44,   59,   58
 42,  119,  120,  135,  134,   44,   45,   60,   59
 43,  121,  122,  137,  136,   46,   47,   62,   61
 44,  122,  123,  138,  137,   47,   48,   63,   62
 45,  123,  124,  139,  138,   48,   49,   64,   63
 46,  124,  125,  140,  139,   49,   50,   65,   64
 47,  125,  126,  141,  140,   50,   51,   66,   65
 48,  126,  127,  142,  141,   51,   52,   67,   66
 49,  127,  128,  143,  142,   52,   53,   68,   67
 50,  128,  129,  144,  143,   53,   54,   69,   68
 51,  129,  130,  145,  144,   54,   55,   70,   69
 52,  130,  131,  146,  145,   55,   56,   71,   70
 53,  131,  132,  147,  146,   56,   57,   72,   71
 54,  132,  133,  148,  147,   57,   58,   73,   72
 55,  133,  134,  149,  148,   58,   59,   74,   73
 56,  134,  135,  150,  149,   59,   60,   75,   74
 57,  151,  152,  167,  166,   76,   77,   92,   91
 58,  152,  153,  168,  167,   77,   78,   93,   92
 59,  153,  154,  169,  168,   78,   79,   94,   93
 60,  154,  155,  170,  169,   79,   80,   95,   94
 61,  155,  156,  171,  170,   80,   81,   96,   95
 62,  156,  157,  172,  171,   81,   82,   97,   96
 63,  157,  158,  173,  172,   82,   83,   98,   97
 64,  158,  159,  174,  173,   83,   84,   99,   98
 65,  159,  160,  175,  174,   84,   85,  100,   99
 66,  160,  161,  176,  175,   85,   86,  101,  100
 67,  161,  162,  177,  176,   86,   87,  102,  101
 68,  162,  163,  178,  177,   87,   88,  103,  102
 69,  163,  164,  179,  178,   88,   89,  104,  103
 70,  164,  165,  180,  179,   89,   90,  105,  104
 71,  166,  167,  182,  181,   91,   92,  107,  106
 72,  167,  168,  183,  182,   92,   93,  108,  107
 73,  168,  169,  184,  183,   93,   94,  109,  108
 74,  169,  170,  185,  184,   94,   95,  110,  109
 75,  170,  171,  186,  185,   95,   96,  111,  110
 76,  171,  172,  187,  186,   96,   97,  112,  111
 77,  172,  173,  188,  187,   97,   98,  113,  112
 78,  173,  174,  189,  188,   98,   99,  114,  113
 79,  174,  175,  190,  189,   99,  100,  115,  114
 80,  175,  176,  191,  190,  100,  101,  116,  115
 81,  176,  177,  192,  191,  101,  102,  117,  116
 82,  177,  178,  193,  192,  102,  103,  118,  117
 83,  178,  179,  194,  193,  103,  104,  119,  118
 84,  179,  180,  195,  194,  104,  105,  120,  119
 85,  181,  182,  197,  196,  106,  107,  122,  121
 86,  182,  183,  198,  197,  107,  108,  123,  122
 87,  183,  184,  199,  198,  108,  109,  124,  123
 88,  184,  185,  200,  199,  109,  110,  125,  124
 89,  185,  186,  201,  200,  110,  111,  126,  125
 90,  186,  187,  202,  201,  111,  112,  127,  126
 91,  187,  188,  203,  202,  112,  113,  128,  127
 92,  188,  189,  204,  203,  113,  114,  129,  128
 93,  189,  190,  205,  204,  114,  115,  130,  129
 94,  190,  191,  206,  205,  115,  116,  131,  130
 95,  191,  192,  207,  206,  116,  117,  132,  131
 96,  192,  193,  208,  207,  117,  118,  133,  132
 97,  193,  194,  209,  208,  118,  119,  134,  133
 98,  194,  195,  210,  209,  119,  120,  135,  134
 99,  196,  197,  212,  211,  121,  122,  137,  136
100,  197,  198,  213,  212,  122,  123,  138,  137
101,  198,  199,  214,  213,  123,  124,  139,  138
102,  199,  200,  215,  214,  124,  125,  140,  139
103,  200,  201,  216,  215,  125,  126,  141,  140
104,  201,  202,  217,  216,  126,  127,  142,  141
105,  202,  203,  218,  217,  127,  128,  143,  142
106,  203,  204,  219,  218,  128,  129,  144,  143
107,  204,  205,  220,  219,  129,  130,  145,  144
108,  205,  206,  221,  220,  130,  131,  146,  145
109,  206,  207,  222,  221,  131,  132,  147,  146
110,  207,  208,  223,  222,  132,  133,  148,  147
111,  208,  209,  224,  223,  133,  134,  149,  148
112,  209,  210,  225,  224,  134,  135,  150,  149
113,  226,  227,  242,  241,  151,  152,  167,  166
114,  227,  228,  243,  242,  152,  153,  168,  167
115,  228,  229,  244,  243,  153,  154,  169,  168
116,  229,  230,  245,  244,  154,  155,  170,  169
117,  230,  231,  246,  245,  155,  156,  171,  170
118,  231,  232,  247,  246,  156,  157,  172,  171
119,  232,  233,  248,  247,  157,  158,  173,  172
120,  233,  234,  249,  248,  158,  159,  174,  173
121,  234,  235,  250,  249,  159,  160,  175,  174
122,  235,  236,  251,  250,  160,  161,  176,  175
123,  236,  237,  252,  251,  161,  162,  177,  176
124,  237,  238,  253,  252,  162,  163,  178,  177
125,  238,  239,  254,  253,  163,  164,  179,  178
126,  239,  240,  255,  254,  164,  165,  180,  179
127,  241,  242,  257,  256,  166,  167,  182,  181
128,  242,  243,  258,  257,  167,  168,  183,  182
129,  243,  244,  259,  258,  168,  169,  184,  183
130,  244,  245,  260,  259,  169,  170,  185,  184
131,  245,  246,  261,  260,  170,  171,  186,  185
132,  246,  247,  262,  261,  171,  172,  187,  186
133,  247,  248,  263,  262,  172,  173,  188,  187
134,  248,  249,  264,  263,  173,  174,  189,  188
135,  249,  250,  265,  264,  174,  175,  190,  189
136,  250,  251,  266,  265,  175,  176,  191,  190
137,  251,  252,  267,  266,  176,  177,  192,  191
138,  252,  253,  268,  267,  177,  178,  193,  192
139,  253,  254,  269,  268,  178,  179,  194,  193
140,  254,  255,  270,  269,  179,  180,  195,  194
141,  256,  257,  272,  271,  181,  182,  197,  196
142,  257,  258,  273,  272,  182,  183,  198,  197
143,  258,  259,  274,  273,  183,  184,  199,  198
144,  259,  260,  275,  274,  184,  185,  200,  199
145,  260,  261,  276,  275,  185,  186,  201,  200
146,  261,  262,  277,  276,  186,  187,  202,  201
147,  262,  263,  278,  277,  187,  188,  203,  202
148,  263,  264,  279,  278,  188,  189,  204,  203
149,  264,  265,  280,  279,  189,  190,  205,  204
150,  265,  266,  281,  280,  190,  191,  206,  205
151,  266,  267,  282,  281,  191,  192,  207,  206
152,  267,  268,  283,  282,  192,  193,  208,  207
153,  268,  269,  284,  283,  193,  194,  209,  208
154,  269,  270,  285,  284,  194,  195,  210,  209
155,  271,  272,  287,  286,  196,  197,  212,  211
156,  272,  273,  288,  287,  197,  198,  213,  212
157,  273,  274,  289,  288,  198,  199,  214,  213
158,  274,  275,  290,  289,  199,  200,  215,  214
159,  275,  276,  291,  290,  200,  201,  216,  215
160,  276,  277,  292,  291,  201,  202,  217,  216
161,  277,  278,  293,  292,  202,  203,  218,  217
162,  278,  279,  294,  293,  203,  204,  219,  218
163,  279,  280,  295,  294,  204,  205,  220,  219
164,  280,  281,  296,  295,  205,  206,  221,  220
165,  281,  282,  297,  296,  206,  207,  222,  221
166,  282,  283,  298,  297,  207,  208,  223,  222
167,  283,  284,  299,  298,  208,  209,  224,  223
168,  284,  285,  300,  299,  209,  210,  225,  224
169,  301,  302,  317,  316,  226,  227,  242,  241
170,  302,  303,  318,  317,  227,  228,  243,  242
171,  303,  304,  319,  318,  228,  229,  244,  243
172,  304,  305,  320,  319,  229,  230,  245,  244
173,  305,  306,  321,  320,  230,  231,  246,  245
174,  306,  307,  322,  321,  231,  232,  247,  246
175,  307,  308,  323,  322,  232,  233,  248,  247
176,  308,  309,  324,  323,  233,  234,  249,  248
177,  309,  310,  325,  324,  234,  235,  250,  249
178,  310,  311,  326,  325,  235,  236,  251,  250
179,  311,  312,  327,  326,  236,  237,  252,  251
180,  312,  313,  328,  327,  237,  238,  253,  252
181,  313,  314,  329,  328,  238,  239,  254,  253
182,  314,  315,  330,  329,  239,  240,  255,  254
183,  316,  317,  332,  331,  241,  242,  257,  256
184,  317,  318,  333,  332,  242,  243,  258,  257
185,  318,  319,  334,  333,  243,  244,  259,  258
186,  319,  320,  335,  334,  244,  245,  260,  259
187,  320,  321,  336,  335,  245,  246,  261,  260
188,  321,  322,  337,  336,  246,  247,  262,  261
189,  322,  323,  338,  337,  247,  248,  263,  262
190,  323,  324,  339,  338,  248,  249,  264,  263
191,  324,  325,  340,  339,  249,  250,  265,  264
192,  325,  326,  341,  340,  250,  251,  266,  265
193,  326,  327,  342,  341,  251,  252,  267,  266
194,  327,  328,  343,  342,  252,  253,  268,  267
195,  328,  329,  344,  343,  253,  254,  269,  268
196,  329,  330,  345,  344,  254,  255,  270,  269
197,  331,  332,  347,  346,  256,  257,  272,  271
198,  332,  333,  348,  347,  257,  258,  273,  272
199,  333,  334,  349,  348,  258,  259,  274,  273
200,  334,  335,  350,  349,  259,  260,  275,  274
201,  335,  336,  351,  350,  260,  261,  276,  275
202,  336,  337,  352,  351,  261,  262,  277,  276
203,  337,  338,  353,  352,  262,  263,  278,  277
204,  338,  339,  354,  353,  263,  264,  279,  278
205,  339,  340,  355,  354,  264,  265,  280,  279
206,  340,  341,  356,  355,  265,  266,  281,  280
207,  341,  342,  357,  356,  266,  267,  282,  281
208,  342,  343,  358,  357,  267,  268,  283,  282
209,  343,  344,  359,  358,  268,  269,  284,  283
210,  344,  345,  360,  359,  269,  270,  285,  284
211,  346,  347,  362,  361,  271,  272,  287,  286
212,  347,  348,  363,  362,  272,  273,  288,  287
213,  348,  349,  364,  363,  273,  274,  289,  288
214,  349,  350,  365,  364,  274,  275,  290,  289
215,  350,  351,  366,  365,  275,  276,  291,  290
216,  351,  352,  367,  366,  276,  277,  292,  291
217,  352,  353,  368,  367,  277,  278,  293,  292
218,  353,  354,  369,  368,  278,  279,  294,  293
219,  354,  355,  370,  369,  279,  280,  295,  294
220,  355,  356,  371,  370,  280,  281,  296,  295
221,  356,  357,  372,  371,  281,  282,  297,  296
222,  357,  358,  373,  372,  282,  283,  298,  297
223,  358,  359,  374,  373,  283,  284,  299,  298
224,  359,  360,  375,  374,  284,  285,  300,  299
225,  376,  377,  392,  391,  301,  302,  317,  316
226,  377,  378,  393,  392,  302,  303,  318,  317
227,  378,  379,  394,  393,  303,  304,  319,  318
228,  379,  380,  395,  394,  304,  305,  320,  319
229,  380,  381,  396,  395,  305,  306,  321,  320
230,  381,  382,  397,  396,  306,  307,  322,  321
231,  382,  383,  398,  397,  307,  308,  323,  322
232,  383,  384,  399,  398,  308,  309,  324,  323
233,  384,  385,  400,  399,  309,  310,  325,  324
234,  385,  386,  401,  400,  310,  311,  326,  325
235,  386,  387,  402,  401,  311,  312,  327,  326
236,  387,  388,  403,  402,  312,  313,  328,  327
237,  388,  389,  404,  403,  313,  314,  329,  328
238,  389,  390,  405,  404,  314,  315,  330,  329
239,  391,  392,  407,  406,  316,  317,  332,  331
240,  392,  393,  408,  407,  317,  318,  333,  332
241,  393,  394,  409,  408,  318,  319,  334,  333
242,  394,  395,  410,  409,  319,  320,  335,  334
243,  395,  396,  411,  410,  320,  321,  336,  335
244,  396,  397,  412,  411,  321,  322,  337,  336
245,  397,  398,  413,  412,  322,  323,  338,  337
246,  398,  399,  414,  413,  323,  324,  339,  338
247,  399,  400,  415,  414,  324,  325,  340,  339
248,  400,  401,  416,  415,  325,  326,  341,  340
249,  401,  402,  417,  416,  326,  327,  342,  341
250,  402,  403,  418,  417,  327,  328,  343,  342
251,  403,  404,  419,  418,  328,  329,  344,  343
252,  404,  405,  420,  419,  329,  330,  345,  344
253,  406,  407,  422,  421,  331,  332,  347,  346
254,  407,  408,  423,  422,  332,  333,  348,  347
255,  408,  409,  424,  423,  333,  334,  349,  348
256,  409,  410,  425,  424,  334,  335,  350,  349
257,  410,  411,  426,  425,  335,  336,  351,  350
258,  411,  412,  427,  426,  336,  337,  352,  351
259,  412,  413,  428,  427,  337,  338,  353,  352
260,  413,  414,  429,  428,  338,  339,  354,  353
261,  414,  415,  430,  429,  339,  340,  355,  354
262,  415,  416,  431,  430,  340,  341,  356,  355
263,  416,  417,  432,  431,  341,  342,  357,  356
264,  417,  418,  433,  432,  342,  343,  358,  357
265,  418,  419,  434,  433,  343,  344,  359,  358
266,  419,  420,  435,  434,  344,  345,  360,  359
267,  421,  422,  437,  436,  346,  347,  362,  361
268,  422,  423,  438,  437,  347,  348,  363,  362
269,  423,  424,  439,  438,  348,  349,  364,  363
270,  424,  425,  440,  439,  349,  350,  365,  364
271,  425,  426,  441,  440,  350,  351,  366,  365
272,  426,  427,  442,  441,  351,  352,  367,  366
273,  427,  428,  443,  442,  352,  353,  368,  367
274,  428,  429,  444,  443,  353,  354,  369,  368
275,  429,  430,  445,  444,  354,  355,  370,  369
276,  430,  431,  446,  445,  355,  356,  371,  370
277,  431,  432,  447,  446,  356,  357,  372,  371
278,  432,  433,  448,  447,  357,  358,  373,  372
279,  433,  434,  449,  448,  358,  359,  374,  373
280,  434,  435,  450,  449,  359,  360,  375,  374
281,  451,  452,  467,  466,  376,  377,  392,  391
282,  452,  453,  468,  467,  377,  378,  393,  392
283,  453,  454,  469,  468,  378,  379,  394,  393
284,  454,  455,  470,  469,  379,  380,  395,  394
285,  455,  456,  471,  470,  380,  381,  396,  395
286,  456,  457,  472,  471,  381,  382,  397,  396
287,  457,  458,  473,  472,  382,  383,  398,  397
288,  458,  459,  474,  473,  383,  384,  399,  398
289,  459,  460,  475,  474,  384,  385,  400,  399
290,  460,  461,  476,  475,  385,  386,  401,  400
291,  461,  462,  477,  476,  386,  387,  402,  401
292,  462,  463,  478,  477,  387,  388,  403,  402
293,  463,  464,  479,  478,  388,  389,  404,  403
294,  464,  465,  480,  479,  389,  390,  405,  404
295,  466,  467,  482,  481,  391,  392,  407,  406
296,  467,  468,  483,  482,  392,  393,  408,  407
297,  468,  469,  484,  483,  393,  394,  409,  408
298,  469,  470,  485,  484,  394,  395,  410,  409
299,  470,  471,  486,  485,  395,  396,  411,  410
300,  471,  472,  487,  486,  396,  397,  412,  411
301,  472,  473,  488,  487,  397,  398,  413,  412
302,  473,  474,  489,  488,  398,  399,  414,  413
303,  474,  475,  490,  489,  399,  400,  415,  414
304,  475,  476,  491,  490,  400,  401,  416,  415
305,  476,  477,  492,  491,  401,  402,  417,  416
306,  477,  478,  493,  492,  402,  403,  418,  417
307,  478,  479,  494,  493,  403,  404,  419,  418
308,  479,  480,  495,  494,  404,  405,  420,  419
309,  481,  482,  497,  496,  406,  407,  422,  421
310,  482,  483,  498,  497,  407,  408,  423,  422
311,  483,  484,  499,  498,  408,  409,  424,  423
312,  484,  485,  500,  499,  409,  410,  425,  424
313,  485,  486,  501,  500,  410,  411,  426,  425
314,  486,  487,  502,  501,  411,  412,  427,  426
315,  487,  488,  503,  502,  412,  413,  428,  427
316,  488,  489,  504,  503,  413,  414,  429,  428
317,  489,  490,  505,  504,  414,  415,  430,  429
318,  490,  491,  506,  505,  415,  416,  431,  430
319,  491,  492,  507,  506,  416,  417,  432,  431
320,  492,  493,  508,  507,  417,  418,  433,  432
321,  493,  494,  509,  508,  418,  419,  434,  433
322,  494,  495,  510,  509,  419,  420,  435,  434
323,  496,  497,  512,  511,  421,  422,  437,  436
324,  497,  498,  513,  512,  422,  423,  438,  437
325,  498,  499,  514,  513,  423,  424,  439,  438
326,  499,  500,  515,  514,  424,  425,  440,  439
327,  500,  501,  516,  515,  425,  426,  441,  440
328,  501,  502,  517,  516,  426,  427,  442,  441
329,  502,  503,  518,  517,  427,  428,  443,  442
330,  503,  504,  519,  518,  428,  429,  444,  443
331,  504,  505,  520,  519,  429,  430,  445,  444
332,  505,  506,  521,  520,  430,  431,  446,  445
333,  506,  507,  522,  521,  431,  432,  447,  446
334,  507,  508,  523,  522,  432,  433,  448,  447
335,  508,  509,  524,  523,  433,  434,  449,  448
336,  509,  510,  525,  524,  434,  435,  450,  449
337,  526,  527,  542,  541,  451,  452,  467,  466
338,  527,  528,  543,  542,  452,  453,  468,  467
339,  528,  529,  544,  543,  453,  454,  469,  468
340,  529,  530,  545,  544,  454,  455,  470,  469
341,  530,  531,  546,  545,  455,  456,  471,  470
342,  531,  532,  547,  546,  456,  457,  472,  471
343,  532,  533,  548,  547,  457,  458,  473,  472
344,  533,  534,  549,  548,  458,  459,  474,  473
345,  534,  535,  550,  549,  459,  460,  475,  474
346,  535,  536,  551,  550,  460,  461,  476,  475
347,  536,  537,  552,  551,  461,  462,  477,  476
348,  537,  538,  553,  552,  462,  463,  478,  477
349,  538,  539,  554,  553,  463,  464,  479,  478
350,  539,  540,  555,  554,  464,  465,  480,  479
351,  541,  542,  557,  556,  466,  467,  482,  481
352,  542,  543,  558,  557,  467,  468,  483,  482
353,  543,  544,  559,  558,  468,  469,  484,  483
354,  544,  545,  560,  559,  469,  470,  485,  484
355,  545,  546,  561,  560,  470,  471,  486,  485
356,  546,  547,  562,  561,  471,  472,  487,  486
357,  547,  548,  563,  562,  472,  473,  488,  487
358,  548,  549,  564,  563,  473,  474,  489,  488
359,  549,  550,  565,  564,  474,  475,  490,  489
360,  550,  551,  566,  565,  475,  476,  491,  490
361,  551,  552,  567,  566,  476,  477,  492,  491
362,  552,  553,  568,  567,  477,  478,  493,  492
363,  553,  554,  569,  568,  478,  479,  494,  493
364,  554,  555,  570,  569,  479,  480,  495,  494
365,  556,  557,  572,  571,  481,  482,  497,  496
366,  557,  558,  573,  572,  482,  483,  498,  497
367,  558,  559,  574,  573,  483,  484,  499,  498
368,  559,  560,  575,  574,  484,  485,  500,  499
369,  560,  561,  576,  575,  485,  486,  501,  500
370,  561,  562,  577,  576,  486,  487,  502,  501
371,  562,  563,  578,  577,  487,  488,  503,  502
372,  563,  564,  579,  578,  488,  489,  504,  503
373,  564,  565,  580,  579,  489,  490,  505,  504
374,  565,  566,  581,  580,  490,  491,  506,  505
375,  566,  567,  582,  581,  491,  492,  507,  506
376,  567,  568,  583,  582,  492,  493,  508,  507
377,  568,  569,  584,  583,  493,  494,  509,  508
378,  569,  570,  585,  584,  494,  495,  510,  509
379,  571,  572,  587,  586,  496,  497,  512,  511
380,  572,  573,  588,  587,  497,  498,  513,  512
381,  573,  574,  589,  588,  498,  499,  514,  513
382,  574,  575,  590,  589,  499,  500,  515,  514
383,  575,  576,  591,  590,  500,  501,  516,  515
384,  576,  577,  592,  591,  501,  502,  517,  516
385,  577,  578,  593,  592,  502,  503,  518,  517
386,  578,  579,  594,  593,  503,  504,  519,  518
387,  579,  580,  595,  594,  504,  505,  520,  519
388,  580,  581,  596,  595,  505,  506,  521,  520
389,  581,  582,  597,  596,  506,  507,  522,  521
390,  582,  583,  598,  597,  507,  508,  523,  522
391,  583,  584,  599,  598,  508,  509,  524,  523
392,  584,  585,  600,  599,  509,  510,  525,  524
393,  601,  602,  617,  616,  526,  527,  542,  541
394,  602,  603,  618,  617,  527,  528,  543,  542
395,  603,  604,  619,  618,  528,  529,  544,  543
396,  604,  605,  620,  619,  529,  530,  545,  544
397,  605,  606,  621,  620,  530,  531,  546,  545
398,  606,  607,  622,  621,  531,  532,  547,  546
399,  607,  608,  623,  622,  532,  533,  548,  547
400,  608,  609,  624,  623,  533,  534,  549,  548
401,  609,  610,  625,  624,  534,  535,  550,  549
402,  610,  611,  626,  625,  535,  536,  551,  550
403,  611,  612,  627,  626,  536,  537,  552,  551
404,  612,  613,  628,  627,  537,  538,  553,  552
405,  613,  614,  629,  628,  538,  539,  554,  553
406,  614,  615,  630,  629,  539,  540,  555,  554
407,  616,  617,  632,  631,  541,  542,  557,  556
408,  617,  618,  633,  632,  542,  543,  558,  557
409,  618,  619,  634,  633,  543,  544,  559,  558
410,  619,  620,  635,  634,  544,  545,  560,  559
411,  620,  621,  636,  635,  545,  546,  561,  560
412,  621,  622,  637,  636,  546,  547,  562,  561
413,  622,  623,  638,  637,  547,  548,  563,  562
414,  623,  624,  639,  638,  548,  549,  564,  563
415,  624,  625,  640,  639,  549,  550,  565,  564
416,  625,  626,  641,  640,  550,  551,  566,  565
417,  626,  627,  642,  641,  551,  552,  567,  566
418,  627,  628,  643,  642,  552,  553,  568,  567
419,  628,  629,  644,  643,  553,  554,  569,  568
420,  629,  630,  645,  644,  554,  555,  570,  569
421,  631,  632,  647,  646,  556,  557,  572,  571
422,  632,  633,  648,  647,  557,  558,  573,  572
423,  633,  634,  649,  648,  558,  559,  574,  573
424,  634,  635,  650,  649,  559,  560,  575,  574
425,  635,  636,  651,  650,  560,  561,  576,  575
426,  636,  637,  652,  651,  561,  562,  577,  576
427,  637,  638,  653,  652,  562,  563,  578,  577
428,  638,  639,  654,  653,  563,  564,  579,  578
429,  639,  640,  655,  654,  564,  565,  580,  579
430,  640,  641,  656,  655,  565,  566,  581,  580
431,  641,  642,  657,  656,  566,  567,  582,  581
432,  642,  643,  658,  657,  567,  568,  583,  582
433,  643,  644,  659,  658,  568,  569,  584,  583
434,  644,  645,  660,  659,  569,  570,  585,  584
435,  646,  647,  662,  661,  571,  572,  587,  586
436,  647,  648,  663,  662,  572,  573,  588,  587
437,  648,  649,  664,  663,  573,  574,  589,  588
438,  649,  650,  665,  664,  574,  575,  590,  589
439,  650,  651,  666,  665,  575,  576,  591,  590
440,  651,  652,  667,  666,  576,  577,  592,  591
441,  652,  653,  668,  667,  577,  578,  593,  592
442,  653,  654,  669,  668,  578,  579,  594,  593
443,  654,  655,  670,  669,  579,  580,  595,  594
444,  655,  656,  671,  670,  580,  581,  596,  595
445,  656,  657,  672,  671,  581,  582,  597,  596
446,  657,  658,  673,  672,  582,  583,  598,  597
447,  658,  659,  674,  673,  583,  584,  599,  598
448,  659,  660,  675,  674,  584,  585,  600,  599
449,  676,  677,  692,  691,  601,  602,  617,  616
450,  677,  678,  693,  692,  602,  603,  618,  617
451,  678,  679,  694,  693,  603,  604,  619,  618
452,  679,  680,  695,  694,  604,  605,  620,  619
453,  680,  681,  696,  695,  605,  606,  621,  620
454,  681,  682,  697,  696,  606,  607,  622,  621
455,  682,  683,  698,  697,  607,  608,  623,  622
456,  683,  684,  699,  698,  608,  609,  624,  623
457,  684,  685,  700,  699,  609,  610,  625,  624
458,  685,  686,  701,  700,  610,  611,  626,  625
459,  686,  687,  702,  701,  611,  612,  627,  626
460,  687,  688,  703,  702,  612,  613,  628,  627
461,  688,  689,  704,  703,  613,  614,  629,  628
462,  689,  690,  705,  704,  614,  615,  630,  629
463,  691,  692,  707,  706,  616,  617,  632,  631
464,  692,  693,  708,  707,  617,  618,  633,  632
465,  693,  694,  709,  708,  618,  619,  634,  633
466,  694,  695,  710,  709,  619,  620,  635,  634
467,  695,  696,  711,  710,  620,  621,  636,  635
468,  696,  697,  712,  711,  621,  622,  637,  636
469,  697,  698,  713,  712,  622,  623,  638,  637
470,  698,  699,  714,  713,  623,  624,  639,  638
471,  699,  700,  715,  714,  624,  625,  640,  639
472,  700,  701,  716,  715,  625,  626,  641,  640
473,  701,  702,  717,  716,  626,  627,  642,  641
474,  702,  703,  718,  717,  627,  628,  643,  642
475,  703,  704,  719,  718,  628,  629,  644,  643
476,  704,  705,  720,  719,  629,  630,  645,  644
477,  706,  707,  722,  721,  631,  632,  647,  646
478,  707,  708,  723,  722,  632,  633,  648,  647
479,  708,  709,  724,  723,  633,  634,  649,  648
480,  709,  710,  725,  724,  634,  635,  650,  649
481,  710,  711,  726,  725,  635,  636,  651,  650
482,  711,  712,  727,  726,  636,  637,  652,  651
483,  712,  713,  728,  727,  637,  638,  653,  652
484,  713,  714,  729,  728,  638,  639,  654,  653
485,  714,  715,  730,  729,  639,  640,  655,  654
486,  715,  716,  731,  730,  640,  641,  656,  655
487,  716,  717,  732,  731,  641,  642,  657,  656
488,  717,  718,  733,  732,  642,  643,  658,  657
489,  718,  719,  734,  733,  643,  644,  659,  658
490,  719,  720,  735,  734,  644,  645,  660,  659
491,  721,  722,  737,  736,  646,  647,  662,  661
492,  722,  723,  738,  737,  647,  648,  663,  662
493,  723,  724,  739,  738,  648,  649,  664,  663
494,  724,  725,  740,  739,  649,  650,  665,  664
495,  725,  726,  741,  740,  650,  651,  666,  665
496,  726,  727,  742,  741,  651,  652,  667,  666
497,  727,  728,  743,  742,  652,  653,  668,  667
498,  728,  729,  744,  743,  653,  654,  669,  668
499,  729,  730,  745,  744,  654,  655,  670,  669
500,  730,  731,  746,  745,  655,  656,  671,  670
501,  731,  732,  747,  746,  656,  657,  672,  671
502,  732,  733,  748,  747,  657,  658,  673,  672
503,  733,  734,  749,  748,  658,  659,  674,  673
504,  734,  735,  750,  749,  659,  660,  675,  674
505,  751,  752,  767,  766,  676,  677,  692,  691
506,  752,  753,  768,  767,  677,  678,  693,  692
507,  753,  754,  769,  768,  678,  679,  694,  693
508,  754,  755,  770,  769,  679,  680,  695,  694
509,  755,  756,  771,  770,  680,  681,  696,  695
510,  756,  757,  772,  771,  681,  682,  697,  696
511,  757,  758,  773,  772,  682,  683,  698,  697
512,  758,  759,  774,  773,  683,  684,  699,  698
513,  759,  760,  775,  774,  684,  685,  700,  699
514,  760,  761,  776,  775,  685,  686,  701,  700
515,  761,  762,  777,  776,  686,  687,  702,  701
516,  762,  763,  778,  777,  687,  688,  703,  702
517,  763,  764,  779,  778,  688,  689,  704,  703
518,  764,  765,  780,  779,  689,  690,  705,  704
519,  766,  767,  782,  781,  691,  692,  707,  706
520,  767,  768,  783,  782,  692,  693,  708,  707
521,  768,  769,  784,  783,  693,  694,  709,  708
522,  769,  770,  785,  784,  694,  695,  710,  709
523,  770,  771,  786,  785,  695,  696,  711,  710
524,  771,  772,  787,  786,  696,  697,  712,  711
525,  772,  773,  788,  787,  697,  698,  713,  712
526,  773,  774,  789,  788,  698,  699,  714,  713
527,  774,  775,  790,  789,  699,  700,  715,  714
528,  775,  776,  791,  790,  700,  701,  716,  715
529,  776,  777,  792,  791,  701,  702,  717,  716
530,  777,  778,  793,  792,  702,  703,  718,  717
531,  778,  779,  794,  793,  703,  704,  719,  718
532,  779,  780,  795,  794,  704,  705,  720,  719
533,  781,  782,  797,  796,  706,  707,  722,  721
534,  782,  783,  798,  797,  707,  708,  723,  722
535,  783,  784,  799,  798,  708,  709,  724,  723
536,  784,  785,  800,  799,  709,  710,  725,  724
537,  785,  786,  801,  800,  710,  711,  726,  725
538,  786,  787,  802,  801,  711,  712,  727,  726
539,  787,  788,  803,  802,  712,  713,  728,  727
540,  788,  789,  804,  803,  713,  714,  729,  728
541,  789,  790,  805,  804,  714,  715,  730,  729
542,  790,  791,  806,  805,  715,  716,  731,  730
543,  791,  792,  807,  806,  716,  717,  732,  731
544,  792,  793,  808,  807,  717,  718,  733,  732
545,  793,  794,  809,  808,  718,  719,  734,  733
546,  794,  795,  810,  809,  719,  720,  735,  734
547,  796,  797,  812,  811,  721,  722,  737,  736
548,  797,  798,  813,  812,  722,  723,  738,  737
549,  798,  799,  814,  813,  723,  724,  739,  738
550,  799,  800,  815,  814,  724,  725,  740,  739
551,  800,  801,  816,  815,  725,  726,  741,  740
552,  801,  802,  817,  816,  726,  727,  742,  741
553,  802,  803,  818,  817,  727,  728,  743,  742
554,  803,  804,  819,  818,  728,  729,  744,  743
555,  804,  805,  820,  819,  729,  730,  745,  744
556,  805,  806,  821,  820,  730,  731,  746,  745
557,  806,  807,  822,  821,  731,  732,  747,  746
558,  807,  808,  823,  822,  732,  733,  748,  747
559,  808,  809,  824,  823,  733,  734,  749,  748
560,  809,  810,  825,  824,  734,  735,  750,  749
561,  826,  827,  842,  841,  751,  752,  767,  766
562,  827,  828,  843,  842,  752,  753,  768,  767
563,  828,  829,  844,  843,  753,  754,  769,  768
564,  829,  830,  845,  844,  754,  755,  770,  769
565,  830,  831,  846,  845,  755,  756,  771,  770
566,  831,  832,  847,  846,  756,  757,  772,  771
567,  832,  833,  848,  847,  757,  758,  773,  772
568,  833,  834,  849,  848,  758,  759,  774,  773
569,  834,  835,  850,  849,  759,  760,  775,  774
570,  835,  836,  851,  850,  760,  761,  776,  775
571,  836,  837,  852,  851,  761,  762,  777,  776
572,  837,  838,  853,  852,  762,  763,  778,  777
573,  838,  839,  854,  853,  763,  764,  779,  778
574,  839,  840,  855,  854,  764,  765,  780,  779
575,  841,  842,  857,  856,  766,  767,  782,  781
576,  842,  843,  858,  857,  767,  768,  783,  782
577,  843,  844,  859,  858,  768,  769,  784,  783
578,  844,  845,  860,  859,  769,  770,  785,  784
579,  845,  846,  861,  860,  770,  771,  786,  785
580,  846,  847,  862,  861,  771,  772,  787,  786
581,  847,  848,  863,  862,  772,  773,  788,  787
582,  848,  849,  864,  863,  773,  774,  789,  788
583,  849,  850,  865,  864,  774,  775,  790,  789
584,  850,  851,  866,  865,  775,  776,  791,  790
585,  851,  852,  867,  866,  776,  777,  792,  791
586,  852,  853,  868,  867,  777,  778,  793,  792
587,  853,  854,  869,  868,  778,  779,  794,  793
588,  854,  855,  870,  869,  779,  780,  795,  794
589,  856,  857,  872,  871,  781,  782,  797,  796
590,  857,  858,  873,  872,  782,  783,  798,  797
591,  858,  859,  874,  873,  783,  784,  799,  798
592,  859,  860,  875,  874,  784,  785,  800,  799
593,  860,  861,  876,  875,  785,  786,  801,  800
594,  861,  862,  877,  876,  786,  787,  802,  801
595,  862,  863,  878,  877,  787,  788,  803,  802
596,  863,  864,  879,  878,  788,  789,  804,  803
597,  864,  865,  880,  879,  789,  790,  805,  804
598,  865,  866,  881,  880,  790,  791,  806,  805
599,  866,  867,  882,  881,  791,  792,  807,  806
600,  867,  868,  883,  882,  792,  793,  808,  807
601,  868,  869,  884,  883,  793,  794,  809,  808
602,  869,  870,  885,  884,  794,  795,  810,  809
603,  871,  872,  887,  886,  796,  797,  812,  811
604,  872,  873,  888,  887,  797,  798,  813,  812
605,  873,  874,  889,  888,  798,  799,  814,  813
606,  874,  875,  890,  889,  799,  800,  815,  814
607,  875,  876,  891,  890,  800,  801,  816,  815
608,  876,  877,  892,  891,  801,  802,  817,  816
609,  877,  878,  893,  892,  802,  803,  818,  817
610,  878,  879,  894,  893,  803,  804,  819,  818
611,  879,  880,  895,  894,  804,  805,  820,  819
612,  880,  881,  896,  895,  805,  806,  821,  820
613,  881,  882,  897,  896,  806,  807,  822,  821
614,  882,  883,  898,  897,  807,  808,  823,  822
615,  883,  884,  899,  898,  808,  809,  824,  823
616,  884,  885,  900,  899,  809,  810,  825,  824
617,  901,  902,  917,  916,  826,  827,  842,  841
618,  902,  903,  918,  917,  827,  828,  843,  842
619,  903,  904,  919,  918,  828,  829,  844,  843
620,  904,  905,  920,  919,  829,  830,  845,  844
621,  905,  906,  921,  920,  830,  831,  846,  845
622,  906,  907,  922,  921,  831,  832,  847,  846
623,  907,  908,  923,  922,  832,  833,  848,  847
624,  908,  909,  924,  923,  833,  834,  849,  848
625,  909,  910,  925,  924,  834,  835,  850,  849
626,  910,  911,  926,  925,  835,  836,  851,  850
627,  911,  912,  927,  926,  836,  837,  852,  851
628,  912,  913,  928,  927,  837,  838,  853,  852
629,  913,  914,  929,  928,  838,  839,  854,  853
630,  914,  915,  930,  929,  839,  840,  855,  854
631,  916,  917,  932,  931,  841,  842,  857,  856
632,  917,  918,  933,  932,  842,  843,  858,  857
633,  918,  919,  934,  933,  843,  844,  859,  858
634,  919,  920,  935,  934,  844,  845,  860,  859
635,  920,  921,  936,  935,  845,  846,  861,  860
636,  921,  922,  937,  936,  846,  847,  862,  861
637,  922,  923,  938,  937,  847,  848,  863,  862
638,  923,  924,  939,  938,  848,  849,  864,  863
639,  924,  925,  940,  939,  849,  850,  865,  864
640,  925,  926,  941,  940,  850,  851,  866,  865
641,  926,  927,  942,  941,  851,  852,  867,  866
642,  927,  928,  943,  942,  852,  853,  868,  867
643,  928,  929,  944,  943,  853,  854,  869,  868
644,  929,  930,  945,  944,  854,  855,  870,  869
645,  931,  932,  947,  946,  856,  857,  872,  871
646,  932,  933,  948,  947,  857,  858,  873,  872
647,  933,  934,  949,  948,  858,  859,  874,  873
648,  934,  935,  950,  949,  859,  860,  875,  874
649,  935,  936,  951,  950,  860,  861,  876,  875
650,  936,  937,  952,  951,  861,  862,  877,  876
651,  937,  938,  953,  952,  862,  863,  878,  877
652,  938,  939,  954,  953,  863,  864,  879,  878
653,  939,  940,  955,  954,  864,  865,  880,  879
654,  940,  941,  956,  955,  865,  866,  881,  880
655,  941,  942,  957,  956,  866,  867,  882,  881
656,  942,  943,  958,  957,  867,  868,  883,  882
657,  943,  944,  959,  958,  868,  869,  884,  883
658,  944,  945,  960,  959,  869,  870,  885,  884
659,  946,  947,  962,  961,  871,  872,  887,  886
660,  947,  948,  963,  962,  872,  873,  888,  887
661,  948,  949,  964,  963,  873,  874,  889,  888
662,  949,  950,  965,  964,  874,  875,  890,  889
663,  950,  951,  966,  965,  875,  876,  891,  890
664,  951,  952,  967,  966,  876,  877,  892,  891
665,  952,  953,  968,  967,  877,  878,  893,  892
666,  953,  954,  969,  968,  878,  879,  894,  893
667,  954,  955,  970,  969,  879,  880,  895,  894
668,  955,  956,  971,  970,  880,  881,  896,  895
669,  956,  957,  972,  971,  881,  882,  897,  896
670,  957,  958,  973,  972,  882,  883,  898,  897
671,  958,  959,  974,  973,  883,  884,  899,  898
672,  959,  960,  975,  974,  884,  885,  900,  899
673,  976,  977,  992,  991,  901,  902,  917,  916
674,  977,  978,  993,  992,  902,  903,  918,  917
675,  978,  979,  994,  993,  903,  904,  919,  918
676,  979,  980,  995,  994,  904,  905,  920,  919
677,  980,  981,  996,  995,  905,  906,  921,  920
678,  981,  982,  997,  996,  906,  907,  922,  921
679,  982,  983,  998,  997,  907,  908,  923,  922
680,  983,  984,  999,  998,  908,  909,  924,  923
681,  984,  985, 1000,  999,  909,  910,  925,  924
682,  985,  986, 1001, 1000,  910,  911,  926,  925
683,  986,  987, 1002, 1001,  911,  912,  927,  926
684,  987,  988, 1003, 1002,  912,  913,  928,  927
685,  988,  989, 1004, 1003,  913,  914,  929,  928
686,  989,  990, 1005, 1004,  914,  915,  930,  929
687,  991,  992, 1007, 1006,  916,  917,  932,  931
688,  992,  993, 1008, 1007,  917,  918,  933,  932
689,  993,  994, 1009, 1008,  918,  919,  934,  933
690,  994,  995, 1010, 1009,  919,  920,  935,  934
691,  995,  996, 1011, 1010,  920,  921,  936,  935
692,  996,  997, 1012, 1011,  921,  922,  937,  936
693,  997,  998, 1013, 1012,  922,  923,  938,  937
694,  998,  999, 1014, 1013,  923,  924,  939,  938
695,  999, 1000, 1015, 1014,  924,  925,  940,  939
696, 1000, 1001, 1016, 1015,  925,  926,  941,  940
697, 1001, 1002, 1017, 1016,  926,  927,  942,  941
698, 1002, 1003, 1018, 1017,  927,  928,  943,  942
699, 1003, 1004, 1019, 1018,  928,  929,  944,  943
700, 1004, 1005, 1020, 1019,  929,  930,  945,  944
701, 1006, 1007, 1022, 1021,  931,  932,  947,  946
702, 1007, 1008, 1023, 1022,  932,  933,  948,  947
703, 1008, 1009, 1024, 1023,  933,  934,  949,  948
704, 1009, 1010, 1025, 1024,  934,  935,  950,  949
705, 1010, 1011, 1026, 1025,  935,  936,  951,  950
706, 1011, 1012, 1027, 1026,  936,  937,  952,  951
707, 1012, 1013, 1028, 1027,  937,  938,  953,  952
708, 1013, 1014, 1029, 1028,  938,  939,  954,  953
709, 1014, 1015, 1030, 1029,  939,  940,  955,  954
710, 1015, 1016, 1031, 1030,  940,  941,  956,  955
711, 1016, 1017, 1032, 1031,  941,  942,  957,  956
712, 1017, 1018, 1033, 1032,  942,  943,  958,  957
713, 1018, 1019, 1034, 1033,  943,  944,  959,  958
714, 1019, 1020, 1035, 1034,  944,  945,  960,  959
715, 1021, 1022, 1037, 1036,  946,  947,  962,  961
716, 1022, 1023, 1038, 1037,  947,  948,  963,  962
717, 1023, 1024, 1039, 1038,  948,  949,  964,  963
718, 1024, 1025, 1040, 1039,  949,  950,  965,  964
719, 1025, 1026, 1041, 1040,  950,  951,  966,  965
720, 1026, 1027, 1042, 1041,  951,  952,  967,  966
721, 1027, 1028, 1043, 1042,  952,  953,  968,  967
722, 1028, 1029, 1044, 1043,  953,  954,  969,  968
723, 1029, 1030, 1045, 1044,  954,  955,  970,  969
724, 1030, 1031, 1046, 1045,  955,  956,  971,  970
725, 1031, 1032, 1047, 1046,  956,  957,  972,  971
726, 1032, 1033, 1048, 1047,  957,  958,  973,  972
727, 1033, 1034, 1049, 1048,  958,  959,  974,  973
728, 1034, 1035, 1050, 1049,  959,  960,  975,  974
729, 1051, 1052, 1067, 1066,  976,  977,  992,  991
730, 1052, 1053, 1068, 1067,  977,  978,  993,  992
731, 1053, 1054, 1069, 1068,  978,  979,  994,  993
732, 1054, 1055, 1070, 1069,  979,  980,  995,  994
733, 1055, 1056, 1071, 1070,  980,  981,  996,  995
734, 1056, 1057, 1072, 1071,  981,  982,  997,  996
735, 1057, 1058, 1073, 1072,  982,  983,  998,  997
736, 1058, 1059, 1074, 1073,  983,  984,  999,  998
737, 1059, 1060, 1075, 1074,  984,  985, 1000,  999
738, 1060, 1061, 1076, 1075,  985,  986, 1001, 1000
739, 1061, 1062, 1077, 1076,  986,  987, 1002, 1001
740, 1062, 1063, 1078, 1077,  987,  988, 1003, 1002
741, 1063, 1064, 1079, 1078,  988,  989, 1004, 1003
742, 1064, 1065, 1080, 1079,  989,  990, 1005, 1004
743, 1066, 1067, 1082, 1081,  991,  992, 1007, 1006
744, 1067, 1068, 1083, 1082,  992,  993, 1008, 1007
745, 1068, 1069, 1084, 1083,  993,  994, 1009, 1008
746, 1069, 1070, 1085, 1084,  994,  995, 1010, 1009
747, 1070, 1071, 1086, 1085,  995,  996, 1011, 1010
748, 1071, 1072, 1087, 1086,  996,  997, 1012, 1011
749, 1072, 1073, 1088, 1087,  997,  998, 1013, 1012
750, 1073, 1074, 1089, 1088,  998,  999, 1014, 1013
751, 1074, 1075, 1090, 1089,  999, 1000, 1015, 1014
752, 1075, 1076, 1091, 1090, 1000, 1001, 1016, 1015
753, 1076, 1077, 1092, 1091, 1001, 1002, 1017, 1016
754, 1077, 1078, 1093, 1092, 1002, 1003, 1018, 1017
755, 1078, 1079, 1094, 1093, 1003, 1004, 1019, 1018
756, 1079, 1080, 1095, 1094, 1004, 1005, 1020, 1019
757, 1081, 1082, 1097, 1096, 1006, 1007, 1022, 1021
758, 1082, 1083, 1098, 1097, 1007, 1008, 1023, 1022
759, 1083, 1084, 1099, 1098, 1008, 1009, 1024, 1023
760, 1084, 1085, 1100, 1099, 1009, 1010, 1025, 1024
761, 1085, 1086, 1101, 1100, 1010, 1011, 1026, 1025
762, 1086, 1087, 1102, 1101, 1011, 1012, 1027, 1026
763, 1087, 1088, 1103, 1102, 1012, 1013, 1028, 1027
764, 1088, 1089, 1104, 1103, 1013, 1014, 1029, 1028
765, 1089, 1090, 1105, 1104, 1014, 1015, 1030, 1029
766, 1090, 1091, 1106, 1105, 1015, 1016, 1031, 1030
767, 1091, 1092, 1107, 1106, 1016, 1017, 1032, 1031
768, 1092, 1093, 1108, 1107, 1017, 1018, 1033, 1032
769, 1093, 1094, 1109, 1108, 1018, 1019, 1034, 1033
770, 1094, 1095, 1110, 1109, 1019, 1020, 1035, 1034
771, 1096, 1097, 1112, 1111, 1021, 1022, 1037, 1036
772, 1097, 1098, 1113, 1112, 1022, 1023, 1038, 1037
773, 1098, 1099, 1114, 1113, 1023, 1024, 1039, 1038
774, 1099, 1100, 1115, 1114, 1024, 1025, 1040, 1039
775, 1100, 1101, 1116, 1115, 1025, 1026, 1041, 1040
776, 1101, 1102, 1117, 1116, 1026, 1027, 1042, 1041
777, 1102, 1103, 1118, 1117, 1027, 1028, 1043, 1042
778, 1103, 1104, 1119, 1118, 1028, 1029, 1044, 1043
779, 1104, 1105, 1120, 1119, 1029, 1030, 1045, 1044
780, 1105, 1106, 1121, 1120, 1030, 1031, 1046, 1045
781, 1106, 1107, 1122, 1121, 1031, 1032, 1047, 1046
782, 1107, 1108, 1123, 1122, 1032, 1033, 1048, 1047
783, 1108, 1109, 1124, 1123, 1033, 1034, 1049, 1048
784, 1109, 1110, 1125, 1124, 1034, 1035, 1050, 1049
785, 1126, 1127, 1142, 1141, 1051, 1052, 1067, 1066
786, 1127, 1128, 1143, 1142, 1052, 1053, 1068, 1067
787, 1128, 1129, 1144, 1143, 1053, 1054, 1069, 1068
788, 1129, 1130, 1145, 1144, 1054, 1055, 1070, 1069
789, 1130, 1131, 1146, 1145, 1055, 1056, 1071, 1070
790, 1131, 1132, 1147, 1146, 1056, 1057, 1072, 1071
791, 1132, 1133, 1148, 1147, 1057, 1058, 1073, 1072
792, 1133, 1134, 1149, 1148, 1058, 1059, 1074, 1073
793, 1134, 1135, 1150, 1149, 1059, 1060, 1075, 1074
794, 1135, 1136, 1151, 1150, 1060, 1061, 1076, 1075
795, 1136, 1137, 1152, 1151, 1061, 1062, 1077, 1076
796, 1137, 1138, 1153, 1152, 1062, 1063, 1078, 1077
797, 1138, 1139, 1154, 1153, 1063, 1064, 1079, 1078
798, 1139, 1140, 1155, 1154, 1064, 1065, 1080, 1079
799, 1141, 1142, 1157, 1156, 1066, 1067, 1082, 1081
800, 1142, 1143, 1158, 1157, 1067, 1068, 1083, 1082
801, 1143, 1144, 1159, 1158, 1068, 1069, 1084, 1083
802, 1144, 1145, 1160, 1159, 1069, 1070, 1085, 1084
803, 1145, 1146, 1161, 1160, 1070, 1071, 1086, 1085
804, 1146, 1147, 1162, 1161, 1071, 1072, 1087, 1086
805, 1147, 1148, 1163, 1162, 1072, 1073, 1088, 1087
806, 1148, 1149, 1164, 1163, 1073, 1074, 1089, 1088
807, 1149, 1150, 1165, 1164, 1074, 1075, 1090, 1089
808, 1150, 1151, 1166, 1165, 1075, 1076, 1091, 1090
809, 1151, 1152, 1167, 1166, 1076, 1077, 1092, 1091
810, 1152, 1153, 1168, 1167, 1077, 1078, 1093, 1092
811, 1153, 1154, 1169, 1168, 1078, 1079, 1094, 1093
812, 1154, 1155, 1170, 1169, 1079, 1080, 1095, 1094
813, 1156, 1157, 1172, 1171, 1081, 1082, 1097, 1096
814, 1157, 1158, 1173, 1172, 1082, 1083, 1098, 1097
815, 1158, 1159, 1174, 1173, 1083, 1084, 1099, 1098
816, 1159, 1160, 1175, 1174, 1084, 1085, 1100, 1099
817, 1160, 1161, 1176, 1175, 1085, 1086, 1101, 1100
818, 1161, 1162, 1177, 1176, 1086, 1087, 1102, 1101
819, 1162, 1163, 1178, 1177, 1087, 1088, 1103, 1102
820, 1163, 1164, 1179, 1178, 1088, 1089, 1104, 1103
821, 1164, 1165, 1180, 1179, 1089, 1090, 1105, 1104
822, 1165, 1166, 1181, 1180, 1090, 1091, 1106, 1105
823, 1166, 1167, 1182, 1181, 1091, 1092, 1107, 1106
824, 1167, 1168, 1183, 1182, 1092, 1093, 1108, 1107
825, 1168, 1169, 1184, 1183, 1093, 1094, 1109, 1108
826, 1169, 1170, 1185, 1184, 1094, 1095, 1110, 1109
827, 1171, 1172, 1187, 1186, 1096, 1097, 1112, 1111
828, 1172, 1173, 1188, 1187, 1097, 1098, 1113, 1112
829, 1173, 1174, 1189, 1188, 1098, 1099, 1114, 1113
830, 1174, 1175, 1190, 1189, 1099, 1100, 1115, 1114
831, 1175, 1176, 1191, 1190, 1100, 1101, 1116, 1115
832, 1176, 1177, 1192, 1191, 1101, 1102, 1117, 1116
833, 1177, 1178, 1193, 1192, 1102, 1103, 1118, 1117
834, 1178, 1179, 1194, 1193, 1103, 1104, 1119, 1118
835, 1179, 1180, 1195, 1194, 1104, 1105, 1120, 1119
836, 1180, 1181, 1196, 1195, 1105, 1106, 1121, 1120
837, 1181, 1182, 1197, 1196, 1106, 1107, 1122, 1121
838, 1182, 1183, 1198, 1197, 1107, 1108, 1123, 1122
839, 1183, 1184, 1199, 1198, 1108, 1109, 1124, 1123
840, 1184, 1185, 1200, 1199, 1109, 1110, 1125, 1124
*End Part
**  
**
** ASSEMBLY
**
*Assembly, name=Assembly
**  
*Instance, name=Part-1-1, part=Part-1
*End Instance
**  
*End Assembly
