*Heading
** Job name: Plate_T6 Model name: Model-1
** Generated by: Abaqus/CAE 2020
*Preprint, echo=NO, model=NO, history=NO, contact=NO
**
** PARTS
**
*Part, name=Part-1
*Node
      1,          -1.,          -1.,  0.100000001
      2,          -1., -0.857142866,  0.100000001
      3,          -1., -0.714285731,  0.100000001
      4,          -1., -0.571428597,  0.100000001
      5,          -1., -0.428571433,  0.100000001
      6,          -1., -0.285714298,  0.100000001
      7,          -1., -0.142857149,  0.100000001
      8,          -1.,           0.,  0.100000001
      9,          -1.,  0.142857149,  0.100000001
     10,          -1.,  0.285714298,  0.100000001
     11,          -1.,  0.428571433,  0.100000001
     12,          -1.,  0.571428597,  0.100000001
     13,          -1.,  0.714285731,  0.100000001
     14,          -1.,  0.857142866,  0.100000001
     15,          -1.,           1.,  0.100000001
     16,          -1.,          -1., 0.0833333358
     17,          -1., -0.857142866, 0.0833333358
     18,          -1., -0.714285731, 0.0833333358
     19,          -1., -0.571428597, 0.0833333358
     20,          -1., -0.428571433, 0.0833333358
     21,          -1., -0.285714298, 0.0833333358
     22,          -1., -0.142857149, 0.0833333358
     23,          -1.,           0., 0.0833333358
     24,          -1.,  0.142857149, 0.0833333358
     25,          -1.,  0.285714298, 0.0833333358
     26,          -1.,  0.428571433, 0.0833333358
     27,          -1.,  0.571428597, 0.0833333358
     28,          -1.,  0.714285731, 0.0833333358
     29,          -1.,  0.857142866, 0.0833333358
     30,          -1.,           1., 0.0833333358
     31,          -1.,          -1., 0.0666666701
     32,          -1., -0.857142866, 0.0666666701
     33,          -1., -0.714285731, 0.0666666701
     34,          -1., -0.571428597, 0.0666666701
     35,          -1., -0.428571433, 0.0666666701
     36,          -1., -0.285714298, 0.0666666701
     37,          -1., -0.142857149, 0.0666666701
     38,          -1.,           0., 0.0666666701
     39,          -1.,  0.142857149, 0.0666666701
     40,          -1.,  0.285714298, 0.0666666701
     41,          -1.,  0.428571433, 0.0666666701
     42,          -1.,  0.571428597, 0.0666666701
     43,          -1.,  0.714285731, 0.0666666701
     44,          -1.,  0.857142866, 0.0666666701
     45,          -1.,           1., 0.0666666701
     46,          -1.,          -1., 0.0500000007
     47,          -1., -0.857142866, 0.0500000007
     48,          -1., -0.714285731, 0.0500000007
     49,          -1., -0.571428597, 0.0500000007
     50,          -1., -0.428571433, 0.0500000007
     51,          -1., -0.285714298, 0.0500000007
     52,          -1., -0.142857149, 0.0500000007
     53,          -1.,           0., 0.0500000007
     54,          -1.,  0.142857149, 0.0500000007
     55,          -1.,  0.285714298, 0.0500000007
     56,          -1.,  0.428571433, 0.0500000007
     57,          -1.,  0.571428597, 0.0500000007
     58,          -1.,  0.714285731, 0.0500000007
     59,          -1.,  0.857142866, 0.0500000007
     60,          -1.,           1., 0.0500000007
     61,          -1.,          -1., 0.0333333351
     62,          -1., -0.857142866, 0.0333333351
     63,          -1., -0.714285731, 0.0333333351
     64,          -1., -0.571428597, 0.0333333351
     65,          -1., -0.428571433, 0.0333333351
     66,          -1., -0.285714298, 0.0333333351
     67,          -1., -0.142857149, 0.0333333351
     68,          -1.,           0., 0.0333333351
     69,          -1.,  0.142857149, 0.0333333351
     70,          -1.,  0.285714298, 0.0333333351
     71,          -1.,  0.428571433, 0.0333333351
     72,          -1.,  0.571428597, 0.0333333351
     73,          -1.,  0.714285731, 0.0333333351
     74,          -1.,  0.857142866, 0.0333333351
     75,          -1.,           1., 0.0333333351
     76,          -1.,          -1., 0.0166666675
     77,          -1., -0.857142866, 0.0166666675
     78,          -1., -0.714285731, 0.0166666675
     79,          -1., -0.571428597, 0.0166666675
     80,          -1., -0.428571433, 0.0166666675
     81,          -1., -0.285714298, 0.0166666675
     82,          -1., -0.142857149, 0.0166666675
     83,          -1.,           0., 0.0166666675
     84,          -1.,  0.142857149, 0.0166666675
     85,          -1.,  0.285714298, 0.0166666675
     86,          -1.,  0.428571433, 0.0166666675
     87,          -1.,  0.571428597, 0.0166666675
     88,          -1.,  0.714285731, 0.0166666675
     89,          -1.,  0.857142866, 0.0166666675
     90,          -1.,           1., 0.0166666675
     91,          -1.,          -1.,           0.
     92,          -1., -0.857142866,           0.
     93,          -1., -0.714285731,           0.
     94,          -1., -0.571428597,           0.
     95,          -1., -0.428571433,           0.
     96,          -1., -0.285714298,           0.
     97,          -1., -0.142857149,           0.
     98,          -1.,           0.,           0.
     99,          -1.,  0.142857149,           0.
    100,          -1.,  0.285714298,           0.
    101,          -1.,  0.428571433,           0.
    102,          -1.,  0.571428597,           0.
    103,          -1.,  0.714285731,           0.
    104,          -1.,  0.857142866,           0.
    105,          -1.,           1.,           0.
    106, -0.866666675,          -1.,  0.100000001
    107, -0.866666675, -0.857142866,  0.100000001
    108, -0.866666675, -0.714285731,  0.100000001
    109, -0.866666675, -0.571428597,  0.100000001
    110, -0.866666675, -0.428571433,  0.100000001
    111, -0.866666675, -0.285714298,  0.100000001
    112, -0.866666675, -0.142857149,  0.100000001
    113, -0.866666675,           0.,  0.100000001
    114, -0.866666675,  0.142857149,  0.100000001
    115, -0.866666675,  0.285714298,  0.100000001
    116, -0.866666675,  0.428571433,  0.100000001
    117, -0.866666675,  0.571428597,  0.100000001
    118, -0.866666675,  0.714285731,  0.100000001
    119, -0.866666675,  0.857142866,  0.100000001
    120, -0.866666675,           1.,  0.100000001
    121, -0.866666675,          -1., 0.0833333358
    122, -0.866666675, -0.857142866, 0.0833333358
    123, -0.866666675, -0.714285731, 0.0833333358
    124, -0.866666675, -0.571428597, 0.0833333358
    125, -0.866666675, -0.428571433, 0.0833333358
    126, -0.866666675, -0.285714298, 0.0833333358
    127, -0.866666675, -0.142857149, 0.0833333358
    128, -0.866666675,           0., 0.0833333358
    129, -0.866666675,  0.142857149, 0.0833333358
    130, -0.866666675,  0.285714298, 0.0833333358
    131, -0.866666675,  0.428571433, 0.0833333358
    132, -0.866666675,  0.571428597, 0.0833333358
    133, -0.866666675,  0.714285731, 0.0833333358
    134, -0.866666675,  0.857142866, 0.0833333358
    135, -0.866666675,           1., 0.0833333358
    136, -0.866666675,          -1., 0.0666666701
    137, -0.866666675, -0.857142866, 0.0666666701
    138, -0.866666675, -0.714285731, 0.0666666701
    139, -0.866666675, -0.571428597, 0.0666666701
    140, -0.866666675, -0.428571433, 0.0666666701
    141, -0.866666675, -0.285714298, 0.0666666701
    142, -0.866666675, -0.142857149, 0.0666666701
    143, -0.866666675,           0., 0.0666666701
    144, -0.866666675,  0.142857149, 0.0666666701
    145, -0.866666675,  0.285714298, 0.0666666701
    146, -0.866666675,  0.428571433, 0.0666666701
    147, -0.866666675,  0.571428597, 0.0666666701
    148, -0.866666675,  0.714285731, 0.0666666701
    149, -0.866666675,  0.857142866, 0.0666666701
    150, -0.866666675,           1., 0.0666666701
    151, -0.866666675,          -1., 0.0500000007
    152, -0.866666675, -0.857142866, 0.0500000007
    153, -0.866666675, -0.714285731, 0.0500000007
    154, -0.866666675, -0.571428597, 0.0500000007
    155, -0.866666675, -0.428571433, 0.0500000007
    156, -0.866666675, -0.285714298, 0.0500000007
    157, -0.866666675, -0.142857149, 0.0500000007
    158, -0.866666675,           0., 0.0500000007
    159, -0.866666675,  0.142857149, 0.0500000007
    160, -0.866666675,  0.285714298, 0.0500000007
    161, -0.866666675,  0.428571433, 0.0500000007
    162, -0.866666675,  0.571428597, 0.0500000007
    163, -0.866666675,  0.714285731, 0.0500000007
    164, -0.866666675,  0.857142866, 0.0500000007
    165, -0.866666675,           1., 0.0500000007
    166, -0.866666675,          -1., 0.0333333351
    167, -0.866666675, -0.857142866, 0.0333333351
    168, -0.866666675, -0.714285731, 0.0333333351
    169, -0.866666675, -0.571428597, 0.0333333351
    170, -0.866666675, -0.428571433, 0.0333333351
    171, -0.866666675, -0.285714298, 0.0333333351
    172, -0.866666675, -0.142857149, 0.0333333351
    173, -0.866666675,           0., 0.0333333351
    174, -0.866666675,  0.142857149, 0.0333333351
    175, -0.866666675,  0.285714298, 0.0333333351
    176, -0.866666675,  0.428571433, 0.0333333351
    177, -0.866666675,  0.571428597, 0.0333333351
    178, -0.866666675,  0.714285731, 0.0333333351
    179, -0.866666675,  0.857142866, 0.0333333351
    180, -0.866666675,           1., 0.0333333351
    181, -0.866666675,          -1., 0.0166666675
    182, -0.866666675, -0.857142866, 0.0166666675
    183, -0.866666675, -0.714285731, 0.0166666675
    184, -0.866666675, -0.571428597, 0.0166666675
    185, -0.866666675, -0.428571433, 0.0166666675
    186, -0.866666675, -0.285714298, 0.0166666675
    187, -0.866666675, -0.142857149, 0.0166666675
    188, -0.866666675,           0., 0.0166666675
    189, -0.866666675,  0.142857149, 0.0166666675
    190, -0.866666675,  0.285714298, 0.0166666675
    191, -0.866666675,  0.428571433, 0.0166666675
    192, -0.866666675,  0.571428597, 0.0166666675
    193, -0.866666675,  0.714285731, 0.0166666675
    194, -0.866666675,  0.857142866, 0.0166666675
    195, -0.866666675,           1., 0.0166666675
    196, -0.866666675,          -1.,           0.
    197, -0.866666675, -0.857142866,           0.
    198, -0.866666675, -0.714285731,           0.
    199, -0.866666675, -0.571428597,           0.
    200, -0.866666675, -0.428571433,           0.
    201, -0.866666675, -0.285714298,           0.
    202, -0.866666675, -0.142857149,           0.
    203, -0.866666675,           0.,           0.
    204, -0.866666675,  0.142857149,           0.
    205, -0.866666675,  0.285714298,           0.
    206, -0.866666675,  0.428571433,           0.
    207, -0.866666675,  0.571428597,           0.
    208, -0.866666675,  0.714285731,           0.
    209, -0.866666675,  0.857142866,           0.
    210, -0.866666675,           1.,           0.
    211, -0.733333349,          -1.,  0.100000001
    212, -0.733333349, -0.857142866,  0.100000001
    213, -0.733333349, -0.714285731,  0.100000001
    214, -0.733333349, -0.571428597,  0.100000001
    215, -0.733333349, -0.428571433,  0.100000001
    216, -0.733333349, -0.285714298,  0.100000001
    217, -0.733333349, -0.142857149,  0.100000001
    218, -0.733333349,           0.,  0.100000001
    219, -0.733333349,  0.142857149,  0.100000001
    220, -0.733333349,  0.285714298,  0.100000001
    221, -0.733333349,  0.428571433,  0.100000001
    222, -0.733333349,  0.571428597,  0.100000001
    223, -0.733333349,  0.714285731,  0.100000001
    224, -0.733333349,  0.857142866,  0.100000001
    225, -0.733333349,           1.,  0.100000001
    226, -0.733333349,          -1., 0.0833333358
    227, -0.733333349, -0.857142866, 0.0833333358
    228, -0.733333349, -0.714285731, 0.0833333358
    229, -0.733333349, -0.571428597, 0.0833333358
    230, -0.733333349, -0.428571433, 0.0833333358
    231, -0.733333349, -0.285714298, 0.0833333358
    232, -0.733333349, -0.142857149, 0.0833333358
    233, -0.733333349,           0., 0.0833333358
    234, -0.733333349,  0.142857149, 0.0833333358
    235, -0.733333349,  0.285714298, 0.0833333358
    236, -0.733333349,  0.428571433, 0.0833333358
    237, -0.733333349,  0.571428597, 0.0833333358
    238, -0.733333349,  0.714285731, 0.0833333358
    239, -0.733333349,  0.857142866, 0.0833333358
    240, -0.733333349,           1., 0.0833333358
    241, -0.733333349,          -1., 0.0666666701
    242, -0.733333349, -0.857142866, 0.0666666701
    243, -0.733333349, -0.714285731, 0.0666666701
    244, -0.733333349, -0.571428597, 0.0666666701
    245, -0.733333349, -0.428571433, 0.0666666701
    246, -0.733333349, -0.285714298, 0.0666666701
    247, -0.733333349, -0.142857149, 0.0666666701
    248, -0.733333349,           0., 0.0666666701
    249, -0.733333349,  0.142857149, 0.0666666701
    250, -0.733333349,  0.285714298, 0.0666666701
    251, -0.733333349,  0.428571433, 0.0666666701
    252, -0.733333349,  0.571428597, 0.0666666701
    253, -0.733333349,  0.714285731, 0.0666666701
    254, -0.733333349,  0.857142866, 0.0666666701
    255, -0.733333349,           1., 0.0666666701
    256, -0.733333349,          -1., 0.0500000007
    257, -0.733333349, -0.857142866, 0.0500000007
    258, -0.733333349, -0.714285731, 0.0500000007
    259, -0.733333349, -0.571428597, 0.0500000007
    260, -0.733333349, -0.428571433, 0.0500000007
    261, -0.733333349, -0.285714298, 0.0500000007
    262, -0.733333349, -0.142857149, 0.0500000007
    263, -0.733333349,           0., 0.0500000007
    264, -0.733333349,  0.142857149, 0.0500000007
    265, -0.733333349,  0.285714298, 0.0500000007
    266, -0.733333349,  0.428571433, 0.0500000007
    267, -0.733333349,  0.571428597, 0.0500000007
    268, -0.733333349,  0.714285731, 0.0500000007
    269, -0.733333349,  0.857142866, 0.0500000007
    270, -0.733333349,           1., 0.0500000007
    271, -0.733333349,          -1., 0.0333333351
    272, -0.733333349, -0.857142866, 0.0333333351
    273, -0.733333349, -0.714285731, 0.0333333351
    274, -0.733333349, -0.571428597, 0.0333333351
    275, -0.733333349, -0.428571433, 0.0333333351
    276, -0.733333349, -0.285714298, 0.0333333351
    277, -0.733333349, -0.142857149, 0.0333333351
    278, -0.733333349,           0., 0.0333333351
    279, -0.733333349,  0.142857149, 0.0333333351
    280, -0.733333349,  0.285714298, 0.0333333351
    281, -0.733333349,  0.428571433, 0.0333333351
    282, -0.733333349,  0.571428597, 0.0333333351
    283, -0.733333349,  0.714285731, 0.0333333351
    284, -0.733333349,  0.857142866, 0.0333333351
    285, -0.733333349,           1., 0.0333333351
    286, -0.733333349,          -1., 0.0166666675
    287, -0.733333349, -0.857142866, 0.0166666675
    288, -0.733333349, -0.714285731, 0.0166666675
    289, -0.733333349, -0.571428597, 0.0166666675
    290, -0.733333349, -0.428571433, 0.0166666675
    291, -0.733333349, -0.285714298, 0.0166666675
    292, -0.733333349, -0.142857149, 0.0166666675
    293, -0.733333349,           0., 0.0166666675
    294, -0.733333349,  0.142857149, 0.0166666675
    295, -0.733333349,  0.285714298, 0.0166666675
    296, -0.733333349,  0.428571433, 0.0166666675
    297, -0.733333349,  0.571428597, 0.0166666675
    298, -0.733333349,  0.714285731, 0.0166666675
    299, -0.733333349,  0.857142866, 0.0166666675
    300, -0.733333349,           1., 0.0166666675
    301, -0.733333349,          -1.,           0.
    302, -0.733333349, -0.857142866,           0.
    303, -0.733333349, -0.714285731,           0.
    304, -0.733333349, -0.571428597,           0.
    305, -0.733333349, -0.428571433,           0.
    306, -0.733333349, -0.285714298,           0.
    307, -0.733333349, -0.142857149,           0.
    308, -0.733333349,           0.,           0.
    309, -0.733333349,  0.142857149,           0.
    310, -0.733333349,  0.285714298,           0.
    311, -0.733333349,  0.428571433,           0.
    312, -0.733333349,  0.571428597,           0.
    313, -0.733333349,  0.714285731,           0.
    314, -0.733333349,  0.857142866,           0.
    315, -0.733333349,           1.,           0.
    316, -0.600000024,          -1.,  0.100000001
    317, -0.600000024, -0.857142866,  0.100000001
    318, -0.600000024, -0.714285731,  0.100000001
    319, -0.600000024, -0.571428597,  0.100000001
    320, -0.600000024, -0.428571433,  0.100000001
    321, -0.600000024, -0.285714298,  0.100000001
    322, -0.600000024, -0.142857149,  0.100000001
    323, -0.600000024,           0.,  0.100000001
    324, -0.600000024,  0.142857149,  0.100000001
    325, -0.600000024,  0.285714298,  0.100000001
    326, -0.600000024,  0.428571433,  0.100000001
    327, -0.600000024,  0.571428597,  0.100000001
    328, -0.600000024,  0.714285731,  0.100000001
    329, -0.600000024,  0.857142866,  0.100000001
    330, -0.600000024,           1.,  0.100000001
    331, -0.600000024,          -1., 0.0833333358
    332, -0.600000024, -0.857142866, 0.0833333358
    333, -0.600000024, -0.714285731, 0.0833333358
    334, -0.600000024, -0.571428597, 0.0833333358
    335, -0.600000024, -0.428571433, 0.0833333358
    336, -0.600000024, -0.285714298, 0.0833333358
    337, -0.600000024, -0.142857149, 0.0833333358
    338, -0.600000024,           0., 0.0833333358
    339, -0.600000024,  0.142857149, 0.0833333358
    340, -0.600000024,  0.285714298, 0.0833333358
    341, -0.600000024,  0.428571433, 0.0833333358
    342, -0.600000024,  0.571428597, 0.0833333358
    343, -0.600000024,  0.714285731, 0.0833333358
    344, -0.600000024,  0.857142866, 0.0833333358
    345, -0.600000024,           1., 0.0833333358
    346, -0.600000024,          -1., 0.0666666701
    347, -0.600000024, -0.857142866, 0.0666666701
    348, -0.600000024, -0.714285731, 0.0666666701
    349, -0.600000024, -0.571428597, 0.0666666701
    350, -0.600000024, -0.428571433, 0.0666666701
    351, -0.600000024, -0.285714298, 0.0666666701
    352, -0.600000024, -0.142857149, 0.0666666701
    353, -0.600000024,           0., 0.0666666701
    354, -0.600000024,  0.142857149, 0.0666666701
    355, -0.600000024,  0.285714298, 0.0666666701
    356, -0.600000024,  0.428571433, 0.0666666701
    357, -0.600000024,  0.571428597, 0.0666666701
    358, -0.600000024,  0.714285731, 0.0666666701
    359, -0.600000024,  0.857142866, 0.0666666701
    360, -0.600000024,           1., 0.0666666701
    361, -0.600000024,          -1., 0.0500000007
    362, -0.600000024, -0.857142866, 0.0500000007
    363, -0.600000024, -0.714285731, 0.0500000007
    364, -0.600000024, -0.571428597, 0.0500000007
    365, -0.600000024, -0.428571433, 0.0500000007
    366, -0.600000024, -0.285714298, 0.0500000007
    367, -0.600000024, -0.142857149, 0.0500000007
    368, -0.600000024,           0., 0.0500000007
    369, -0.600000024,  0.142857149, 0.0500000007
    370, -0.600000024,  0.285714298, 0.0500000007
    371, -0.600000024,  0.428571433, 0.0500000007
    372, -0.600000024,  0.571428597, 0.0500000007
    373, -0.600000024,  0.714285731, 0.0500000007
    374, -0.600000024,  0.857142866, 0.0500000007
    375, -0.600000024,           1., 0.0500000007
    376, -0.600000024,          -1., 0.0333333351
    377, -0.600000024, -0.857142866, 0.0333333351
    378, -0.600000024, -0.714285731, 0.0333333351
    379, -0.600000024, -0.571428597, 0.0333333351
    380, -0.600000024, -0.428571433, 0.0333333351
    381, -0.600000024, -0.285714298, 0.0333333351
    382, -0.600000024, -0.142857149, 0.0333333351
    383, -0.600000024,           0., 0.0333333351
    384, -0.600000024,  0.142857149, 0.0333333351
    385, -0.600000024,  0.285714298, 0.0333333351
    386, -0.600000024,  0.428571433, 0.0333333351
    387, -0.600000024,  0.571428597, 0.0333333351
    388, -0.600000024,  0.714285731, 0.0333333351
    389, -0.600000024,  0.857142866, 0.0333333351
    390, -0.600000024,           1., 0.0333333351
    391, -0.600000024,          -1., 0.0166666675
    392, -0.600000024, -0.857142866, 0.0166666675
    393, -0.600000024, -0.714285731, 0.0166666675
    394, -0.600000024, -0.571428597, 0.0166666675
    395, -0.600000024, -0.428571433, 0.0166666675
    396, -0.600000024, -0.285714298, 0.0166666675
    397, -0.600000024, -0.142857149, 0.0166666675
    398, -0.600000024,           0., 0.0166666675
    399, -0.600000024,  0.142857149, 0.0166666675
    400, -0.600000024,  0.285714298, 0.0166666675
    401, -0.600000024,  0.428571433, 0.0166666675
    402, -0.600000024,  0.571428597, 0.0166666675
    403, -0.600000024,  0.714285731, 0.0166666675
    404, -0.600000024,  0.857142866, 0.0166666675
    405, -0.600000024,           1., 0.0166666675
    406, -0.600000024,          -1.,           0.
    407, -0.600000024, -0.857142866,           0.
    408, -0.600000024, -0.714285731,           0.
    409, -0.600000024, -0.571428597,           0.
    410, -0.600000024, -0.428571433,           0.
    411, -0.600000024, -0.285714298,           0.
    412, -0.600000024, -0.142857149,           0.
    413, -0.600000024,           0.,           0.
    414, -0.600000024,  0.142857149,           0.
    415, -0.600000024,  0.285714298,           0.
    416, -0.600000024,  0.428571433,           0.
    417, -0.600000024,  0.571428597,           0.
    418, -0.600000024,  0.714285731,           0.
    419, -0.600000024,  0.857142866,           0.
    420, -0.600000024,           1.,           0.
    421, -0.466666669,          -1.,  0.100000001
    422, -0.466666669, -0.857142866,  0.100000001
    423, -0.466666669, -0.714285731,  0.100000001
    424, -0.466666669, -0.571428597,  0.100000001
    425, -0.466666669, -0.428571433,  0.100000001
    426, -0.466666669, -0.285714298,  0.100000001
    427, -0.466666669, -0.142857149,  0.100000001
    428, -0.466666669,           0.,  0.100000001
    429, -0.466666669,  0.142857149,  0.100000001
    430, -0.466666669,  0.285714298,  0.100000001
    431, -0.466666669,  0.428571433,  0.100000001
    432, -0.466666669,  0.571428597,  0.100000001
    433, -0.466666669,  0.714285731,  0.100000001
    434, -0.466666669,  0.857142866,  0.100000001
    435, -0.466666669,           1.,  0.100000001
    436, -0.466666669,          -1., 0.0833333358
    437, -0.466666669, -0.857142866, 0.0833333358
    438, -0.466666669, -0.714285731, 0.0833333358
    439, -0.466666669, -0.571428597, 0.0833333358
    440, -0.466666669, -0.428571433, 0.0833333358
    441, -0.466666669, -0.285714298, 0.0833333358
    442, -0.466666669, -0.142857149, 0.0833333358
    443, -0.466666669,           0., 0.0833333358
    444, -0.466666669,  0.142857149, 0.0833333358
    445, -0.466666669,  0.285714298, 0.0833333358
    446, -0.466666669,  0.428571433, 0.0833333358
    447, -0.466666669,  0.571428597, 0.0833333358
    448, -0.466666669,  0.714285731, 0.0833333358
    449, -0.466666669,  0.857142866, 0.0833333358
    450, -0.466666669,           1., 0.0833333358
    451, -0.466666669,          -1., 0.0666666701
    452, -0.466666669, -0.857142866, 0.0666666701
    453, -0.466666669, -0.714285731, 0.0666666701
    454, -0.466666669, -0.571428597, 0.0666666701
    455, -0.466666669, -0.428571433, 0.0666666701
    456, -0.466666669, -0.285714298, 0.0666666701
    457, -0.466666669, -0.142857149, 0.0666666701
    458, -0.466666669,           0., 0.0666666701
    459, -0.466666669,  0.142857149, 0.0666666701
    460, -0.466666669,  0.285714298, 0.0666666701
    461, -0.466666669,  0.428571433, 0.0666666701
    462, -0.466666669,  0.571428597, 0.0666666701
    463, -0.466666669,  0.714285731, 0.0666666701
    464, -0.466666669,  0.857142866, 0.0666666701
    465, -0.466666669,           1., 0.0666666701
    466, -0.466666669,          -1., 0.0500000007
    467, -0.466666669, -0.857142866, 0.0500000007
    468, -0.466666669, -0.714285731, 0.0500000007
    469, -0.466666669, -0.571428597, 0.0500000007
    470, -0.466666669, -0.428571433, 0.0500000007
    471, -0.466666669, -0.285714298, 0.0500000007
    472, -0.466666669, -0.142857149, 0.0500000007
    473, -0.466666669,           0., 0.0500000007
    474, -0.466666669,  0.142857149, 0.0500000007
    475, -0.466666669,  0.285714298, 0.0500000007
    476, -0.466666669,  0.428571433, 0.0500000007
    477, -0.466666669,  0.571428597, 0.0500000007
    478, -0.466666669,  0.714285731, 0.0500000007
    479, -0.466666669,  0.857142866, 0.0500000007
    480, -0.466666669,           1., 0.0500000007
    481, -0.466666669,          -1., 0.0333333351
    482, -0.466666669, -0.857142866, 0.0333333351
    483, -0.466666669, -0.714285731, 0.0333333351
    484, -0.466666669, -0.571428597, 0.0333333351
    485, -0.466666669, -0.428571433, 0.0333333351
    486, -0.466666669, -0.285714298, 0.0333333351
    487, -0.466666669, -0.142857149, 0.0333333351
    488, -0.466666669,           0., 0.0333333351
    489, -0.466666669,  0.142857149, 0.0333333351
    490, -0.466666669,  0.285714298, 0.0333333351
    491, -0.466666669,  0.428571433, 0.0333333351
    492, -0.466666669,  0.571428597, 0.0333333351
    493, -0.466666669,  0.714285731, 0.0333333351
    494, -0.466666669,  0.857142866, 0.0333333351
    495, -0.466666669,           1., 0.0333333351
    496, -0.466666669,          -1., 0.0166666675
    497, -0.466666669, -0.857142866, 0.0166666675
    498, -0.466666669, -0.714285731, 0.0166666675
    499, -0.466666669, -0.571428597, 0.0166666675
    500, -0.466666669, -0.428571433, 0.0166666675
    501, -0.466666669, -0.285714298, 0.0166666675
    502, -0.466666669, -0.142857149, 0.0166666675
    503, -0.466666669,           0., 0.0166666675
    504, -0.466666669,  0.142857149, 0.0166666675
    505, -0.466666669,  0.285714298, 0.0166666675
    506, -0.466666669,  0.428571433, 0.0166666675
    507, -0.466666669,  0.571428597, 0.0166666675
    508, -0.466666669,  0.714285731, 0.0166666675
    509, -0.466666669,  0.857142866, 0.0166666675
    510, -0.466666669,           1., 0.0166666675
    511, -0.466666669,          -1.,           0.
    512, -0.466666669, -0.857142866,           0.
    513, -0.466666669, -0.714285731,           0.
    514, -0.466666669, -0.571428597,           0.
    515, -0.466666669, -0.428571433,           0.
    516, -0.466666669, -0.285714298,           0.
    517, -0.466666669, -0.142857149,           0.
    518, -0.466666669,           0.,           0.
    519, -0.466666669,  0.142857149,           0.
    520, -0.466666669,  0.285714298,           0.
    521, -0.466666669,  0.428571433,           0.
    522, -0.466666669,  0.571428597,           0.
    523, -0.466666669,  0.714285731,           0.
    524, -0.466666669,  0.857142866,           0.
    525, -0.466666669,           1.,           0.
    526, -0.333333343,          -1.,  0.100000001
    527, -0.333333343, -0.857142866,  0.100000001
    528, -0.333333343, -0.714285731,  0.100000001
    529, -0.333333343, -0.571428597,  0.100000001
    530, -0.333333343, -0.428571433,  0.100000001
    531, -0.333333343, -0.285714298,  0.100000001
    532, -0.333333343, -0.142857149,  0.100000001
    533, -0.333333343,           0.,  0.100000001
    534, -0.333333343,  0.142857149,  0.100000001
    535, -0.333333343,  0.285714298,  0.100000001
    536, -0.333333343,  0.428571433,  0.100000001
    537, -0.333333343,  0.571428597,  0.100000001
    538, -0.333333343,  0.714285731,  0.100000001
    539, -0.333333343,  0.857142866,  0.100000001
    540, -0.333333343,           1.,  0.100000001
    541, -0.333333343,          -1., 0.0833333358
    542, -0.333333343, -0.857142866, 0.0833333358
    543, -0.333333343, -0.714285731, 0.0833333358
    544, -0.333333343, -0.571428597, 0.0833333358
    545, -0.333333343, -0.428571433, 0.0833333358
    546, -0.333333343, -0.285714298, 0.0833333358
    547, -0.333333343, -0.142857149, 0.0833333358
    548, -0.333333343,           0., 0.0833333358
    549, -0.333333343,  0.142857149, 0.0833333358
    550, -0.333333343,  0.285714298, 0.0833333358
    551, -0.333333343,  0.428571433, 0.0833333358
    552, -0.333333343,  0.571428597, 0.0833333358
    553, -0.333333343,  0.714285731, 0.0833333358
    554, -0.333333343,  0.857142866, 0.0833333358
    555, -0.333333343,           1., 0.0833333358
    556, -0.333333343,          -1., 0.0666666701
    557, -0.333333343, -0.857142866, 0.0666666701
    558, -0.333333343, -0.714285731, 0.0666666701
    559, -0.333333343, -0.571428597, 0.0666666701
    560, -0.333333343, -0.428571433, 0.0666666701
    561, -0.333333343, -0.285714298, 0.0666666701
    562, -0.333333343, -0.142857149, 0.0666666701
    563, -0.333333343,           0., 0.0666666701
    564, -0.333333343,  0.142857149, 0.0666666701
    565, -0.333333343,  0.285714298, 0.0666666701
    566, -0.333333343,  0.428571433, 0.0666666701
    567, -0.333333343,  0.571428597, 0.0666666701
    568, -0.333333343,  0.714285731, 0.0666666701
    569, -0.333333343,  0.857142866, 0.0666666701
    570, -0.333333343,           1., 0.0666666701
    571, -0.333333343,          -1., 0.0500000007
    572, -0.333333343, -0.857142866, 0.0500000007
    573, -0.333333343, -0.714285731, 0.0500000007
    574, -0.333333343, -0.571428597, 0.0500000007
    575, -0.333333343, -0.428571433, 0.0500000007
    576, -0.333333343, -0.285714298, 0.0500000007
    577, -0.333333343, -0.142857149, 0.0500000007
    578, -0.333333343,           0., 0.0500000007
    579, -0.333333343,  0.142857149, 0.0500000007
    580, -0.333333343,  0.285714298, 0.0500000007
    581, -0.333333343,  0.428571433, 0.0500000007
    582, -0.333333343,  0.571428597, 0.0500000007
    583, -0.333333343,  0.714285731, 0.0500000007
    584, -0.333333343,  0.857142866, 0.0500000007
    585, -0.333333343,           1., 0.0500000007
    586, -0.333333343,          -1., 0.0333333351
    587, -0.333333343, -0.857142866, 0.0333333351
    588, -0.333333343, -0.714285731, 0.0333333351
    589, -0.333333343, -0.571428597, 0.0333333351
    590, -0.333333343, -0.428571433, 0.0333333351
    591, -0.333333343, -0.285714298, 0.0333333351
    592, -0.333333343, -0.142857149, 0.0333333351
    593, -0.333333343,           0., 0.0333333351
    594, -0.333333343,  0.142857149, 0.0333333351
    595, -0.333333343,  0.285714298, 0.0333333351
    596, -0.333333343,  0.428571433, 0.0333333351
    597, -0.333333343,  0.571428597, 0.0333333351
    598, -0.333333343,  0.714285731, 0.0333333351
    599, -0.333333343,  0.857142866, 0.0333333351
    600, -0.333333343,           1., 0.0333333351
    601, -0.333333343,          -1., 0.0166666675
    602, -0.333333343, -0.857142866, 0.0166666675
    603, -0.333333343, -0.714285731, 0.0166666675
    604, -0.333333343, -0.571428597, 0.0166666675
    605, -0.333333343, -0.428571433, 0.0166666675
    606, -0.333333343, -0.285714298, 0.0166666675
    607, -0.333333343, -0.142857149, 0.0166666675
    608, -0.333333343,           0., 0.0166666675
    609, -0.333333343,  0.142857149, 0.0166666675
    610, -0.333333343,  0.285714298, 0.0166666675
    611, -0.333333343,  0.428571433, 0.0166666675
    612, -0.333333343,  0.571428597, 0.0166666675
    613, -0.333333343,  0.714285731, 0.0166666675
    614, -0.333333343,  0.857142866, 0.0166666675
    615, -0.333333343,           1., 0.0166666675
    616, -0.333333343,          -1.,           0.
    617, -0.333333343, -0.857142866,           0.
    618, -0.333333343, -0.714285731,           0.
    619, -0.333333343, -0.571428597,           0.
    620, -0.333333343, -0.428571433,           0.
    621, -0.333333343, -0.285714298,           0.
    622, -0.333333343, -0.142857149,           0.
    623, -0.333333343,           0.,           0.
    624, -0.333333343,  0.142857149,           0.
    625, -0.333333343,  0.285714298,           0.
    626, -0.333333343,  0.428571433,           0.
    627, -0.333333343,  0.571428597,           0.
    628, -0.333333343,  0.714285731,           0.
    629, -0.333333343,  0.857142866,           0.
    630, -0.333333343,           1.,           0.
    631, -0.200000003,          -1.,  0.100000001
    632, -0.200000003, -0.857142866,  0.100000001
    633, -0.200000003, -0.714285731,  0.100000001
    634, -0.200000003, -0.571428597,  0.100000001
    635, -0.200000003, -0.428571433,  0.100000001
    636, -0.200000003, -0.285714298,  0.100000001
    637, -0.200000003, -0.142857149,  0.100000001
    638, -0.200000003,           0.,  0.100000001
    639, -0.200000003,  0.142857149,  0.100000001
    640, -0.200000003,  0.285714298,  0.100000001
    641, -0.200000003,  0.428571433,  0.100000001
    642, -0.200000003,  0.571428597,  0.100000001
    643, -0.200000003,  0.714285731,  0.100000001
    644, -0.200000003,  0.857142866,  0.100000001
    645, -0.200000003,           1.,  0.100000001
    646, -0.200000003,          -1., 0.0833333358
    647, -0.200000003, -0.857142866, 0.0833333358
    648, -0.200000003, -0.714285731, 0.0833333358
    649, -0.200000003, -0.571428597, 0.0833333358
    650, -0.200000003, -0.428571433, 0.0833333358
    651, -0.200000003, -0.285714298, 0.0833333358
    652, -0.200000003, -0.142857149, 0.0833333358
    653, -0.200000003,           0., 0.0833333358
    654, -0.200000003,  0.142857149, 0.0833333358
    655, -0.200000003,  0.285714298, 0.0833333358
    656, -0.200000003,  0.428571433, 0.0833333358
    657, -0.200000003,  0.571428597, 0.0833333358
    658, -0.200000003,  0.714285731, 0.0833333358
    659, -0.200000003,  0.857142866, 0.0833333358
    660, -0.200000003,           1., 0.0833333358
    661, -0.200000003,          -1., 0.0666666701
    662, -0.200000003, -0.857142866, 0.0666666701
    663, -0.200000003, -0.714285731, 0.0666666701
    664, -0.200000003, -0.571428597, 0.0666666701
    665, -0.200000003, -0.428571433, 0.0666666701
    666, -0.200000003, -0.285714298, 0.0666666701
    667, -0.200000003, -0.142857149, 0.0666666701
    668, -0.200000003,           0., 0.0666666701
    669, -0.200000003,  0.142857149, 0.0666666701
    670, -0.200000003,  0.285714298, 0.0666666701
    671, -0.200000003,  0.428571433, 0.0666666701
    672, -0.200000003,  0.571428597, 0.0666666701
    673, -0.200000003,  0.714285731, 0.0666666701
    674, -0.200000003,  0.857142866, 0.0666666701
    675, -0.200000003,           1., 0.0666666701
    676, -0.200000003,          -1., 0.0500000007
    677, -0.200000003, -0.857142866, 0.0500000007
    678, -0.200000003, -0.714285731, 0.0500000007
    679, -0.200000003, -0.571428597, 0.0500000007
    680, -0.200000003, -0.428571433, 0.0500000007
    681, -0.200000003, -0.285714298, 0.0500000007
    682, -0.200000003, -0.142857149, 0.0500000007
    683, -0.200000003,           0., 0.0500000007
    684, -0.200000003,  0.142857149, 0.0500000007
    685, -0.200000003,  0.285714298, 0.0500000007
    686, -0.200000003,  0.428571433, 0.0500000007
    687, -0.200000003,  0.571428597, 0.0500000007
    688, -0.200000003,  0.714285731, 0.0500000007
    689, -0.200000003,  0.857142866, 0.0500000007
    690, -0.200000003,           1., 0.0500000007
    691, -0.200000003,          -1., 0.0333333351
    692, -0.200000003, -0.857142866, 0.0333333351
    693, -0.200000003, -0.714285731, 0.0333333351
    694, -0.200000003, -0.571428597, 0.0333333351
    695, -0.200000003, -0.428571433, 0.0333333351
    696, -0.200000003, -0.285714298, 0.0333333351
    697, -0.200000003, -0.142857149, 0.0333333351
    698, -0.200000003,           0., 0.0333333351
    699, -0.200000003,  0.142857149, 0.0333333351
    700, -0.200000003,  0.285714298, 0.0333333351
    701, -0.200000003,  0.428571433, 0.0333333351
    702, -0.200000003,  0.571428597, 0.0333333351
    703, -0.200000003,  0.714285731, 0.0333333351
    704, -0.200000003,  0.857142866, 0.0333333351
    705, -0.200000003,           1., 0.0333333351
    706, -0.200000003,          -1., 0.0166666675
    707, -0.200000003, -0.857142866, 0.0166666675
    708, -0.200000003, -0.714285731, 0.0166666675
    709, -0.200000003, -0.571428597, 0.0166666675
    710, -0.200000003, -0.428571433, 0.0166666675
    711, -0.200000003, -0.285714298, 0.0166666675
    712, -0.200000003, -0.142857149, 0.0166666675
    713, -0.200000003,           0., 0.0166666675
    714, -0.200000003,  0.142857149, 0.0166666675
    715, -0.200000003,  0.285714298, 0.0166666675
    716, -0.200000003,  0.428571433, 0.0166666675
    717, -0.200000003,  0.571428597, 0.0166666675
    718, -0.200000003,  0.714285731, 0.0166666675
    719, -0.200000003,  0.857142866, 0.0166666675
    720, -0.200000003,           1., 0.0166666675
    721, -0.200000003,          -1.,           0.
    722, -0.200000003, -0.857142866,           0.
    723, -0.200000003, -0.714285731,           0.
    724, -0.200000003, -0.571428597,           0.
    725, -0.200000003, -0.428571433,           0.
    726, -0.200000003, -0.285714298,           0.
    727, -0.200000003, -0.142857149,           0.
    728, -0.200000003,           0.,           0.
    729, -0.200000003,  0.142857149,           0.
    730, -0.200000003,  0.285714298,           0.
    731, -0.200000003,  0.428571433,           0.
    732, -0.200000003,  0.571428597,           0.
    733, -0.200000003,  0.714285731,           0.
    734, -0.200000003,  0.857142866,           0.
    735, -0.200000003,           1.,           0.
    736, -0.0666666701,          -1.,  0.100000001
    737, -0.0666666701, -0.857142866,  0.100000001
    738, -0.0666666701, -0.714285731,  0.100000001
    739, -0.0666666701, -0.571428597,  0.100000001
    740, -0.0666666701, -0.428571433,  0.100000001
    741, -0.0666666701, -0.285714298,  0.100000001
    742, -0.0666666701, -0.142857149,  0.100000001
    743, -0.0666666701,           0.,  0.100000001
    744, -0.0666666701,  0.142857149,  0.100000001
    745, -0.0666666701,  0.285714298,  0.100000001
    746, -0.0666666701,  0.428571433,  0.100000001
    747, -0.0666666701,  0.571428597,  0.100000001
    748, -0.0666666701,  0.714285731,  0.100000001
    749, -0.0666666701,  0.857142866,  0.100000001
    750, -0.0666666701,           1.,  0.100000001
    751, -0.0666666701,          -1., 0.0833333358
    752, -0.0666666701, -0.857142866, 0.0833333358
    753, -0.0666666701, -0.714285731, 0.0833333358
    754, -0.0666666701, -0.571428597, 0.0833333358
    755, -0.0666666701, -0.428571433, 0.0833333358
    756, -0.0666666701, -0.285714298, 0.0833333358
    757, -0.0666666701, -0.142857149, 0.0833333358
    758, -0.0666666701,           0., 0.0833333358
    759, -0.0666666701,  0.142857149, 0.0833333358
    760, -0.0666666701,  0.285714298, 0.0833333358
    761, -0.0666666701,  0.428571433, 0.0833333358
    762, -0.0666666701,  0.571428597, 0.0833333358
    763, -0.0666666701,  0.714285731, 0.0833333358
    764, -0.0666666701,  0.857142866, 0.0833333358
    765, -0.0666666701,           1., 0.0833333358
    766, -0.0666666701,          -1., 0.0666666701
    767, -0.0666666701, -0.857142866, 0.0666666701
    768, -0.0666666701, -0.714285731, 0.0666666701
    769, -0.0666666701, -0.571428597, 0.0666666701
    770, -0.0666666701, -0.428571433, 0.0666666701
    771, -0.0666666701, -0.285714298, 0.0666666701
    772, -0.0666666701, -0.142857149, 0.0666666701
    773, -0.0666666701,           0., 0.0666666701
    774, -0.0666666701,  0.142857149, 0.0666666701
    775, -0.0666666701,  0.285714298, 0.0666666701
    776, -0.0666666701,  0.428571433, 0.0666666701
    777, -0.0666666701,  0.571428597, 0.0666666701
    778, -0.0666666701,  0.714285731, 0.0666666701
    779, -0.0666666701,  0.857142866, 0.0666666701
    780, -0.0666666701,           1., 0.0666666701
    781, -0.0666666701,          -1., 0.0500000007
    782, -0.0666666701, -0.857142866, 0.0500000007
    783, -0.0666666701, -0.714285731, 0.0500000007
    784, -0.0666666701, -0.571428597, 0.0500000007
    785, -0.0666666701, -0.428571433, 0.0500000007
    786, -0.0666666701, -0.285714298, 0.0500000007
    787, -0.0666666701, -0.142857149, 0.0500000007
    788, -0.0666666701,           0., 0.0500000007
    789, -0.0666666701,  0.142857149, 0.0500000007
    790, -0.0666666701,  0.285714298, 0.0500000007
    791, -0.0666666701,  0.428571433, 0.0500000007
    792, -0.0666666701,  0.571428597, 0.0500000007
    793, -0.0666666701,  0.714285731, 0.0500000007
    794, -0.0666666701,  0.857142866, 0.0500000007
    795, -0.0666666701,           1., 0.0500000007
    796, -0.0666666701,          -1., 0.0333333351
    797, -0.0666666701, -0.857142866, 0.0333333351
    798, -0.0666666701, -0.714285731, 0.0333333351
    799, -0.0666666701, -0.571428597, 0.0333333351
    800, -0.0666666701, -0.428571433, 0.0333333351
    801, -0.0666666701, -0.285714298, 0.0333333351
    802, -0.0666666701, -0.142857149, 0.0333333351
    803, -0.0666666701,           0., 0.0333333351
    804, -0.0666666701,  0.142857149, 0.0333333351
    805, -0.0666666701,  0.285714298, 0.0333333351
    806, -0.0666666701,  0.428571433, 0.0333333351
    807, -0.0666666701,  0.571428597, 0.0333333351
    808, -0.0666666701,  0.714285731, 0.0333333351
    809, -0.0666666701,  0.857142866, 0.0333333351
    810, -0.0666666701,           1., 0.0333333351
    811, -0.0666666701,          -1., 0.0166666675
    812, -0.0666666701, -0.857142866, 0.0166666675
    813, -0.0666666701, -0.714285731, 0.0166666675
    814, -0.0666666701, -0.571428597, 0.0166666675
    815, -0.0666666701, -0.428571433, 0.0166666675
    816, -0.0666666701, -0.285714298, 0.0166666675
    817, -0.0666666701, -0.142857149, 0.0166666675
    818, -0.0666666701,           0., 0.0166666675
    819, -0.0666666701,  0.142857149, 0.0166666675
    820, -0.0666666701,  0.285714298, 0.0166666675
    821, -0.0666666701,  0.428571433, 0.0166666675
    822, -0.0666666701,  0.571428597, 0.0166666675
    823, -0.0666666701,  0.714285731, 0.0166666675
    824, -0.0666666701,  0.857142866, 0.0166666675
    825, -0.0666666701,           1., 0.0166666675
    826, -0.0666666701,          -1.,           0.
    827, -0.0666666701, -0.857142866,           0.
    828, -0.0666666701, -0.714285731,           0.
    829, -0.0666666701, -0.571428597,           0.
    830, -0.0666666701, -0.428571433,           0.
    831, -0.0666666701, -0.285714298,           0.
    832, -0.0666666701, -0.142857149,           0.
    833, -0.0666666701,           0.,           0.
    834, -0.0666666701,  0.142857149,           0.
    835, -0.0666666701,  0.285714298,           0.
    836, -0.0666666701,  0.428571433,           0.
    837, -0.0666666701,  0.571428597,           0.
    838, -0.0666666701,  0.714285731,           0.
    839, -0.0666666701,  0.857142866,           0.
    840, -0.0666666701,           1.,           0.
    841, 0.0666666701,          -1.,  0.100000001
    842, 0.0666666701, -0.857142866,  0.100000001
    843, 0.0666666701, -0.714285731,  0.100000001
    844, 0.0666666701, -0.571428597,  0.100000001
    845, 0.0666666701, -0.428571433,  0.100000001
    846, 0.0666666701, -0.285714298,  0.100000001
    847, 0.0666666701, -0.142857149,  0.100000001
    848, 0.0666666701,           0.,  0.100000001
    849, 0.0666666701,  0.142857149,  0.100000001
    850, 0.0666666701,  0.285714298,  0.100000001
    851, 0.0666666701,  0.428571433,  0.100000001
    852, 0.0666666701,  0.571428597,  0.100000001
    853, 0.0666666701,  0.714285731,  0.100000001
    854, 0.0666666701,  0.857142866,  0.100000001
    855, 0.0666666701,           1.,  0.100000001
    856, 0.0666666701,          -1., 0.0833333358
    857, 0.0666666701, -0.857142866, 0.0833333358
    858, 0.0666666701, -0.714285731, 0.0833333358
    859, 0.0666666701, -0.571428597, 0.0833333358
    860, 0.0666666701, -0.428571433, 0.0833333358
    861, 0.0666666701, -0.285714298, 0.0833333358
    862, 0.0666666701, -0.142857149, 0.0833333358
    863, 0.0666666701,           0., 0.0833333358
    864, 0.0666666701,  0.142857149, 0.0833333358
    865, 0.0666666701,  0.285714298, 0.0833333358
    866, 0.0666666701,  0.428571433, 0.0833333358
    867, 0.0666666701,  0.571428597, 0.0833333358
    868, 0.0666666701,  0.714285731, 0.0833333358
    869, 0.0666666701,  0.857142866, 0.0833333358
    870, 0.0666666701,           1., 0.0833333358
    871, 0.0666666701,          -1., 0.0666666701
    872, 0.0666666701, -0.857142866, 0.0666666701
    873, 0.0666666701, -0.714285731, 0.0666666701
    874, 0.0666666701, -0.571428597, 0.0666666701
    875, 0.0666666701, -0.428571433, 0.0666666701
    876, 0.0666666701, -0.285714298, 0.0666666701
    877, 0.0666666701, -0.142857149, 0.0666666701
    878, 0.0666666701,           0., 0.0666666701
    879, 0.0666666701,  0.142857149, 0.0666666701
    880, 0.0666666701,  0.285714298, 0.0666666701
    881, 0.0666666701,  0.428571433, 0.0666666701
    882, 0.0666666701,  0.571428597, 0.0666666701
    883, 0.0666666701,  0.714285731, 0.0666666701
    884, 0.0666666701,  0.857142866, 0.0666666701
    885, 0.0666666701,           1., 0.0666666701
    886, 0.0666666701,          -1., 0.0500000007
    887, 0.0666666701, -0.857142866, 0.0500000007
    888, 0.0666666701, -0.714285731, 0.0500000007
    889, 0.0666666701, -0.571428597, 0.0500000007
    890, 0.0666666701, -0.428571433, 0.0500000007
    891, 0.0666666701, -0.285714298, 0.0500000007
    892, 0.0666666701, -0.142857149, 0.0500000007
    893, 0.0666666701,           0., 0.0500000007
    894, 0.0666666701,  0.142857149, 0.0500000007
    895, 0.0666666701,  0.285714298, 0.0500000007
    896, 0.0666666701,  0.428571433, 0.0500000007
    897, 0.0666666701,  0.571428597, 0.0500000007
    898, 0.0666666701,  0.714285731, 0.0500000007
    899, 0.0666666701,  0.857142866, 0.0500000007
    900, 0.0666666701,           1., 0.0500000007
    901, 0.0666666701,          -1., 0.0333333351
    902, 0.0666666701, -0.857142866, 0.0333333351
    903, 0.0666666701, -0.714285731, 0.0333333351
    904, 0.0666666701, -0.571428597, 0.0333333351
    905, 0.0666666701, -0.428571433, 0.0333333351
    906, 0.0666666701, -0.285714298, 0.0333333351
    907, 0.0666666701, -0.142857149, 0.0333333351
    908, 0.0666666701,           0., 0.0333333351
    909, 0.0666666701,  0.142857149, 0.0333333351
    910, 0.0666666701,  0.285714298, 0.0333333351
    911, 0.0666666701,  0.428571433, 0.0333333351
    912, 0.0666666701,  0.571428597, 0.0333333351
    913, 0.0666666701,  0.714285731, 0.0333333351
    914, 0.0666666701,  0.857142866, 0.0333333351
    915, 0.0666666701,           1., 0.0333333351
    916, 0.0666666701,          -1., 0.0166666675
    917, 0.0666666701, -0.857142866, 0.0166666675
    918, 0.0666666701, -0.714285731, 0.0166666675
    919, 0.0666666701, -0.571428597, 0.0166666675
    920, 0.0666666701, -0.428571433, 0.0166666675
    921, 0.0666666701, -0.285714298, 0.0166666675
    922, 0.0666666701, -0.142857149, 0.0166666675
    923, 0.0666666701,           0., 0.0166666675
    924, 0.0666666701,  0.142857149, 0.0166666675
    925, 0.0666666701,  0.285714298, 0.0166666675
    926, 0.0666666701,  0.428571433, 0.0166666675
    927, 0.0666666701,  0.571428597, 0.0166666675
    928, 0.0666666701,  0.714285731, 0.0166666675
    929, 0.0666666701,  0.857142866, 0.0166666675
    930, 0.0666666701,           1., 0.0166666675
    931, 0.0666666701,          -1.,           0.
    932, 0.0666666701, -0.857142866,           0.
    933, 0.0666666701, -0.714285731,           0.
    934, 0.0666666701, -0.571428597,           0.
    935, 0.0666666701, -0.428571433,           0.
    936, 0.0666666701, -0.285714298,           0.
    937, 0.0666666701, -0.142857149,           0.
    938, 0.0666666701,           0.,           0.
    939, 0.0666666701,  0.142857149,           0.
    940, 0.0666666701,  0.285714298,           0.
    941, 0.0666666701,  0.428571433,           0.
    942, 0.0666666701,  0.571428597,           0.
    943, 0.0666666701,  0.714285731,           0.
    944, 0.0666666701,  0.857142866,           0.
    945, 0.0666666701,           1.,           0.
    946,  0.200000003,          -1.,  0.100000001
    947,  0.200000003, -0.857142866,  0.100000001
    948,  0.200000003, -0.714285731,  0.100000001
    949,  0.200000003, -0.571428597,  0.100000001
    950,  0.200000003, -0.428571433,  0.100000001
    951,  0.200000003, -0.285714298,  0.100000001
    952,  0.200000003, -0.142857149,  0.100000001
    953,  0.200000003,           0.,  0.100000001
    954,  0.200000003,  0.142857149,  0.100000001
    955,  0.200000003,  0.285714298,  0.100000001
    956,  0.200000003,  0.428571433,  0.100000001
    957,  0.200000003,  0.571428597,  0.100000001
    958,  0.200000003,  0.714285731,  0.100000001
    959,  0.200000003,  0.857142866,  0.100000001
    960,  0.200000003,           1.,  0.100000001
    961,  0.200000003,          -1., 0.0833333358
    962,  0.200000003, -0.857142866, 0.0833333358
    963,  0.200000003, -0.714285731, 0.0833333358
    964,  0.200000003, -0.571428597, 0.0833333358
    965,  0.200000003, -0.428571433, 0.0833333358
    966,  0.200000003, -0.285714298, 0.0833333358
    967,  0.200000003, -0.142857149, 0.0833333358
    968,  0.200000003,           0., 0.0833333358
    969,  0.200000003,  0.142857149, 0.0833333358
    970,  0.200000003,  0.285714298, 0.0833333358
    971,  0.200000003,  0.428571433, 0.0833333358
    972,  0.200000003,  0.571428597, 0.0833333358
    973,  0.200000003,  0.714285731, 0.0833333358
    974,  0.200000003,  0.857142866, 0.0833333358
    975,  0.200000003,           1., 0.0833333358
    976,  0.200000003,          -1., 0.0666666701
    977,  0.200000003, -0.857142866, 0.0666666701
    978,  0.200000003, -0.714285731, 0.0666666701
    979,  0.200000003, -0.571428597, 0.0666666701
    980,  0.200000003, -0.428571433, 0.0666666701
    981,  0.200000003, -0.285714298, 0.0666666701
    982,  0.200000003, -0.142857149, 0.0666666701
    983,  0.200000003,           0., 0.0666666701
    984,  0.200000003,  0.142857149, 0.0666666701
    985,  0.200000003,  0.285714298, 0.0666666701
    986,  0.200000003,  0.428571433, 0.0666666701
    987,  0.200000003,  0.571428597, 0.0666666701
    988,  0.200000003,  0.714285731, 0.0666666701
    989,  0.200000003,  0.857142866, 0.0666666701
    990,  0.200000003,           1., 0.0666666701
    991,  0.200000003,          -1., 0.0500000007
    992,  0.200000003, -0.857142866, 0.0500000007
    993,  0.200000003, -0.714285731, 0.0500000007
    994,  0.200000003, -0.571428597, 0.0500000007
    995,  0.200000003, -0.428571433, 0.0500000007
    996,  0.200000003, -0.285714298, 0.0500000007
    997,  0.200000003, -0.142857149, 0.0500000007
    998,  0.200000003,           0., 0.0500000007
    999,  0.200000003,  0.142857149, 0.0500000007
   1000,  0.200000003,  0.285714298, 0.0500000007
   1001,  0.200000003,  0.428571433, 0.0500000007
   1002,  0.200000003,  0.571428597, 0.0500000007
   1003,  0.200000003,  0.714285731, 0.0500000007
   1004,  0.200000003,  0.857142866, 0.0500000007
   1005,  0.200000003,           1., 0.0500000007
   1006,  0.200000003,          -1., 0.0333333351
   1007,  0.200000003, -0.857142866, 0.0333333351
   1008,  0.200000003, -0.714285731, 0.0333333351
   1009,  0.200000003, -0.571428597, 0.0333333351
   1010,  0.200000003, -0.428571433, 0.0333333351
   1011,  0.200000003, -0.285714298, 0.0333333351
   1012,  0.200000003, -0.142857149, 0.0333333351
   1013,  0.200000003,           0., 0.0333333351
   1014,  0.200000003,  0.142857149, 0.0333333351
   1015,  0.200000003,  0.285714298, 0.0333333351
   1016,  0.200000003,  0.428571433, 0.0333333351
   1017,  0.200000003,  0.571428597, 0.0333333351
   1018,  0.200000003,  0.714285731, 0.0333333351
   1019,  0.200000003,  0.857142866, 0.0333333351
   1020,  0.200000003,           1., 0.0333333351
   1021,  0.200000003,          -1., 0.0166666675
   1022,  0.200000003, -0.857142866, 0.0166666675
   1023,  0.200000003, -0.714285731, 0.0166666675
   1024,  0.200000003, -0.571428597, 0.0166666675
   1025,  0.200000003, -0.428571433, 0.0166666675
   1026,  0.200000003, -0.285714298, 0.0166666675
   1027,  0.200000003, -0.142857149, 0.0166666675
   1028,  0.200000003,           0., 0.0166666675
   1029,  0.200000003,  0.142857149, 0.0166666675
   1030,  0.200000003,  0.285714298, 0.0166666675
   1031,  0.200000003,  0.428571433, 0.0166666675
   1032,  0.200000003,  0.571428597, 0.0166666675
   1033,  0.200000003,  0.714285731, 0.0166666675
   1034,  0.200000003,  0.857142866, 0.0166666675
   1035,  0.200000003,           1., 0.0166666675
   1036,  0.200000003,          -1.,           0.
   1037,  0.200000003, -0.857142866,           0.
   1038,  0.200000003, -0.714285731,           0.
   1039,  0.200000003, -0.571428597,           0.
   1040,  0.200000003, -0.428571433,           0.
   1041,  0.200000003, -0.285714298,           0.
   1042,  0.200000003, -0.142857149,           0.
   1043,  0.200000003,           0.,           0.
   1044,  0.200000003,  0.142857149,           0.
   1045,  0.200000003,  0.285714298,           0.
   1046,  0.200000003,  0.428571433,           0.
   1047,  0.200000003,  0.571428597,           0.
   1048,  0.200000003,  0.714285731,           0.
   1049,  0.200000003,  0.857142866,           0.
   1050,  0.200000003,           1.,           0.
   1051,  0.333333343,          -1.,  0.100000001
   1052,  0.333333343, -0.857142866,  0.100000001
   1053,  0.333333343, -0.714285731,  0.100000001
   1054,  0.333333343, -0.571428597,  0.100000001
   1055,  0.333333343, -0.428571433,  0.100000001
   1056,  0.333333343, -0.285714298,  0.100000001
   1057,  0.333333343, -0.142857149,  0.100000001
   1058,  0.333333343,           0.,  0.100000001
   1059,  0.333333343,  0.142857149,  0.100000001
   1060,  0.333333343,  0.285714298,  0.100000001
   1061,  0.333333343,  0.428571433,  0.100000001
   1062,  0.333333343,  0.571428597,  0.100000001
   1063,  0.333333343,  0.714285731,  0.100000001
   1064,  0.333333343,  0.857142866,  0.100000001
   1065,  0.333333343,           1.,  0.100000001
   1066,  0.333333343,          -1., 0.0833333358
   1067,  0.333333343, -0.857142866, 0.0833333358
   1068,  0.333333343, -0.714285731, 0.0833333358
   1069,  0.333333343, -0.571428597, 0.0833333358
   1070,  0.333333343, -0.428571433, 0.0833333358
   1071,  0.333333343, -0.285714298, 0.0833333358
   1072,  0.333333343, -0.142857149, 0.0833333358
   1073,  0.333333343,           0., 0.0833333358
   1074,  0.333333343,  0.142857149, 0.0833333358
   1075,  0.333333343,  0.285714298, 0.0833333358
   1076,  0.333333343,  0.428571433, 0.0833333358
   1077,  0.333333343,  0.571428597, 0.0833333358
   1078,  0.333333343,  0.714285731, 0.0833333358
   1079,  0.333333343,  0.857142866, 0.0833333358
   1080,  0.333333343,           1., 0.0833333358
   1081,  0.333333343,          -1., 0.0666666701
   1082,  0.333333343, -0.857142866, 0.0666666701
   1083,  0.333333343, -0.714285731, 0.0666666701
   1084,  0.333333343, -0.571428597, 0.0666666701
   1085,  0.333333343, -0.428571433, 0.0666666701
   1086,  0.333333343, -0.285714298, 0.0666666701
   1087,  0.333333343, -0.142857149, 0.0666666701
   1088,  0.333333343,           0., 0.0666666701
   1089,  0.333333343,  0.142857149, 0.0666666701
   1090,  0.333333343,  0.285714298, 0.0666666701
   1091,  0.333333343,  0.428571433, 0.0666666701
   1092,  0.333333343,  0.571428597, 0.0666666701
   1093,  0.333333343,  0.714285731, 0.0666666701
   1094,  0.333333343,  0.857142866, 0.0666666701
   1095,  0.333333343,           1., 0.0666666701
   1096,  0.333333343,          -1., 0.0500000007
   1097,  0.333333343, -0.857142866, 0.0500000007
   1098,  0.333333343, -0.714285731, 0.0500000007
   1099,  0.333333343, -0.571428597, 0.0500000007
   1100,  0.333333343, -0.428571433, 0.0500000007
   1101,  0.333333343, -0.285714298, 0.0500000007
   1102,  0.333333343, -0.142857149, 0.0500000007
   1103,  0.333333343,           0., 0.0500000007
   1104,  0.333333343,  0.142857149, 0.0500000007
   1105,  0.333333343,  0.285714298, 0.0500000007
   1106,  0.333333343,  0.428571433, 0.0500000007
   1107,  0.333333343,  0.571428597, 0.0500000007
   1108,  0.333333343,  0.714285731, 0.0500000007
   1109,  0.333333343,  0.857142866, 0.0500000007
   1110,  0.333333343,           1., 0.0500000007
   1111,  0.333333343,          -1., 0.0333333351
   1112,  0.333333343, -0.857142866, 0.0333333351
   1113,  0.333333343, -0.714285731, 0.0333333351
   1114,  0.333333343, -0.571428597, 0.0333333351
   1115,  0.333333343, -0.428571433, 0.0333333351
   1116,  0.333333343, -0.285714298, 0.0333333351
   1117,  0.333333343, -0.142857149, 0.0333333351
   1118,  0.333333343,           0., 0.0333333351
   1119,  0.333333343,  0.142857149, 0.0333333351
   1120,  0.333333343,  0.285714298, 0.0333333351
   1121,  0.333333343,  0.428571433, 0.0333333351
   1122,  0.333333343,  0.571428597, 0.0333333351
   1123,  0.333333343,  0.714285731, 0.0333333351
   1124,  0.333333343,  0.857142866, 0.0333333351
   1125,  0.333333343,           1., 0.0333333351
   1126,  0.333333343,          -1., 0.0166666675
   1127,  0.333333343, -0.857142866, 0.0166666675
   1128,  0.333333343, -0.714285731, 0.0166666675
   1129,  0.333333343, -0.571428597, 0.0166666675
   1130,  0.333333343, -0.428571433, 0.0166666675
   1131,  0.333333343, -0.285714298, 0.0166666675
   1132,  0.333333343, -0.142857149, 0.0166666675
   1133,  0.333333343,           0., 0.0166666675
   1134,  0.333333343,  0.142857149, 0.0166666675
   1135,  0.333333343,  0.285714298, 0.0166666675
   1136,  0.333333343,  0.428571433, 0.0166666675
   1137,  0.333333343,  0.571428597, 0.0166666675
   1138,  0.333333343,  0.714285731, 0.0166666675
   1139,  0.333333343,  0.857142866, 0.0166666675
   1140,  0.333333343,           1., 0.0166666675
   1141,  0.333333343,          -1.,           0.
   1142,  0.333333343, -0.857142866,           0.
   1143,  0.333333343, -0.714285731,           0.
   1144,  0.333333343, -0.571428597,           0.
   1145,  0.333333343, -0.428571433,           0.
   1146,  0.333333343, -0.285714298,           0.
   1147,  0.333333343, -0.142857149,           0.
   1148,  0.333333343,           0.,           0.
   1149,  0.333333343,  0.142857149,           0.
   1150,  0.333333343,  0.285714298,           0.
   1151,  0.333333343,  0.428571433,           0.
   1152,  0.333333343,  0.571428597,           0.
   1153,  0.333333343,  0.714285731,           0.
   1154,  0.333333343,  0.857142866,           0.
   1155,  0.333333343,           1.,           0.
   1156,  0.466666669,          -1.,  0.100000001
   1157,  0.466666669, -0.857142866,  0.100000001
   1158,  0.466666669, -0.714285731,  0.100000001
   1159,  0.466666669, -0.571428597,  0.100000001
   1160,  0.466666669, -0.428571433,  0.100000001
   1161,  0.466666669, -0.285714298,  0.100000001
   1162,  0.466666669, -0.142857149,  0.100000001
   1163,  0.466666669,           0.,  0.100000001
   1164,  0.466666669,  0.142857149,  0.100000001
   1165,  0.466666669,  0.285714298,  0.100000001
   1166,  0.466666669,  0.428571433,  0.100000001
   1167,  0.466666669,  0.571428597,  0.100000001
   1168,  0.466666669,  0.714285731,  0.100000001
   1169,  0.466666669,  0.857142866,  0.100000001
   1170,  0.466666669,           1.,  0.100000001
   1171,  0.466666669,          -1., 0.0833333358
   1172,  0.466666669, -0.857142866, 0.0833333358
   1173,  0.466666669, -0.714285731, 0.0833333358
   1174,  0.466666669, -0.571428597, 0.0833333358
   1175,  0.466666669, -0.428571433, 0.0833333358
   1176,  0.466666669, -0.285714298, 0.0833333358
   1177,  0.466666669, -0.142857149, 0.0833333358
   1178,  0.466666669,           0., 0.0833333358
   1179,  0.466666669,  0.142857149, 0.0833333358
   1180,  0.466666669,  0.285714298, 0.0833333358
   1181,  0.466666669,  0.428571433, 0.0833333358
   1182,  0.466666669,  0.571428597, 0.0833333358
   1183,  0.466666669,  0.714285731, 0.0833333358
   1184,  0.466666669,  0.857142866, 0.0833333358
   1185,  0.466666669,           1., 0.0833333358
   1186,  0.466666669,          -1., 0.0666666701
   1187,  0.466666669, -0.857142866, 0.0666666701
   1188,  0.466666669, -0.714285731, 0.0666666701
   1189,  0.466666669, -0.571428597, 0.0666666701
   1190,  0.466666669, -0.428571433, 0.0666666701
   1191,  0.466666669, -0.285714298, 0.0666666701
   1192,  0.466666669, -0.142857149, 0.0666666701
   1193,  0.466666669,           0., 0.0666666701
   1194,  0.466666669,  0.142857149, 0.0666666701
   1195,  0.466666669,  0.285714298, 0.0666666701
   1196,  0.466666669,  0.428571433, 0.0666666701
   1197,  0.466666669,  0.571428597, 0.0666666701
   1198,  0.466666669,  0.714285731, 0.0666666701
   1199,  0.466666669,  0.857142866, 0.0666666701
   1200,  0.466666669,           1., 0.0666666701
   1201,  0.466666669,          -1., 0.0500000007
   1202,  0.466666669, -0.857142866, 0.0500000007
   1203,  0.466666669, -0.714285731, 0.0500000007
   1204,  0.466666669, -0.571428597, 0.0500000007
   1205,  0.466666669, -0.428571433, 0.0500000007
   1206,  0.466666669, -0.285714298, 0.0500000007
   1207,  0.466666669, -0.142857149, 0.0500000007
   1208,  0.466666669,           0., 0.0500000007
   1209,  0.466666669,  0.142857149, 0.0500000007
   1210,  0.466666669,  0.285714298, 0.0500000007
   1211,  0.466666669,  0.428571433, 0.0500000007
   1212,  0.466666669,  0.571428597, 0.0500000007
   1213,  0.466666669,  0.714285731, 0.0500000007
   1214,  0.466666669,  0.857142866, 0.0500000007
   1215,  0.466666669,           1., 0.0500000007
   1216,  0.466666669,          -1., 0.0333333351
   1217,  0.466666669, -0.857142866, 0.0333333351
   1218,  0.466666669, -0.714285731, 0.0333333351
   1219,  0.466666669, -0.571428597, 0.0333333351
   1220,  0.466666669, -0.428571433, 0.0333333351
   1221,  0.466666669, -0.285714298, 0.0333333351
   1222,  0.466666669, -0.142857149, 0.0333333351
   1223,  0.466666669,           0., 0.0333333351
   1224,  0.466666669,  0.142857149, 0.0333333351
   1225,  0.466666669,  0.285714298, 0.0333333351
   1226,  0.466666669,  0.428571433, 0.0333333351
   1227,  0.466666669,  0.571428597, 0.0333333351
   1228,  0.466666669,  0.714285731, 0.0333333351
   1229,  0.466666669,  0.857142866, 0.0333333351
   1230,  0.466666669,           1., 0.0333333351
   1231,  0.466666669,          -1., 0.0166666675
   1232,  0.466666669, -0.857142866, 0.0166666675
   1233,  0.466666669, -0.714285731, 0.0166666675
   1234,  0.466666669, -0.571428597, 0.0166666675
   1235,  0.466666669, -0.428571433, 0.0166666675
   1236,  0.466666669, -0.285714298, 0.0166666675
   1237,  0.466666669, -0.142857149, 0.0166666675
   1238,  0.466666669,           0., 0.0166666675
   1239,  0.466666669,  0.142857149, 0.0166666675
   1240,  0.466666669,  0.285714298, 0.0166666675
   1241,  0.466666669,  0.428571433, 0.0166666675
   1242,  0.466666669,  0.571428597, 0.0166666675
   1243,  0.466666669,  0.714285731, 0.0166666675
   1244,  0.466666669,  0.857142866, 0.0166666675
   1245,  0.466666669,           1., 0.0166666675
   1246,  0.466666669,          -1.,           0.
   1247,  0.466666669, -0.857142866,           0.
   1248,  0.466666669, -0.714285731,           0.
   1249,  0.466666669, -0.571428597,           0.
   1250,  0.466666669, -0.428571433,           0.
   1251,  0.466666669, -0.285714298,           0.
   1252,  0.466666669, -0.142857149,           0.
   1253,  0.466666669,           0.,           0.
   1254,  0.466666669,  0.142857149,           0.
   1255,  0.466666669,  0.285714298,           0.
   1256,  0.466666669,  0.428571433,           0.
   1257,  0.466666669,  0.571428597,           0.
   1258,  0.466666669,  0.714285731,           0.
   1259,  0.466666669,  0.857142866,           0.
   1260,  0.466666669,           1.,           0.
   1261,  0.600000024,          -1.,  0.100000001
   1262,  0.600000024, -0.857142866,  0.100000001
   1263,  0.600000024, -0.714285731,  0.100000001
   1264,  0.600000024, -0.571428597,  0.100000001
   1265,  0.600000024, -0.428571433,  0.100000001
   1266,  0.600000024, -0.285714298,  0.100000001
   1267,  0.600000024, -0.142857149,  0.100000001
   1268,  0.600000024,           0.,  0.100000001
   1269,  0.600000024,  0.142857149,  0.100000001
   1270,  0.600000024,  0.285714298,  0.100000001
   1271,  0.600000024,  0.428571433,  0.100000001
   1272,  0.600000024,  0.571428597,  0.100000001
   1273,  0.600000024,  0.714285731,  0.100000001
   1274,  0.600000024,  0.857142866,  0.100000001
   1275,  0.600000024,           1.,  0.100000001
   1276,  0.600000024,          -1., 0.0833333358
   1277,  0.600000024, -0.857142866, 0.0833333358
   1278,  0.600000024, -0.714285731, 0.0833333358
   1279,  0.600000024, -0.571428597, 0.0833333358
   1280,  0.600000024, -0.428571433, 0.0833333358
   1281,  0.600000024, -0.285714298, 0.0833333358
   1282,  0.600000024, -0.142857149, 0.0833333358
   1283,  0.600000024,           0., 0.0833333358
   1284,  0.600000024,  0.142857149, 0.0833333358
   1285,  0.600000024,  0.285714298, 0.0833333358
   1286,  0.600000024,  0.428571433, 0.0833333358
   1287,  0.600000024,  0.571428597, 0.0833333358
   1288,  0.600000024,  0.714285731, 0.0833333358
   1289,  0.600000024,  0.857142866, 0.0833333358
   1290,  0.600000024,           1., 0.0833333358
   1291,  0.600000024,          -1., 0.0666666701
   1292,  0.600000024, -0.857142866, 0.0666666701
   1293,  0.600000024, -0.714285731, 0.0666666701
   1294,  0.600000024, -0.571428597, 0.0666666701
   1295,  0.600000024, -0.428571433, 0.0666666701
   1296,  0.600000024, -0.285714298, 0.0666666701
   1297,  0.600000024, -0.142857149, 0.0666666701
   1298,  0.600000024,           0., 0.0666666701
   1299,  0.600000024,  0.142857149, 0.0666666701
   1300,  0.600000024,  0.285714298, 0.0666666701
   1301,  0.600000024,  0.428571433, 0.0666666701
   1302,  0.600000024,  0.571428597, 0.0666666701
   1303,  0.600000024,  0.714285731, 0.0666666701
   1304,  0.600000024,  0.857142866, 0.0666666701
   1305,  0.600000024,           1., 0.0666666701
   1306,  0.600000024,          -1., 0.0500000007
   1307,  0.600000024, -0.857142866, 0.0500000007
   1308,  0.600000024, -0.714285731, 0.0500000007
   1309,  0.600000024, -0.571428597, 0.0500000007
   1310,  0.600000024, -0.428571433, 0.0500000007
   1311,  0.600000024, -0.285714298, 0.0500000007
   1312,  0.600000024, -0.142857149, 0.0500000007
   1313,  0.600000024,           0., 0.0500000007
   1314,  0.600000024,  0.142857149, 0.0500000007
   1315,  0.600000024,  0.285714298, 0.0500000007
   1316,  0.600000024,  0.428571433, 0.0500000007
   1317,  0.600000024,  0.571428597, 0.0500000007
   1318,  0.600000024,  0.714285731, 0.0500000007
   1319,  0.600000024,  0.857142866, 0.0500000007
   1320,  0.600000024,           1., 0.0500000007
   1321,  0.600000024,          -1., 0.0333333351
   1322,  0.600000024, -0.857142866, 0.0333333351
   1323,  0.600000024, -0.714285731, 0.0333333351
   1324,  0.600000024, -0.571428597, 0.0333333351
   1325,  0.600000024, -0.428571433, 0.0333333351
   1326,  0.600000024, -0.285714298, 0.0333333351
   1327,  0.600000024, -0.142857149, 0.0333333351
   1328,  0.600000024,           0., 0.0333333351
   1329,  0.600000024,  0.142857149, 0.0333333351
   1330,  0.600000024,  0.285714298, 0.0333333351
   1331,  0.600000024,  0.428571433, 0.0333333351
   1332,  0.600000024,  0.571428597, 0.0333333351
   1333,  0.600000024,  0.714285731, 0.0333333351
   1334,  0.600000024,  0.857142866, 0.0333333351
   1335,  0.600000024,           1., 0.0333333351
   1336,  0.600000024,          -1., 0.0166666675
   1337,  0.600000024, -0.857142866, 0.0166666675
   1338,  0.600000024, -0.714285731, 0.0166666675
   1339,  0.600000024, -0.571428597, 0.0166666675
   1340,  0.600000024, -0.428571433, 0.0166666675
   1341,  0.600000024, -0.285714298, 0.0166666675
   1342,  0.600000024, -0.142857149, 0.0166666675
   1343,  0.600000024,           0., 0.0166666675
   1344,  0.600000024,  0.142857149, 0.0166666675
   1345,  0.600000024,  0.285714298, 0.0166666675
   1346,  0.600000024,  0.428571433, 0.0166666675
   1347,  0.600000024,  0.571428597, 0.0166666675
   1348,  0.600000024,  0.714285731, 0.0166666675
   1349,  0.600000024,  0.857142866, 0.0166666675
   1350,  0.600000024,           1., 0.0166666675
   1351,  0.600000024,          -1.,           0.
   1352,  0.600000024, -0.857142866,           0.
   1353,  0.600000024, -0.714285731,           0.
   1354,  0.600000024, -0.571428597,           0.
   1355,  0.600000024, -0.428571433,           0.
   1356,  0.600000024, -0.285714298,           0.
   1357,  0.600000024, -0.142857149,           0.
   1358,  0.600000024,           0.,           0.
   1359,  0.600000024,  0.142857149,           0.
   1360,  0.600000024,  0.285714298,           0.
   1361,  0.600000024,  0.428571433,           0.
   1362,  0.600000024,  0.571428597,           0.
   1363,  0.600000024,  0.714285731,           0.
   1364,  0.600000024,  0.857142866,           0.
   1365,  0.600000024,           1.,           0.
   1366,  0.733333349,          -1.,  0.100000001
   1367,  0.733333349, -0.857142866,  0.100000001
   1368,  0.733333349, -0.714285731,  0.100000001
   1369,  0.733333349, -0.571428597,  0.100000001
   1370,  0.733333349, -0.428571433,  0.100000001
   1371,  0.733333349, -0.285714298,  0.100000001
   1372,  0.733333349, -0.142857149,  0.100000001
   1373,  0.733333349,           0.,  0.100000001
   1374,  0.733333349,  0.142857149,  0.100000001
   1375,  0.733333349,  0.285714298,  0.100000001
   1376,  0.733333349,  0.428571433,  0.100000001
   1377,  0.733333349,  0.571428597,  0.100000001
   1378,  0.733333349,  0.714285731,  0.100000001
   1379,  0.733333349,  0.857142866,  0.100000001
   1380,  0.733333349,           1.,  0.100000001
   1381,  0.733333349,          -1., 0.0833333358
   1382,  0.733333349, -0.857142866, 0.0833333358
   1383,  0.733333349, -0.714285731, 0.0833333358
   1384,  0.733333349, -0.571428597, 0.0833333358
   1385,  0.733333349, -0.428571433, 0.0833333358
   1386,  0.733333349, -0.285714298, 0.0833333358
   1387,  0.733333349, -0.142857149, 0.0833333358
   1388,  0.733333349,           0., 0.0833333358
   1389,  0.733333349,  0.142857149, 0.0833333358
   1390,  0.733333349,  0.285714298, 0.0833333358
   1391,  0.733333349,  0.428571433, 0.0833333358
   1392,  0.733333349,  0.571428597, 0.0833333358
   1393,  0.733333349,  0.714285731, 0.0833333358
   1394,  0.733333349,  0.857142866, 0.0833333358
   1395,  0.733333349,           1., 0.0833333358
   1396,  0.733333349,          -1., 0.0666666701
   1397,  0.733333349, -0.857142866, 0.0666666701
   1398,  0.733333349, -0.714285731, 0.0666666701
   1399,  0.733333349, -0.571428597, 0.0666666701
   1400,  0.733333349, -0.428571433, 0.0666666701
   1401,  0.733333349, -0.285714298, 0.0666666701
   1402,  0.733333349, -0.142857149, 0.0666666701
   1403,  0.733333349,           0., 0.0666666701
   1404,  0.733333349,  0.142857149, 0.0666666701
   1405,  0.733333349,  0.285714298, 0.0666666701
   1406,  0.733333349,  0.428571433, 0.0666666701
   1407,  0.733333349,  0.571428597, 0.0666666701
   1408,  0.733333349,  0.714285731, 0.0666666701
   1409,  0.733333349,  0.857142866, 0.0666666701
   1410,  0.733333349,           1., 0.0666666701
   1411,  0.733333349,          -1., 0.0500000007
   1412,  0.733333349, -0.857142866, 0.0500000007
   1413,  0.733333349, -0.714285731, 0.0500000007
   1414,  0.733333349, -0.571428597, 0.0500000007
   1415,  0.733333349, -0.428571433, 0.0500000007
   1416,  0.733333349, -0.285714298, 0.0500000007
   1417,  0.733333349, -0.142857149, 0.0500000007
   1418,  0.733333349,           0., 0.0500000007
   1419,  0.733333349,  0.142857149, 0.0500000007
   1420,  0.733333349,  0.285714298, 0.0500000007
   1421,  0.733333349,  0.428571433, 0.0500000007
   1422,  0.733333349,  0.571428597, 0.0500000007
   1423,  0.733333349,  0.714285731, 0.0500000007
   1424,  0.733333349,  0.857142866, 0.0500000007
   1425,  0.733333349,           1., 0.0500000007
   1426,  0.733333349,          -1., 0.0333333351
   1427,  0.733333349, -0.857142866, 0.0333333351
   1428,  0.733333349, -0.714285731, 0.0333333351
   1429,  0.733333349, -0.571428597, 0.0333333351
   1430,  0.733333349, -0.428571433, 0.0333333351
   1431,  0.733333349, -0.285714298, 0.0333333351
   1432,  0.733333349, -0.142857149, 0.0333333351
   1433,  0.733333349,           0., 0.0333333351
   1434,  0.733333349,  0.142857149, 0.0333333351
   1435,  0.733333349,  0.285714298, 0.0333333351
   1436,  0.733333349,  0.428571433, 0.0333333351
   1437,  0.733333349,  0.571428597, 0.0333333351
   1438,  0.733333349,  0.714285731, 0.0333333351
   1439,  0.733333349,  0.857142866, 0.0333333351
   1440,  0.733333349,           1., 0.0333333351
   1441,  0.733333349,          -1., 0.0166666675
   1442,  0.733333349, -0.857142866, 0.0166666675
   1443,  0.733333349, -0.714285731, 0.0166666675
   1444,  0.733333349, -0.571428597, 0.0166666675
   1445,  0.733333349, -0.428571433, 0.0166666675
   1446,  0.733333349, -0.285714298, 0.0166666675
   1447,  0.733333349, -0.142857149, 0.0166666675
   1448,  0.733333349,           0., 0.0166666675
   1449,  0.733333349,  0.142857149, 0.0166666675
   1450,  0.733333349,  0.285714298, 0.0166666675
   1451,  0.733333349,  0.428571433, 0.0166666675
   1452,  0.733333349,  0.571428597, 0.0166666675
   1453,  0.733333349,  0.714285731, 0.0166666675
   1454,  0.733333349,  0.857142866, 0.0166666675
   1455,  0.733333349,           1., 0.0166666675
   1456,  0.733333349,          -1.,           0.
   1457,  0.733333349, -0.857142866,           0.
   1458,  0.733333349, -0.714285731,           0.
   1459,  0.733333349, -0.571428597,           0.
   1460,  0.733333349, -0.428571433,           0.
   1461,  0.733333349, -0.285714298,           0.
   1462,  0.733333349, -0.142857149,           0.
   1463,  0.733333349,           0.,           0.
   1464,  0.733333349,  0.142857149,           0.
   1465,  0.733333349,  0.285714298,           0.
   1466,  0.733333349,  0.428571433,           0.
   1467,  0.733333349,  0.571428597,           0.
   1468,  0.733333349,  0.714285731,           0.
   1469,  0.733333349,  0.857142866,           0.
   1470,  0.733333349,           1.,           0.
   1471,  0.866666675,          -1.,  0.100000001
   1472,  0.866666675, -0.857142866,  0.100000001
   1473,  0.866666675, -0.714285731,  0.100000001
   1474,  0.866666675, -0.571428597,  0.100000001
   1475,  0.866666675, -0.428571433,  0.100000001
   1476,  0.866666675, -0.285714298,  0.100000001
   1477,  0.866666675, -0.142857149,  0.100000001
   1478,  0.866666675,           0.,  0.100000001
   1479,  0.866666675,  0.142857149,  0.100000001
   1480,  0.866666675,  0.285714298,  0.100000001
   1481,  0.866666675,  0.428571433,  0.100000001
   1482,  0.866666675,  0.571428597,  0.100000001
   1483,  0.866666675,  0.714285731,  0.100000001
   1484,  0.866666675,  0.857142866,  0.100000001
   1485,  0.866666675,           1.,  0.100000001
   1486,  0.866666675,          -1., 0.0833333358
   1487,  0.866666675, -0.857142866, 0.0833333358
   1488,  0.866666675, -0.714285731, 0.0833333358
   1489,  0.866666675, -0.571428597, 0.0833333358
   1490,  0.866666675, -0.428571433, 0.0833333358
   1491,  0.866666675, -0.285714298, 0.0833333358
   1492,  0.866666675, -0.142857149, 0.0833333358
   1493,  0.866666675,           0., 0.0833333358
   1494,  0.866666675,  0.142857149, 0.0833333358
   1495,  0.866666675,  0.285714298, 0.0833333358
   1496,  0.866666675,  0.428571433, 0.0833333358
   1497,  0.866666675,  0.571428597, 0.0833333358
   1498,  0.866666675,  0.714285731, 0.0833333358
   1499,  0.866666675,  0.857142866, 0.0833333358
   1500,  0.866666675,           1., 0.0833333358
   1501,  0.866666675,          -1., 0.0666666701
   1502,  0.866666675, -0.857142866, 0.0666666701
   1503,  0.866666675, -0.714285731, 0.0666666701
   1504,  0.866666675, -0.571428597, 0.0666666701
   1505,  0.866666675, -0.428571433, 0.0666666701
   1506,  0.866666675, -0.285714298, 0.0666666701
   1507,  0.866666675, -0.142857149, 0.0666666701
   1508,  0.866666675,           0., 0.0666666701
   1509,  0.866666675,  0.142857149, 0.0666666701
   1510,  0.866666675,  0.285714298, 0.0666666701
   1511,  0.866666675,  0.428571433, 0.0666666701
   1512,  0.866666675,  0.571428597, 0.0666666701
   1513,  0.866666675,  0.714285731, 0.0666666701
   1514,  0.866666675,  0.857142866, 0.0666666701
   1515,  0.866666675,           1., 0.0666666701
   1516,  0.866666675,          -1., 0.0500000007
   1517,  0.866666675, -0.857142866, 0.0500000007
   1518,  0.866666675, -0.714285731, 0.0500000007
   1519,  0.866666675, -0.571428597, 0.0500000007
   1520,  0.866666675, -0.428571433, 0.0500000007
   1521,  0.866666675, -0.285714298, 0.0500000007
   1522,  0.866666675, -0.142857149, 0.0500000007
   1523,  0.866666675,           0., 0.0500000007
   1524,  0.866666675,  0.142857149, 0.0500000007
   1525,  0.866666675,  0.285714298, 0.0500000007
   1526,  0.866666675,  0.428571433, 0.0500000007
   1527,  0.866666675,  0.571428597, 0.0500000007
   1528,  0.866666675,  0.714285731, 0.0500000007
   1529,  0.866666675,  0.857142866, 0.0500000007
   1530,  0.866666675,           1., 0.0500000007
   1531,  0.866666675,          -1., 0.0333333351
   1532,  0.866666675, -0.857142866, 0.0333333351
   1533,  0.866666675, -0.714285731, 0.0333333351
   1534,  0.866666675, -0.571428597, 0.0333333351
   1535,  0.866666675, -0.428571433, 0.0333333351
   1536,  0.866666675, -0.285714298, 0.0333333351
   1537,  0.866666675, -0.142857149, 0.0333333351
   1538,  0.866666675,           0., 0.0333333351
   1539,  0.866666675,  0.142857149, 0.0333333351
   1540,  0.866666675,  0.285714298, 0.0333333351
   1541,  0.866666675,  0.428571433, 0.0333333351
   1542,  0.866666675,  0.571428597, 0.0333333351
   1543,  0.866666675,  0.714285731, 0.0333333351
   1544,  0.866666675,  0.857142866, 0.0333333351
   1545,  0.866666675,           1., 0.0333333351
   1546,  0.866666675,          -1., 0.0166666675
   1547,  0.866666675, -0.857142866, 0.0166666675
   1548,  0.866666675, -0.714285731, 0.0166666675
   1549,  0.866666675, -0.571428597, 0.0166666675
   1550,  0.866666675, -0.428571433, 0.0166666675
   1551,  0.866666675, -0.285714298, 0.0166666675
   1552,  0.866666675, -0.142857149, 0.0166666675
   1553,  0.866666675,           0., 0.0166666675
   1554,  0.866666675,  0.142857149, 0.0166666675
   1555,  0.866666675,  0.285714298, 0.0166666675
   1556,  0.866666675,  0.428571433, 0.0166666675
   1557,  0.866666675,  0.571428597, 0.0166666675
   1558,  0.866666675,  0.714285731, 0.0166666675
   1559,  0.866666675,  0.857142866, 0.0166666675
   1560,  0.866666675,           1., 0.0166666675
   1561,  0.866666675,          -1.,           0.
   1562,  0.866666675, -0.857142866,           0.
   1563,  0.866666675, -0.714285731,           0.
   1564,  0.866666675, -0.571428597,           0.
   1565,  0.866666675, -0.428571433,           0.
   1566,  0.866666675, -0.285714298,           0.
   1567,  0.866666675, -0.142857149,           0.
   1568,  0.866666675,           0.,           0.
   1569,  0.866666675,  0.142857149,           0.
   1570,  0.866666675,  0.285714298,           0.
   1571,  0.866666675,  0.428571433,           0.
   1572,  0.866666675,  0.571428597,           0.
   1573,  0.866666675,  0.714285731,           0.
   1574,  0.866666675,  0.857142866,           0.
   1575,  0.866666675,           1.,           0.
   1576,           1.,          -1.,  0.100000001
   1577,           1., -0.857142866,  0.100000001
   1578,           1., -0.714285731,  0.100000001
   1579,           1., -0.571428597,  0.100000001
   1580,           1., -0.428571433,  0.100000001
   1581,           1., -0.285714298,  0.100000001
   1582,           1., -0.142857149,  0.100000001
   1583,           1.,           0.,  0.100000001
   1584,           1.,  0.142857149,  0.100000001
   1585,           1.,  0.285714298,  0.100000001
   1586,           1.,  0.428571433,  0.100000001
   1587,           1.,  0.571428597,  0.100000001
   1588,           1.,  0.714285731,  0.100000001
   1589,           1.,  0.857142866,  0.100000001
   1590,           1.,           1.,  0.100000001
   1591,           1.,          -1., 0.0833333358
   1592,           1., -0.857142866, 0.0833333358
   1593,           1., -0.714285731, 0.0833333358
   1594,           1., -0.571428597, 0.0833333358
   1595,           1., -0.428571433, 0.0833333358
   1596,           1., -0.285714298, 0.0833333358
   1597,           1., -0.142857149, 0.0833333358
   1598,           1.,           0., 0.0833333358
   1599,           1.,  0.142857149, 0.0833333358
   1600,           1.,  0.285714298, 0.0833333358
   1601,           1.,  0.428571433, 0.0833333358
   1602,           1.,  0.571428597, 0.0833333358
   1603,           1.,  0.714285731, 0.0833333358
   1604,           1.,  0.857142866, 0.0833333358
   1605,           1.,           1., 0.0833333358
   1606,           1.,          -1., 0.0666666701
   1607,           1., -0.857142866, 0.0666666701
   1608,           1., -0.714285731, 0.0666666701
   1609,           1., -0.571428597, 0.0666666701
   1610,           1., -0.428571433, 0.0666666701
   1611,           1., -0.285714298, 0.0666666701
   1612,           1., -0.142857149, 0.0666666701
   1613,           1.,           0., 0.0666666701
   1614,           1.,  0.142857149, 0.0666666701
   1615,           1.,  0.285714298, 0.0666666701
   1616,           1.,  0.428571433, 0.0666666701
   1617,           1.,  0.571428597, 0.0666666701
   1618,           1.,  0.714285731, 0.0666666701
   1619,           1.,  0.857142866, 0.0666666701
   1620,           1.,           1., 0.0666666701
   1621,           1.,          -1., 0.0500000007
   1622,           1., -0.857142866, 0.0500000007
   1623,           1., -0.714285731, 0.0500000007
   1624,           1., -0.571428597, 0.0500000007
   1625,           1., -0.428571433, 0.0500000007
   1626,           1., -0.285714298, 0.0500000007
   1627,           1., -0.142857149, 0.0500000007
   1628,           1.,           0., 0.0500000007
   1629,           1.,  0.142857149, 0.0500000007
   1630,           1.,  0.285714298, 0.0500000007
   1631,           1.,  0.428571433, 0.0500000007
   1632,           1.,  0.571428597, 0.0500000007
   1633,           1.,  0.714285731, 0.0500000007
   1634,           1.,  0.857142866, 0.0500000007
   1635,           1.,           1., 0.0500000007
   1636,           1.,          -1., 0.0333333351
   1637,           1., -0.857142866, 0.0333333351
   1638,           1., -0.714285731, 0.0333333351
   1639,           1., -0.571428597, 0.0333333351
   1640,           1., -0.428571433, 0.0333333351
   1641,           1., -0.285714298, 0.0333333351
   1642,           1., -0.142857149, 0.0333333351
   1643,           1.,           0., 0.0333333351
   1644,           1.,  0.142857149, 0.0333333351
   1645,           1.,  0.285714298, 0.0333333351
   1646,           1.,  0.428571433, 0.0333333351
   1647,           1.,  0.571428597, 0.0333333351
   1648,           1.,  0.714285731, 0.0333333351
   1649,           1.,  0.857142866, 0.0333333351
   1650,           1.,           1., 0.0333333351
   1651,           1.,          -1., 0.0166666675
   1652,           1., -0.857142866, 0.0166666675
   1653,           1., -0.714285731, 0.0166666675
   1654,           1., -0.571428597, 0.0166666675
   1655,           1., -0.428571433, 0.0166666675
   1656,           1., -0.285714298, 0.0166666675
   1657,           1., -0.142857149, 0.0166666675
   1658,           1.,           0., 0.0166666675
   1659,           1.,  0.142857149, 0.0166666675
   1660,           1.,  0.285714298, 0.0166666675
   1661,           1.,  0.428571433, 0.0166666675
   1662,           1.,  0.571428597, 0.0166666675
   1663,           1.,  0.714285731, 0.0166666675
   1664,           1.,  0.857142866, 0.0166666675
   1665,           1.,           1., 0.0166666675
   1666,           1.,          -1.,           0.
   1667,           1., -0.857142866,           0.
   1668,           1., -0.714285731,           0.
   1669,           1., -0.571428597,           0.
   1670,           1., -0.428571433,           0.
   1671,           1., -0.285714298,           0.
   1672,           1., -0.142857149,           0.
   1673,           1.,           0.,           0.
   1674,           1.,  0.142857149,           0.
   1675,           1.,  0.285714298,           0.
   1676,           1.,  0.428571433,           0.
   1677,           1.,  0.571428597,           0.
   1678,           1.,  0.714285731,           0.
   1679,           1.,  0.857142866,           0.
   1680,           1.,           1.,           0.
*Element, type=C3D8R
   1,  106,  107,  122,  121,    1,    2,   17,   16
   2,  107,  108,  123,  122,    2,    3,   18,   17
   3,  108,  109,  124,  123,    3,    4,   19,   18
   4,  109,  110,  125,  124,    4,    5,   20,   19
   5,  110,  111,  126,  125,    5,    6,   21,   20
   6,  111,  112,  127,  126,    6,    7,   22,   21
   7,  112,  113,  128,  127,    7,    8,   23,   22
   8,  113,  114,  129,  128,    8,    9,   24,   23
   9,  114,  115,  130,  129,    9,   10,   25,   24
  10,  115,  116,  131,  130,   10,   11,   26,   25
  11,  116,  117,  132,  131,   11,   12,   27,   26
  12,  117,  118,  133,  132,   12,   13,   28,   27
  13,  118,  119,  134,  133,   13,   14,   29,   28
  14,  119,  120,  135,  134,   14,   15,   30,   29
  15,  121,  122,  137,  136,   16,   17,   32,   31
  16,  122,  123,  138,  137,   17,   18,   33,   32
  17,  123,  124,  139,  138,   18,   19,   34,   33
  18,  124,  125,  140,  139,   19,   20,   35,   34
  19,  125,  126,  141,  140,   20,   21,   36,   35
  20,  126,  127,  142,  141,   21,   22,   37,   36
  21,  127,  128,  143,  142,   22,   23,   38,   37
  22,  128,  129,  144,  143,   23,   24,   39,   38
  23,  129,  130,  145,  144,   24,   25,   40,   39
  24,  130,  131,  146,  145,   25,   26,   41,   40
  25,  131,  132,  147,  146,   26,   27,   42,   41
  26,  132,  133,  148,  147,   27,   28,   43,   42
  27,  133,  134,  149,  148,   28,   29,   44,   43
  28,  134,  135,  150,  149,   29,   30,   45,   44
  29,  136,  137,  152,  151,   31,   32,   47,   46
  30,  137,  138,  153,  152,   32,   33,   48,   47
  31,  138,  139,  154,  153,   33,   34,   49,   48
  32,  139,  140,  155,  154,   34,   35,   50,   49
  33,  140,  141,  156,  155,   35,   36,   51,   50
  34,  141,  142,  157,  156,   36,   37,   52,   51
  35,  142,  143,  158,  157,   37,   38,   53,   52
  36,  143,  144,  159,  158,   38,   39,   54,   53
  37,  144,  145,  160,  159,   39,   40,   55,   54
  38,  145,  146,  161,  160,   40,   41,   56,   55
  39,  146,  147,  162,  161,   41,   42,   57,   56
  40,  147,  148,  163,  162,   42,   43,   58,   57
  41,  148,  149,  164,  163,   43,   44,   59,   58
  42,  149,  150,  165,  164,   44,   45,   60,   59
  43,  151,  152,  167,  166,   46,   47,   62,   61
  44,  152,  153,  168,  167,   47,   48,   63,   62
  45,  153,  154,  169,  168,   48,   49,   64,   63
  46,  154,  155,  170,  169,   49,   50,   65,   64
  47,  155,  156,  171,  170,   50,   51,   66,   65
  48,  156,  157,  172,  171,   51,   52,   67,   66
  49,  157,  158,  173,  172,   52,   53,   68,   67
  50,  158,  159,  174,  173,   53,   54,   69,   68
  51,  159,  160,  175,  174,   54,   55,   70,   69
  52,  160,  161,  176,  175,   55,   56,   71,   70
  53,  161,  162,  177,  176,   56,   57,   72,   71
  54,  162,  163,  178,  177,   57,   58,   73,   72
  55,  163,  164,  179,  178,   58,   59,   74,   73
  56,  164,  165,  180,  179,   59,   60,   75,   74
  57,  166,  167,  182,  181,   61,   62,   77,   76
  58,  167,  168,  183,  182,   62,   63,   78,   77
  59,  168,  169,  184,  183,   63,   64,   79,   78
  60,  169,  170,  185,  184,   64,   65,   80,   79
  61,  170,  171,  186,  185,   65,   66,   81,   80
  62,  171,  172,  187,  186,   66,   67,   82,   81
  63,  172,  173,  188,  187,   67,   68,   83,   82
  64,  173,  174,  189,  188,   68,   69,   84,   83
  65,  174,  175,  190,  189,   69,   70,   85,   84
  66,  175,  176,  191,  190,   70,   71,   86,   85
  67,  176,  177,  192,  191,   71,   72,   87,   86
  68,  177,  178,  193,  192,   72,   73,   88,   87
  69,  178,  179,  194,  193,   73,   74,   89,   88
  70,  179,  180,  195,  194,   74,   75,   90,   89
  71,  181,  182,  197,  196,   76,   77,   92,   91
  72,  182,  183,  198,  197,   77,   78,   93,   92
  73,  183,  184,  199,  198,   78,   79,   94,   93
  74,  184,  185,  200,  199,   79,   80,   95,   94
  75,  185,  186,  201,  200,   80,   81,   96,   95
  76,  186,  187,  202,  201,   81,   82,   97,   96
  77,  187,  188,  203,  202,   82,   83,   98,   97
  78,  188,  189,  204,  203,   83,   84,   99,   98
  79,  189,  190,  205,  204,   84,   85,  100,   99
  80,  190,  191,  206,  205,   85,   86,  101,  100
  81,  191,  192,  207,  206,   86,   87,  102,  101
  82,  192,  193,  208,  207,   87,   88,  103,  102
  83,  193,  194,  209,  208,   88,   89,  104,  103
  84,  194,  195,  210,  209,   89,   90,  105,  104
  85,  211,  212,  227,  226,  106,  107,  122,  121
  86,  212,  213,  228,  227,  107,  108,  123,  122
  87,  213,  214,  229,  228,  108,  109,  124,  123
  88,  214,  215,  230,  229,  109,  110,  125,  124
  89,  215,  216,  231,  230,  110,  111,  126,  125
  90,  216,  217,  232,  231,  111,  112,  127,  126
  91,  217,  218,  233,  232,  112,  113,  128,  127
  92,  218,  219,  234,  233,  113,  114,  129,  128
  93,  219,  220,  235,  234,  114,  115,  130,  129
  94,  220,  221,  236,  235,  115,  116,  131,  130
  95,  221,  222,  237,  236,  116,  117,  132,  131
  96,  222,  223,  238,  237,  117,  118,  133,  132
  97,  223,  224,  239,  238,  118,  119,  134,  133
  98,  224,  225,  240,  239,  119,  120,  135,  134
  99,  226,  227,  242,  241,  121,  122,  137,  136
 100,  227,  228,  243,  242,  122,  123,  138,  137
 101,  228,  229,  244,  243,  123,  124,  139,  138
 102,  229,  230,  245,  244,  124,  125,  140,  139
 103,  230,  231,  246,  245,  125,  126,  141,  140
 104,  231,  232,  247,  246,  126,  127,  142,  141
 105,  232,  233,  248,  247,  127,  128,  143,  142
 106,  233,  234,  249,  248,  128,  129,  144,  143
 107,  234,  235,  250,  249,  129,  130,  145,  144
 108,  235,  236,  251,  250,  130,  131,  146,  145
 109,  236,  237,  252,  251,  131,  132,  147,  146
 110,  237,  238,  253,  252,  132,  133,  148,  147
 111,  238,  239,  254,  253,  133,  134,  149,  148
 112,  239,  240,  255,  254,  134,  135,  150,  149
 113,  241,  242,  257,  256,  136,  137,  152,  151
 114,  242,  243,  258,  257,  137,  138,  153,  152
 115,  243,  244,  259,  258,  138,  139,  154,  153
 116,  244,  245,  260,  259,  139,  140,  155,  154
 117,  245,  246,  261,  260,  140,  141,  156,  155
 118,  246,  247,  262,  261,  141,  142,  157,  156
 119,  247,  248,  263,  262,  142,  143,  158,  157
 120,  248,  249,  264,  263,  143,  144,  159,  158
 121,  249,  250,  265,  264,  144,  145,  160,  159
 122,  250,  251,  266,  265,  145,  146,  161,  160
 123,  251,  252,  267,  266,  146,  147,  162,  161
 124,  252,  253,  268,  267,  147,  148,  163,  162
 125,  253,  254,  269,  268,  148,  149,  164,  163
 126,  254,  255,  270,  269,  149,  150,  165,  164
 127,  256,  257,  272,  271,  151,  152,  167,  166
 128,  257,  258,  273,  272,  152,  153,  168,  167
 129,  258,  259,  274,  273,  153,  154,  169,  168
 130,  259,  260,  275,  274,  154,  155,  170,  169
 131,  260,  261,  276,  275,  155,  156,  171,  170
 132,  261,  262,  277,  276,  156,  157,  172,  171
 133,  262,  263,  278,  277,  157,  158,  173,  172
 134,  263,  264,  279,  278,  158,  159,  174,  173
 135,  264,  265,  280,  279,  159,  160,  175,  174
 136,  265,  266,  281,  280,  160,  161,  176,  175
 137,  266,  267,  282,  281,  161,  162,  177,  176
 138,  267,  268,  283,  282,  162,  163,  178,  177
 139,  268,  269,  284,  283,  163,  164,  179,  178
 140,  269,  270,  285,  284,  164,  165,  180,  179
 141,  271,  272,  287,  286,  166,  167,  182,  181
 142,  272,  273,  288,  287,  167,  168,  183,  182
 143,  273,  274,  289,  288,  168,  169,  184,  183
 144,  274,  275,  290,  289,  169,  170,  185,  184
 145,  275,  276,  291,  290,  170,  171,  186,  185
 146,  276,  277,  292,  291,  171,  172,  187,  186
 147,  277,  278,  293,  292,  172,  173,  188,  187
 148,  278,  279,  294,  293,  173,  174,  189,  188
 149,  279,  280,  295,  294,  174,  175,  190,  189
 150,  280,  281,  296,  295,  175,  176,  191,  190
 151,  281,  282,  297,  296,  176,  177,  192,  191
 152,  282,  283,  298,  297,  177,  178,  193,  192
 153,  283,  284,  299,  298,  178,  179,  194,  193
 154,  284,  285,  300,  299,  179,  180,  195,  194
 155,  286,  287,  302,  301,  181,  182,  197,  196
 156,  287,  288,  303,  302,  182,  183,  198,  197
 157,  288,  289,  304,  303,  183,  184,  199,  198
 158,  289,  290,  305,  304,  184,  185,  200,  199
 159,  290,  291,  306,  305,  185,  186,  201,  200
 160,  291,  292,  307,  306,  186,  187,  202,  201
 161,  292,  293,  308,  307,  187,  188,  203,  202
 162,  293,  294,  309,  308,  188,  189,  204,  203
 163,  294,  295,  310,  309,  189,  190,  205,  204
 164,  295,  296,  311,  310,  190,  191,  206,  205
 165,  296,  297,  312,  311,  191,  192,  207,  206
 166,  297,  298,  313,  312,  192,  193,  208,  207
 167,  298,  299,  314,  313,  193,  194,  209,  208
 168,  299,  300,  315,  314,  194,  195,  210,  209
 169,  316,  317,  332,  331,  211,  212,  227,  226
 170,  317,  318,  333,  332,  212,  213,  228,  227
 171,  318,  319,  334,  333,  213,  214,  229,  228
 172,  319,  320,  335,  334,  214,  215,  230,  229
 173,  320,  321,  336,  335,  215,  216,  231,  230
 174,  321,  322,  337,  336,  216,  217,  232,  231
 175,  322,  323,  338,  337,  217,  218,  233,  232
 176,  323,  324,  339,  338,  218,  219,  234,  233
 177,  324,  325,  340,  339,  219,  220,  235,  234
 178,  325,  326,  341,  340,  220,  221,  236,  235
 179,  326,  327,  342,  341,  221,  222,  237,  236
 180,  327,  328,  343,  342,  222,  223,  238,  237
 181,  328,  329,  344,  343,  223,  224,  239,  238
 182,  329,  330,  345,  344,  224,  225,  240,  239
 183,  331,  332,  347,  346,  226,  227,  242,  241
 184,  332,  333,  348,  347,  227,  228,  243,  242
 185,  333,  334,  349,  348,  228,  229,  244,  243
 186,  334,  335,  350,  349,  229,  230,  245,  244
 187,  335,  336,  351,  350,  230,  231,  246,  245
 188,  336,  337,  352,  351,  231,  232,  247,  246
 189,  337,  338,  353,  352,  232,  233,  248,  247
 190,  338,  339,  354,  353,  233,  234,  249,  248
 191,  339,  340,  355,  354,  234,  235,  250,  249
 192,  340,  341,  356,  355,  235,  236,  251,  250
 193,  341,  342,  357,  356,  236,  237,  252,  251
 194,  342,  343,  358,  357,  237,  238,  253,  252
 195,  343,  344,  359,  358,  238,  239,  254,  253
 196,  344,  345,  360,  359,  239,  240,  255,  254
 197,  346,  347,  362,  361,  241,  242,  257,  256
 198,  347,  348,  363,  362,  242,  243,  258,  257
 199,  348,  349,  364,  363,  243,  244,  259,  258
 200,  349,  350,  365,  364,  244,  245,  260,  259
 201,  350,  351,  366,  365,  245,  246,  261,  260
 202,  351,  352,  367,  366,  246,  247,  262,  261
 203,  352,  353,  368,  367,  247,  248,  263,  262
 204,  353,  354,  369,  368,  248,  249,  264,  263
 205,  354,  355,  370,  369,  249,  250,  265,  264
 206,  355,  356,  371,  370,  250,  251,  266,  265
 207,  356,  357,  372,  371,  251,  252,  267,  266
 208,  357,  358,  373,  372,  252,  253,  268,  267
 209,  358,  359,  374,  373,  253,  254,  269,  268
 210,  359,  360,  375,  374,  254,  255,  270,  269
 211,  361,  362,  377,  376,  256,  257,  272,  271
 212,  362,  363,  378,  377,  257,  258,  273,  272
 213,  363,  364,  379,  378,  258,  259,  274,  273
 214,  364,  365,  380,  379,  259,  260,  275,  274
 215,  365,  366,  381,  380,  260,  261,  276,  275
 216,  366,  367,  382,  381,  261,  262,  277,  276
 217,  367,  368,  383,  382,  262,  263,  278,  277
 218,  368,  369,  384,  383,  263,  264,  279,  278
 219,  369,  370,  385,  384,  264,  265,  280,  279
 220,  370,  371,  386,  385,  265,  266,  281,  280
 221,  371,  372,  387,  386,  266,  267,  282,  281
 222,  372,  373,  388,  387,  267,  268,  283,  282
 223,  373,  374,  389,  388,  268,  269,  284,  283
 224,  374,  375,  390,  389,  269,  270,  285,  284
 225,  376,  377,  392,  391,  271,  272,  287,  286
 226,  377,  378,  393,  392,  272,  273,  288,  287
 227,  378,  379,  394,  393,  273,  274,  289,  288
 228,  379,  380,  395,  394,  274,  275,  290,  289
 229,  380,  381,  396,  395,  275,  276,  291,  290
 230,  381,  382,  397,  396,  276,  277,  292,  291
 231,  382,  383,  398,  397,  277,  278,  293,  292
 232,  383,  384,  399,  398,  278,  279,  294,  293
 233,  384,  385,  400,  399,  279,  280,  295,  294
 234,  385,  386,  401,  400,  280,  281,  296,  295
 235,  386,  387,  402,  401,  281,  282,  297,  296
 236,  387,  388,  403,  402,  282,  283,  298,  297
 237,  388,  389,  404,  403,  283,  284,  299,  298
 238,  389,  390,  405,  404,  284,  285,  300,  299
 239,  391,  392,  407,  406,  286,  287,  302,  301
 240,  392,  393,  408,  407,  287,  288,  303,  302
 241,  393,  394,  409,  408,  288,  289,  304,  303
 242,  394,  395,  410,  409,  289,  290,  305,  304
 243,  395,  396,  411,  410,  290,  291,  306,  305
 244,  396,  397,  412,  411,  291,  292,  307,  306
 245,  397,  398,  413,  412,  292,  293,  308,  307
 246,  398,  399,  414,  413,  293,  294,  309,  308
 247,  399,  400,  415,  414,  294,  295,  310,  309
 248,  400,  401,  416,  415,  295,  296,  311,  310
 249,  401,  402,  417,  416,  296,  297,  312,  311
 250,  402,  403,  418,  417,  297,  298,  313,  312
 251,  403,  404,  419,  418,  298,  299,  314,  313
 252,  404,  405,  420,  419,  299,  300,  315,  314
 253,  421,  422,  437,  436,  316,  317,  332,  331
 254,  422,  423,  438,  437,  317,  318,  333,  332
 255,  423,  424,  439,  438,  318,  319,  334,  333
 256,  424,  425,  440,  439,  319,  320,  335,  334
 257,  425,  426,  441,  440,  320,  321,  336,  335
 258,  426,  427,  442,  441,  321,  322,  337,  336
 259,  427,  428,  443,  442,  322,  323,  338,  337
 260,  428,  429,  444,  443,  323,  324,  339,  338
 261,  429,  430,  445,  444,  324,  325,  340,  339
 262,  430,  431,  446,  445,  325,  326,  341,  340
 263,  431,  432,  447,  446,  326,  327,  342,  341
 264,  432,  433,  448,  447,  327,  328,  343,  342
 265,  433,  434,  449,  448,  328,  329,  344,  343
 266,  434,  435,  450,  449,  329,  330,  345,  344
 267,  436,  437,  452,  451,  331,  332,  347,  346
 268,  437,  438,  453,  452,  332,  333,  348,  347
 269,  438,  439,  454,  453,  333,  334,  349,  348
 270,  439,  440,  455,  454,  334,  335,  350,  349
 271,  440,  441,  456,  455,  335,  336,  351,  350
 272,  441,  442,  457,  456,  336,  337,  352,  351
 273,  442,  443,  458,  457,  337,  338,  353,  352
 274,  443,  444,  459,  458,  338,  339,  354,  353
 275,  444,  445,  460,  459,  339,  340,  355,  354
 276,  445,  446,  461,  460,  340,  341,  356,  355
 277,  446,  447,  462,  461,  341,  342,  357,  356
 278,  447,  448,  463,  462,  342,  343,  358,  357
 279,  448,  449,  464,  463,  343,  344,  359,  358
 280,  449,  450,  465,  464,  344,  345,  360,  359
 281,  451,  452,  467,  466,  346,  347,  362,  361
 282,  452,  453,  468,  467,  347,  348,  363,  362
 283,  453,  454,  469,  468,  348,  349,  364,  363
 284,  454,  455,  470,  469,  349,  350,  365,  364
 285,  455,  456,  471,  470,  350,  351,  366,  365
 286,  456,  457,  472,  471,  351,  352,  367,  366
 287,  457,  458,  473,  472,  352,  353,  368,  367
 288,  458,  459,  474,  473,  353,  354,  369,  368
 289,  459,  460,  475,  474,  354,  355,  370,  369
 290,  460,  461,  476,  475,  355,  356,  371,  370
 291,  461,  462,  477,  476,  356,  357,  372,  371
 292,  462,  463,  478,  477,  357,  358,  373,  372
 293,  463,  464,  479,  478,  358,  359,  374,  373
 294,  464,  465,  480,  479,  359,  360,  375,  374
 295,  466,  467,  482,  481,  361,  362,  377,  376
 296,  467,  468,  483,  482,  362,  363,  378,  377
 297,  468,  469,  484,  483,  363,  364,  379,  378
 298,  469,  470,  485,  484,  364,  365,  380,  379
 299,  470,  471,  486,  485,  365,  366,  381,  380
 300,  471,  472,  487,  486,  366,  367,  382,  381
 301,  472,  473,  488,  487,  367,  368,  383,  382
 302,  473,  474,  489,  488,  368,  369,  384,  383
 303,  474,  475,  490,  489,  369,  370,  385,  384
 304,  475,  476,  491,  490,  370,  371,  386,  385
 305,  476,  477,  492,  491,  371,  372,  387,  386
 306,  477,  478,  493,  492,  372,  373,  388,  387
 307,  478,  479,  494,  493,  373,  374,  389,  388
 308,  479,  480,  495,  494,  374,  375,  390,  389
 309,  481,  482,  497,  496,  376,  377,  392,  391
 310,  482,  483,  498,  497,  377,  378,  393,  392
 311,  483,  484,  499,  498,  378,  379,  394,  393
 312,  484,  485,  500,  499,  379,  380,  395,  394
 313,  485,  486,  501,  500,  380,  381,  396,  395
 314,  486,  487,  502,  501,  381,  382,  397,  396
 315,  487,  488,  503,  502,  382,  383,  398,  397
 316,  488,  489,  504,  503,  383,  384,  399,  398
 317,  489,  490,  505,  504,  384,  385,  400,  399
 318,  490,  491,  506,  505,  385,  386,  401,  400
 319,  491,  492,  507,  506,  386,  387,  402,  401
 320,  492,  493,  508,  507,  387,  388,  403,  402
 321,  493,  494,  509,  508,  388,  389,  404,  403
 322,  494,  495,  510,  509,  389,  390,  405,  404
 323,  496,  497,  512,  511,  391,  392,  407,  406
 324,  497,  498,  513,  512,  392,  393,  408,  407
 325,  498,  499,  514,  513,  393,  394,  409,  408
 326,  499,  500,  515,  514,  394,  395,  410,  409
 327,  500,  501,  516,  515,  395,  396,  411,  410
 328,  501,  502,  517,  516,  396,  397,  412,  411
 329,  502,  503,  518,  517,  397,  398,  413,  412
 330,  503,  504,  519,  518,  398,  399,  414,  413
 331,  504,  505,  520,  519,  399,  400,  415,  414
 332,  505,  506,  521,  520,  400,  401,  416,  415
 333,  506,  507,  522,  521,  401,  402,  417,  416
 334,  507,  508,  523,  522,  402,  403,  418,  417
 335,  508,  509,  524,  523,  403,  404,  419,  418
 336,  509,  510,  525,  524,  404,  405,  420,  419
 337,  526,  527,  542,  541,  421,  422,  437,  436
 338,  527,  528,  543,  542,  422,  423,  438,  437
 339,  528,  529,  544,  543,  423,  424,  439,  438
 340,  529,  530,  545,  544,  424,  425,  440,  439
 341,  530,  531,  546,  545,  425,  426,  441,  440
 342,  531,  532,  547,  546,  426,  427,  442,  441
 343,  532,  533,  548,  547,  427,  428,  443,  442
 344,  533,  534,  549,  548,  428,  429,  444,  443
 345,  534,  535,  550,  549,  429,  430,  445,  444
 346,  535,  536,  551,  550,  430,  431,  446,  445
 347,  536,  537,  552,  551,  431,  432,  447,  446
 348,  537,  538,  553,  552,  432,  433,  448,  447
 349,  538,  539,  554,  553,  433,  434,  449,  448
 350,  539,  540,  555,  554,  434,  435,  450,  449
 351,  541,  542,  557,  556,  436,  437,  452,  451
 352,  542,  543,  558,  557,  437,  438,  453,  452
 353,  543,  544,  559,  558,  438,  439,  454,  453
 354,  544,  545,  560,  559,  439,  440,  455,  454
 355,  545,  546,  561,  560,  440,  441,  456,  455
 356,  546,  547,  562,  561,  441,  442,  457,  456
 357,  547,  548,  563,  562,  442,  443,  458,  457
 358,  548,  549,  564,  563,  443,  444,  459,  458
 359,  549,  550,  565,  564,  444,  445,  460,  459
 360,  550,  551,  566,  565,  445,  446,  461,  460
 361,  551,  552,  567,  566,  446,  447,  462,  461
 362,  552,  553,  568,  567,  447,  448,  463,  462
 363,  553,  554,  569,  568,  448,  449,  464,  463
 364,  554,  555,  570,  569,  449,  450,  465,  464
 365,  556,  557,  572,  571,  451,  452,  467,  466
 366,  557,  558,  573,  572,  452,  453,  468,  467
 367,  558,  559,  574,  573,  453,  454,  469,  468
 368,  559,  560,  575,  574,  454,  455,  470,  469
 369,  560,  561,  576,  575,  455,  456,  471,  470
 370,  561,  562,  577,  576,  456,  457,  472,  471
 371,  562,  563,  578,  577,  457,  458,  473,  472
 372,  563,  564,  579,  578,  458,  459,  474,  473
 373,  564,  565,  580,  579,  459,  460,  475,  474
 374,  565,  566,  581,  580,  460,  461,  476,  475
 375,  566,  567,  582,  581,  461,  462,  477,  476
 376,  567,  568,  583,  582,  462,  463,  478,  477
 377,  568,  569,  584,  583,  463,  464,  479,  478
 378,  569,  570,  585,  584,  464,  465,  480,  479
 379,  571,  572,  587,  586,  466,  467,  482,  481
 380,  572,  573,  588,  587,  467,  468,  483,  482
 381,  573,  574,  589,  588,  468,  469,  484,  483
 382,  574,  575,  590,  589,  469,  470,  485,  484
 383,  575,  576,  591,  590,  470,  471,  486,  485
 384,  576,  577,  592,  591,  471,  472,  487,  486
 385,  577,  578,  593,  592,  472,  473,  488,  487
 386,  578,  579,  594,  593,  473,  474,  489,  488
 387,  579,  580,  595,  594,  474,  475,  490,  489
 388,  580,  581,  596,  595,  475,  476,  491,  490
 389,  581,  582,  597,  596,  476,  477,  492,  491
 390,  582,  583,  598,  597,  477,  478,  493,  492
 391,  583,  584,  599,  598,  478,  479,  494,  493
 392,  584,  585,  600,  599,  479,  480,  495,  494
 393,  586,  587,  602,  601,  481,  482,  497,  496
 394,  587,  588,  603,  602,  482,  483,  498,  497
 395,  588,  589,  604,  603,  483,  484,  499,  498
 396,  589,  590,  605,  604,  484,  485,  500,  499
 397,  590,  591,  606,  605,  485,  486,  501,  500
 398,  591,  592,  607,  606,  486,  487,  502,  501
 399,  592,  593,  608,  607,  487,  488,  503,  502
 400,  593,  594,  609,  608,  488,  489,  504,  503
 401,  594,  595,  610,  609,  489,  490,  505,  504
 402,  595,  596,  611,  610,  490,  491,  506,  505
 403,  596,  597,  612,  611,  491,  492,  507,  506
 404,  597,  598,  613,  612,  492,  493,  508,  507
 405,  598,  599,  614,  613,  493,  494,  509,  508
 406,  599,  600,  615,  614,  494,  495,  510,  509
 407,  601,  602,  617,  616,  496,  497,  512,  511
 408,  602,  603,  618,  617,  497,  498,  513,  512
 409,  603,  604,  619,  618,  498,  499,  514,  513
 410,  604,  605,  620,  619,  499,  500,  515,  514
 411,  605,  606,  621,  620,  500,  501,  516,  515
 412,  606,  607,  622,  621,  501,  502,  517,  516
 413,  607,  608,  623,  622,  502,  503,  518,  517
 414,  608,  609,  624,  623,  503,  504,  519,  518
 415,  609,  610,  625,  624,  504,  505,  520,  519
 416,  610,  611,  626,  625,  505,  506,  521,  520
 417,  611,  612,  627,  626,  506,  507,  522,  521
 418,  612,  613,  628,  627,  507,  508,  523,  522
 419,  613,  614,  629,  628,  508,  509,  524,  523
 420,  614,  615,  630,  629,  509,  510,  525,  524
 421,  631,  632,  647,  646,  526,  527,  542,  541
 422,  632,  633,  648,  647,  527,  528,  543,  542
 423,  633,  634,  649,  648,  528,  529,  544,  543
 424,  634,  635,  650,  649,  529,  530,  545,  544
 425,  635,  636,  651,  650,  530,  531,  546,  545
 426,  636,  637,  652,  651,  531,  532,  547,  546
 427,  637,  638,  653,  652,  532,  533,  548,  547
 428,  638,  639,  654,  653,  533,  534,  549,  548
 429,  639,  640,  655,  654,  534,  535,  550,  549
 430,  640,  641,  656,  655,  535,  536,  551,  550
 431,  641,  642,  657,  656,  536,  537,  552,  551
 432,  642,  643,  658,  657,  537,  538,  553,  552
 433,  643,  644,  659,  658,  538,  539,  554,  553
 434,  644,  645,  660,  659,  539,  540,  555,  554
 435,  646,  647,  662,  661,  541,  542,  557,  556
 436,  647,  648,  663,  662,  542,  543,  558,  557
 437,  648,  649,  664,  663,  543,  544,  559,  558
 438,  649,  650,  665,  664,  544,  545,  560,  559
 439,  650,  651,  666,  665,  545,  546,  561,  560
 440,  651,  652,  667,  666,  546,  547,  562,  561
 441,  652,  653,  668,  667,  547,  548,  563,  562
 442,  653,  654,  669,  668,  548,  549,  564,  563
 443,  654,  655,  670,  669,  549,  550,  565,  564
 444,  655,  656,  671,  670,  550,  551,  566,  565
 445,  656,  657,  672,  671,  551,  552,  567,  566
 446,  657,  658,  673,  672,  552,  553,  568,  567
 447,  658,  659,  674,  673,  553,  554,  569,  568
 448,  659,  660,  675,  674,  554,  555,  570,  569
 449,  661,  662,  677,  676,  556,  557,  572,  571
 450,  662,  663,  678,  677,  557,  558,  573,  572
 451,  663,  664,  679,  678,  558,  559,  574,  573
 452,  664,  665,  680,  679,  559,  560,  575,  574
 453,  665,  666,  681,  680,  560,  561,  576,  575
 454,  666,  667,  682,  681,  561,  562,  577,  576
 455,  667,  668,  683,  682,  562,  563,  578,  577
 456,  668,  669,  684,  683,  563,  564,  579,  578
 457,  669,  670,  685,  684,  564,  565,  580,  579
 458,  670,  671,  686,  685,  565,  566,  581,  580
 459,  671,  672,  687,  686,  566,  567,  582,  581
 460,  672,  673,  688,  687,  567,  568,  583,  582
 461,  673,  674,  689,  688,  568,  569,  584,  583
 462,  674,  675,  690,  689,  569,  570,  585,  584
 463,  676,  677,  692,  691,  571,  572,  587,  586
 464,  677,  678,  693,  692,  572,  573,  588,  587
 465,  678,  679,  694,  693,  573,  574,  589,  588
 466,  679,  680,  695,  694,  574,  575,  590,  589
 467,  680,  681,  696,  695,  575,  576,  591,  590
 468,  681,  682,  697,  696,  576,  577,  592,  591
 469,  682,  683,  698,  697,  577,  578,  593,  592
 470,  683,  684,  699,  698,  578,  579,  594,  593
 471,  684,  685,  700,  699,  579,  580,  595,  594
 472,  685,  686,  701,  700,  580,  581,  596,  595
 473,  686,  687,  702,  701,  581,  582,  597,  596
 474,  687,  688,  703,  702,  582,  583,  598,  597
 475,  688,  689,  704,  703,  583,  584,  599,  598
 476,  689,  690,  705,  704,  584,  585,  600,  599
 477,  691,  692,  707,  706,  586,  587,  602,  601
 478,  692,  693,  708,  707,  587,  588,  603,  602
 479,  693,  694,  709,  708,  588,  589,  604,  603
 480,  694,  695,  710,  709,  589,  590,  605,  604
 481,  695,  696,  711,  710,  590,  591,  606,  605
 482,  696,  697,  712,  711,  591,  592,  607,  606
 483,  697,  698,  713,  712,  592,  593,  608,  607
 484,  698,  699,  714,  713,  593,  594,  609,  608
 485,  699,  700,  715,  714,  594,  595,  610,  609
 486,  700,  701,  716,  715,  595,  596,  611,  610
 487,  701,  702,  717,  716,  596,  597,  612,  611
 488,  702,  703,  718,  717,  597,  598,  613,  612
 489,  703,  704,  719,  718,  598,  599,  614,  613
 490,  704,  705,  720,  719,  599,  600,  615,  614
 491,  706,  707,  722,  721,  601,  602,  617,  616
 492,  707,  708,  723,  722,  602,  603,  618,  617
 493,  708,  709,  724,  723,  603,  604,  619,  618
 494,  709,  710,  725,  724,  604,  605,  620,  619
 495,  710,  711,  726,  725,  605,  606,  621,  620
 496,  711,  712,  727,  726,  606,  607,  622,  621
 497,  712,  713,  728,  727,  607,  608,  623,  622
 498,  713,  714,  729,  728,  608,  609,  624,  623
 499,  714,  715,  730,  729,  609,  610,  625,  624
 500,  715,  716,  731,  730,  610,  611,  626,  625
 501,  716,  717,  732,  731,  611,  612,  627,  626
 502,  717,  718,  733,  732,  612,  613,  628,  627
 503,  718,  719,  734,  733,  613,  614,  629,  628
 504,  719,  720,  735,  734,  614,  615,  630,  629
 505,  736,  737,  752,  751,  631,  632,  647,  646
 506,  737,  738,  753,  752,  632,  633,  648,  647
 507,  738,  739,  754,  753,  633,  634,  649,  648
 508,  739,  740,  755,  754,  634,  635,  650,  649
 509,  740,  741,  756,  755,  635,  636,  651,  650
 510,  741,  742,  757,  756,  636,  637,  652,  651
 511,  742,  743,  758,  757,  637,  638,  653,  652
 512,  743,  744,  759,  758,  638,  639,  654,  653
 513,  744,  745,  760,  759,  639,  640,  655,  654
 514,  745,  746,  761,  760,  640,  641,  656,  655
 515,  746,  747,  762,  761,  641,  642,  657,  656
 516,  747,  748,  763,  762,  642,  643,  658,  657
 517,  748,  749,  764,  763,  643,  644,  659,  658
 518,  749,  750,  765,  764,  644,  645,  660,  659
 519,  751,  752,  767,  766,  646,  647,  662,  661
 520,  752,  753,  768,  767,  647,  648,  663,  662
 521,  753,  754,  769,  768,  648,  649,  664,  663
 522,  754,  755,  770,  769,  649,  650,  665,  664
 523,  755,  756,  771,  770,  650,  651,  666,  665
 524,  756,  757,  772,  771,  651,  652,  667,  666
 525,  757,  758,  773,  772,  652,  653,  668,  667
 526,  758,  759,  774,  773,  653,  654,  669,  668
 527,  759,  760,  775,  774,  654,  655,  670,  669
 528,  760,  761,  776,  775,  655,  656,  671,  670
 529,  761,  762,  777,  776,  656,  657,  672,  671
 530,  762,  763,  778,  777,  657,  658,  673,  672
 531,  763,  764,  779,  778,  658,  659,  674,  673
 532,  764,  765,  780,  779,  659,  660,  675,  674
 533,  766,  767,  782,  781,  661,  662,  677,  676
 534,  767,  768,  783,  782,  662,  663,  678,  677
 535,  768,  769,  784,  783,  663,  664,  679,  678
 536,  769,  770,  785,  784,  664,  665,  680,  679
 537,  770,  771,  786,  785,  665,  666,  681,  680
 538,  771,  772,  787,  786,  666,  667,  682,  681
 539,  772,  773,  788,  787,  667,  668,  683,  682
 540,  773,  774,  789,  788,  668,  669,  684,  683
 541,  774,  775,  790,  789,  669,  670,  685,  684
 542,  775,  776,  791,  790,  670,  671,  686,  685
 543,  776,  777,  792,  791,  671,  672,  687,  686
 544,  777,  778,  793,  792,  672,  673,  688,  687
 545,  778,  779,  794,  793,  673,  674,  689,  688
 546,  779,  780,  795,  794,  674,  675,  690,  689
 547,  781,  782,  797,  796,  676,  677,  692,  691
 548,  782,  783,  798,  797,  677,  678,  693,  692
 549,  783,  784,  799,  798,  678,  679,  694,  693
 550,  784,  785,  800,  799,  679,  680,  695,  694
 551,  785,  786,  801,  800,  680,  681,  696,  695
 552,  786,  787,  802,  801,  681,  682,  697,  696
 553,  787,  788,  803,  802,  682,  683,  698,  697
 554,  788,  789,  804,  803,  683,  684,  699,  698
 555,  789,  790,  805,  804,  684,  685,  700,  699
 556,  790,  791,  806,  805,  685,  686,  701,  700
 557,  791,  792,  807,  806,  686,  687,  702,  701
 558,  792,  793,  808,  807,  687,  688,  703,  702
 559,  793,  794,  809,  808,  688,  689,  704,  703
 560,  794,  795,  810,  809,  689,  690,  705,  704
 561,  796,  797,  812,  811,  691,  692,  707,  706
 562,  797,  798,  813,  812,  692,  693,  708,  707
 563,  798,  799,  814,  813,  693,  694,  709,  708
 564,  799,  800,  815,  814,  694,  695,  710,  709
 565,  800,  801,  816,  815,  695,  696,  711,  710
 566,  801,  802,  817,  816,  696,  697,  712,  711
 567,  802,  803,  818,  817,  697,  698,  713,  712
 568,  803,  804,  819,  818,  698,  699,  714,  713
 569,  804,  805,  820,  819,  699,  700,  715,  714
 570,  805,  806,  821,  820,  700,  701,  716,  715
 571,  806,  807,  822,  821,  701,  702,  717,  716
 572,  807,  808,  823,  822,  702,  703,  718,  717
 573,  808,  809,  824,  823,  703,  704,  719,  718
 574,  809,  810,  825,  824,  704,  705,  720,  719
 575,  811,  812,  827,  826,  706,  707,  722,  721
 576,  812,  813,  828,  827,  707,  708,  723,  722
 577,  813,  814,  829,  828,  708,  709,  724,  723
 578,  814,  815,  830,  829,  709,  710,  725,  724
 579,  815,  816,  831,  830,  710,  711,  726,  725
 580,  816,  817,  832,  831,  711,  712,  727,  726
 581,  817,  818,  833,  832,  712,  713,  728,  727
 582,  818,  819,  834,  833,  713,  714,  729,  728
 583,  819,  820,  835,  834,  714,  715,  730,  729
 584,  820,  821,  836,  835,  715,  716,  731,  730
 585,  821,  822,  837,  836,  716,  717,  732,  731
 586,  822,  823,  838,  837,  717,  718,  733,  732
 587,  823,  824,  839,  838,  718,  719,  734,  733
 588,  824,  825,  840,  839,  719,  720,  735,  734
 589,  841,  842,  857,  856,  736,  737,  752,  751
 590,  842,  843,  858,  857,  737,  738,  753,  752
 591,  843,  844,  859,  858,  738,  739,  754,  753
 592,  844,  845,  860,  859,  739,  740,  755,  754
 593,  845,  846,  861,  860,  740,  741,  756,  755
 594,  846,  847,  862,  861,  741,  742,  757,  756
 595,  847,  848,  863,  862,  742,  743,  758,  757
 596,  848,  849,  864,  863,  743,  744,  759,  758
 597,  849,  850,  865,  864,  744,  745,  760,  759
 598,  850,  851,  866,  865,  745,  746,  761,  760
 599,  851,  852,  867,  866,  746,  747,  762,  761
 600,  852,  853,  868,  867,  747,  748,  763,  762
 601,  853,  854,  869,  868,  748,  749,  764,  763
 602,  854,  855,  870,  869,  749,  750,  765,  764
 603,  856,  857,  872,  871,  751,  752,  767,  766
 604,  857,  858,  873,  872,  752,  753,  768,  767
 605,  858,  859,  874,  873,  753,  754,  769,  768
 606,  859,  860,  875,  874,  754,  755,  770,  769
 607,  860,  861,  876,  875,  755,  756,  771,  770
 608,  861,  862,  877,  876,  756,  757,  772,  771
 609,  862,  863,  878,  877,  757,  758,  773,  772
 610,  863,  864,  879,  878,  758,  759,  774,  773
 611,  864,  865,  880,  879,  759,  760,  775,  774
 612,  865,  866,  881,  880,  760,  761,  776,  775
 613,  866,  867,  882,  881,  761,  762,  777,  776
 614,  867,  868,  883,  882,  762,  763,  778,  777
 615,  868,  869,  884,  883,  763,  764,  779,  778
 616,  869,  870,  885,  884,  764,  765,  780,  779
 617,  871,  872,  887,  886,  766,  767,  782,  781
 618,  872,  873,  888,  887,  767,  768,  783,  782
 619,  873,  874,  889,  888,  768,  769,  784,  783
 620,  874,  875,  890,  889,  769,  770,  785,  784
 621,  875,  876,  891,  890,  770,  771,  786,  785
 622,  876,  877,  892,  891,  771,  772,  787,  786
 623,  877,  878,  893,  892,  772,  773,  788,  787
 624,  878,  879,  894,  893,  773,  774,  789,  788
 625,  879,  880,  895,  894,  774,  775,  790,  789
 626,  880,  881,  896,  895,  775,  776,  791,  790
 627,  881,  882,  897,  896,  776,  777,  792,  791
 628,  882,  883,  898,  897,  777,  778,  793,  792
 629,  883,  884,  899,  898,  778,  779,  794,  793
 630,  884,  885,  900,  899,  779,  780,  795,  794
 631,  886,  887,  902,  901,  781,  782,  797,  796
 632,  887,  888,  903,  902,  782,  783,  798,  797
 633,  888,  889,  904,  903,  783,  784,  799,  798
 634,  889,  890,  905,  904,  784,  785,  800,  799
 635,  890,  891,  906,  905,  785,  786,  801,  800
 636,  891,  892,  907,  906,  786,  787,  802,  801
 637,  892,  893,  908,  907,  787,  788,  803,  802
 638,  893,  894,  909,  908,  788,  789,  804,  803
 639,  894,  895,  910,  909,  789,  790,  805,  804
 640,  895,  896,  911,  910,  790,  791,  806,  805
 641,  896,  897,  912,  911,  791,  792,  807,  806
 642,  897,  898,  913,  912,  792,  793,  808,  807
 643,  898,  899,  914,  913,  793,  794,  809,  808
 644,  899,  900,  915,  914,  794,  795,  810,  809
 645,  901,  902,  917,  916,  796,  797,  812,  811
 646,  902,  903,  918,  917,  797,  798,  813,  812
 647,  903,  904,  919,  918,  798,  799,  814,  813
 648,  904,  905,  920,  919,  799,  800,  815,  814
 649,  905,  906,  921,  920,  800,  801,  816,  815
 650,  906,  907,  922,  921,  801,  802,  817,  816
 651,  907,  908,  923,  922,  802,  803,  818,  817
 652,  908,  909,  924,  923,  803,  804,  819,  818
 653,  909,  910,  925,  924,  804,  805,  820,  819
 654,  910,  911,  926,  925,  805,  806,  821,  820
 655,  911,  912,  927,  926,  806,  807,  822,  821
 656,  912,  913,  928,  927,  807,  808,  823,  822
 657,  913,  914,  929,  928,  808,  809,  824,  823
 658,  914,  915,  930,  929,  809,  810,  825,  824
 659,  916,  917,  932,  931,  811,  812,  827,  826
 660,  917,  918,  933,  932,  812,  813,  828,  827
 661,  918,  919,  934,  933,  813,  814,  829,  828
 662,  919,  920,  935,  934,  814,  815,  830,  829
 663,  920,  921,  936,  935,  815,  816,  831,  830
 664,  921,  922,  937,  936,  816,  817,  832,  831
 665,  922,  923,  938,  937,  817,  818,  833,  832
 666,  923,  924,  939,  938,  818,  819,  834,  833
 667,  924,  925,  940,  939,  819,  820,  835,  834
 668,  925,  926,  941,  940,  820,  821,  836,  835
 669,  926,  927,  942,  941,  821,  822,  837,  836
 670,  927,  928,  943,  942,  822,  823,  838,  837
 671,  928,  929,  944,  943,  823,  824,  839,  838
 672,  929,  930,  945,  944,  824,  825,  840,  839
 673,  946,  947,  962,  961,  841,  842,  857,  856
 674,  947,  948,  963,  962,  842,  843,  858,  857
 675,  948,  949,  964,  963,  843,  844,  859,  858
 676,  949,  950,  965,  964,  844,  845,  860,  859
 677,  950,  951,  966,  965,  845,  846,  861,  860
 678,  951,  952,  967,  966,  846,  847,  862,  861
 679,  952,  953,  968,  967,  847,  848,  863,  862
 680,  953,  954,  969,  968,  848,  849,  864,  863
 681,  954,  955,  970,  969,  849,  850,  865,  864
 682,  955,  956,  971,  970,  850,  851,  866,  865
 683,  956,  957,  972,  971,  851,  852,  867,  866
 684,  957,  958,  973,  972,  852,  853,  868,  867
 685,  958,  959,  974,  973,  853,  854,  869,  868
 686,  959,  960,  975,  974,  854,  855,  870,  869
 687,  961,  962,  977,  976,  856,  857,  872,  871
 688,  962,  963,  978,  977,  857,  858,  873,  872
 689,  963,  964,  979,  978,  858,  859,  874,  873
 690,  964,  965,  980,  979,  859,  860,  875,  874
 691,  965,  966,  981,  980,  860,  861,  876,  875
 692,  966,  967,  982,  981,  861,  862,  877,  876
 693,  967,  968,  983,  982,  862,  863,  878,  877
 694,  968,  969,  984,  983,  863,  864,  879,  878
 695,  969,  970,  985,  984,  864,  865,  880,  879
 696,  970,  971,  986,  985,  865,  866,  881,  880
 697,  971,  972,  987,  986,  866,  867,  882,  881
 698,  972,  973,  988,  987,  867,  868,  883,  882
 699,  973,  974,  989,  988,  868,  869,  884,  883
 700,  974,  975,  990,  989,  869,  870,  885,  884
 701,  976,  977,  992,  991,  871,  872,  887,  886
 702,  977,  978,  993,  992,  872,  873,  888,  887
 703,  978,  979,  994,  993,  873,  874,  889,  888
 704,  979,  980,  995,  994,  874,  875,  890,  889
 705,  980,  981,  996,  995,  875,  876,  891,  890
 706,  981,  982,  997,  996,  876,  877,  892,  891
 707,  982,  983,  998,  997,  877,  878,  893,  892
 708,  983,  984,  999,  998,  878,  879,  894,  893
 709,  984,  985, 1000,  999,  879,  880,  895,  894
 710,  985,  986, 1001, 1000,  880,  881,  896,  895
 711,  986,  987, 1002, 1001,  881,  882,  897,  896
 712,  987,  988, 1003, 1002,  882,  883,  898,  897
 713,  988,  989, 1004, 1003,  883,  884,  899,  898
 714,  989,  990, 1005, 1004,  884,  885,  900,  899
 715,  991,  992, 1007, 1006,  886,  887,  902,  901
 716,  992,  993, 1008, 1007,  887,  888,  903,  902
 717,  993,  994, 1009, 1008,  888,  889,  904,  903
 718,  994,  995, 1010, 1009,  889,  890,  905,  904
 719,  995,  996, 1011, 1010,  890,  891,  906,  905
 720,  996,  997, 1012, 1011,  891,  892,  907,  906
 721,  997,  998, 1013, 1012,  892,  893,  908,  907
 722,  998,  999, 1014, 1013,  893,  894,  909,  908
 723,  999, 1000, 1015, 1014,  894,  895,  910,  909
 724, 1000, 1001, 1016, 1015,  895,  896,  911,  910
 725, 1001, 1002, 1017, 1016,  896,  897,  912,  911
 726, 1002, 1003, 1018, 1017,  897,  898,  913,  912
 727, 1003, 1004, 1019, 1018,  898,  899,  914,  913
 728, 1004, 1005, 1020, 1019,  899,  900,  915,  914
 729, 1006, 1007, 1022, 1021,  901,  902,  917,  916
 730, 1007, 1008, 1023, 1022,  902,  903,  918,  917
 731, 1008, 1009, 1024, 1023,  903,  904,  919,  918
 732, 1009, 1010, 1025, 1024,  904,  905,  920,  919
 733, 1010, 1011, 1026, 1025,  905,  906,  921,  920
 734, 1011, 1012, 1027, 1026,  906,  907,  922,  921
 735, 1012, 1013, 1028, 1027,  907,  908,  923,  922
 736, 1013, 1014, 1029, 1028,  908,  909,  924,  923
 737, 1014, 1015, 1030, 1029,  909,  910,  925,  924
 738, 1015, 1016, 1031, 1030,  910,  911,  926,  925
 739, 1016, 1017, 1032, 1031,  911,  912,  927,  926
 740, 1017, 1018, 1033, 1032,  912,  913,  928,  927
 741, 1018, 1019, 1034, 1033,  913,  914,  929,  928
 742, 1019, 1020, 1035, 1034,  914,  915,  930,  929
 743, 1021, 1022, 1037, 1036,  916,  917,  932,  931
 744, 1022, 1023, 1038, 1037,  917,  918,  933,  932
 745, 1023, 1024, 1039, 1038,  918,  919,  934,  933
 746, 1024, 1025, 1040, 1039,  919,  920,  935,  934
 747, 1025, 1026, 1041, 1040,  920,  921,  936,  935
 748, 1026, 1027, 1042, 1041,  921,  922,  937,  936
 749, 1027, 1028, 1043, 1042,  922,  923,  938,  937
 750, 1028, 1029, 1044, 1043,  923,  924,  939,  938
 751, 1029, 1030, 1045, 1044,  924,  925,  940,  939
 752, 1030, 1031, 1046, 1045,  925,  926,  941,  940
 753, 1031, 1032, 1047, 1046,  926,  927,  942,  941
 754, 1032, 1033, 1048, 1047,  927,  928,  943,  942
 755, 1033, 1034, 1049, 1048,  928,  929,  944,  943
 756, 1034, 1035, 1050, 1049,  929,  930,  945,  944
 757, 1051, 1052, 1067, 1066,  946,  947,  962,  961
 758, 1052, 1053, 1068, 1067,  947,  948,  963,  962
 759, 1053, 1054, 1069, 1068,  948,  949,  964,  963
 760, 1054, 1055, 1070, 1069,  949,  950,  965,  964
 761, 1055, 1056, 1071, 1070,  950,  951,  966,  965
 762, 1056, 1057, 1072, 1071,  951,  952,  967,  966
 763, 1057, 1058, 1073, 1072,  952,  953,  968,  967
 764, 1058, 1059, 1074, 1073,  953,  954,  969,  968
 765, 1059, 1060, 1075, 1074,  954,  955,  970,  969
 766, 1060, 1061, 1076, 1075,  955,  956,  971,  970
 767, 1061, 1062, 1077, 1076,  956,  957,  972,  971
 768, 1062, 1063, 1078, 1077,  957,  958,  973,  972
 769, 1063, 1064, 1079, 1078,  958,  959,  974,  973
 770, 1064, 1065, 1080, 1079,  959,  960,  975,  974
 771, 1066, 1067, 1082, 1081,  961,  962,  977,  976
 772, 1067, 1068, 1083, 1082,  962,  963,  978,  977
 773, 1068, 1069, 1084, 1083,  963,  964,  979,  978
 774, 1069, 1070, 1085, 1084,  964,  965,  980,  979
 775, 1070, 1071, 1086, 1085,  965,  966,  981,  980
 776, 1071, 1072, 1087, 1086,  966,  967,  982,  981
 777, 1072, 1073, 1088, 1087,  967,  968,  983,  982
 778, 1073, 1074, 1089, 1088,  968,  969,  984,  983
 779, 1074, 1075, 1090, 1089,  969,  970,  985,  984
 780, 1075, 1076, 1091, 1090,  970,  971,  986,  985
 781, 1076, 1077, 1092, 1091,  971,  972,  987,  986
 782, 1077, 1078, 1093, 1092,  972,  973,  988,  987
 783, 1078, 1079, 1094, 1093,  973,  974,  989,  988
 784, 1079, 1080, 1095, 1094,  974,  975,  990,  989
 785, 1081, 1082, 1097, 1096,  976,  977,  992,  991
 786, 1082, 1083, 1098, 1097,  977,  978,  993,  992
 787, 1083, 1084, 1099, 1098,  978,  979,  994,  993
 788, 1084, 1085, 1100, 1099,  979,  980,  995,  994
 789, 1085, 1086, 1101, 1100,  980,  981,  996,  995
 790, 1086, 1087, 1102, 1101,  981,  982,  997,  996
 791, 1087, 1088, 1103, 1102,  982,  983,  998,  997
 792, 1088, 1089, 1104, 1103,  983,  984,  999,  998
 793, 1089, 1090, 1105, 1104,  984,  985, 1000,  999
 794, 1090, 1091, 1106, 1105,  985,  986, 1001, 1000
 795, 1091, 1092, 1107, 1106,  986,  987, 1002, 1001
 796, 1092, 1093, 1108, 1107,  987,  988, 1003, 1002
 797, 1093, 1094, 1109, 1108,  988,  989, 1004, 1003
 798, 1094, 1095, 1110, 1109,  989,  990, 1005, 1004
 799, 1096, 1097, 1112, 1111,  991,  992, 1007, 1006
 800, 1097, 1098, 1113, 1112,  992,  993, 1008, 1007
 801, 1098, 1099, 1114, 1113,  993,  994, 1009, 1008
 802, 1099, 1100, 1115, 1114,  994,  995, 1010, 1009
 803, 1100, 1101, 1116, 1115,  995,  996, 1011, 1010
 804, 1101, 1102, 1117, 1116,  996,  997, 1012, 1011
 805, 1102, 1103, 1118, 1117,  997,  998, 1013, 1012
 806, 1103, 1104, 1119, 1118,  998,  999, 1014, 1013
 807, 1104, 1105, 1120, 1119,  999, 1000, 1015, 1014
 808, 1105, 1106, 1121, 1120, 1000, 1001, 1016, 1015
 809, 1106, 1107, 1122, 1121, 1001, 1002, 1017, 1016
 810, 1107, 1108, 1123, 1122, 1002, 1003, 1018, 1017
 811, 1108, 1109, 1124, 1123, 1003, 1004, 1019, 1018
 812, 1109, 1110, 1125, 1124, 1004, 1005, 1020, 1019
 813, 1111, 1112, 1127, 1126, 1006, 1007, 1022, 1021
 814, 1112, 1113, 1128, 1127, 1007, 1008, 1023, 1022
 815, 1113, 1114, 1129, 1128, 1008, 1009, 1024, 1023
 816, 1114, 1115, 1130, 1129, 1009, 1010, 1025, 1024
 817, 1115, 1116, 1131, 1130, 1010, 1011, 1026, 1025
 818, 1116, 1117, 1132, 1131, 1011, 1012, 1027, 1026
 819, 1117, 1118, 1133, 1132, 1012, 1013, 1028, 1027
 820, 1118, 1119, 1134, 1133, 1013, 1014, 1029, 1028
 821, 1119, 1120, 1135, 1134, 1014, 1015, 1030, 1029
 822, 1120, 1121, 1136, 1135, 1015, 1016, 1031, 1030
 823, 1121, 1122, 1137, 1136, 1016, 1017, 1032, 1031
 824, 1122, 1123, 1138, 1137, 1017, 1018, 1033, 1032
 825, 1123, 1124, 1139, 1138, 1018, 1019, 1034, 1033
 826, 1124, 1125, 1140, 1139, 1019, 1020, 1035, 1034
 827, 1126, 1127, 1142, 1141, 1021, 1022, 1037, 1036
 828, 1127, 1128, 1143, 1142, 1022, 1023, 1038, 1037
 829, 1128, 1129, 1144, 1143, 1023, 1024, 1039, 1038
 830, 1129, 1130, 1145, 1144, 1024, 1025, 1040, 1039
 831, 1130, 1131, 1146, 1145, 1025, 1026, 1041, 1040
 832, 1131, 1132, 1147, 1146, 1026, 1027, 1042, 1041
 833, 1132, 1133, 1148, 1147, 1027, 1028, 1043, 1042
 834, 1133, 1134, 1149, 1148, 1028, 1029, 1044, 1043
 835, 1134, 1135, 1150, 1149, 1029, 1030, 1045, 1044
 836, 1135, 1136, 1151, 1150, 1030, 1031, 1046, 1045
 837, 1136, 1137, 1152, 1151, 1031, 1032, 1047, 1046
 838, 1137, 1138, 1153, 1152, 1032, 1033, 1048, 1047
 839, 1138, 1139, 1154, 1153, 1033, 1034, 1049, 1048
 840, 1139, 1140, 1155, 1154, 1034, 1035, 1050, 1049
 841, 1156, 1157, 1172, 1171, 1051, 1052, 1067, 1066
 842, 1157, 1158, 1173, 1172, 1052, 1053, 1068, 1067
 843, 1158, 1159, 1174, 1173, 1053, 1054, 1069, 1068
 844, 1159, 1160, 1175, 1174, 1054, 1055, 1070, 1069
 845, 1160, 1161, 1176, 1175, 1055, 1056, 1071, 1070
 846, 1161, 1162, 1177, 1176, 1056, 1057, 1072, 1071
 847, 1162, 1163, 1178, 1177, 1057, 1058, 1073, 1072
 848, 1163, 1164, 1179, 1178, 1058, 1059, 1074, 1073
 849, 1164, 1165, 1180, 1179, 1059, 1060, 1075, 1074
 850, 1165, 1166, 1181, 1180, 1060, 1061, 1076, 1075
 851, 1166, 1167, 1182, 1181, 1061, 1062, 1077, 1076
 852, 1167, 1168, 1183, 1182, 1062, 1063, 1078, 1077
 853, 1168, 1169, 1184, 1183, 1063, 1064, 1079, 1078
 854, 1169, 1170, 1185, 1184, 1064, 1065, 1080, 1079
 855, 1171, 1172, 1187, 1186, 1066, 1067, 1082, 1081
 856, 1172, 1173, 1188, 1187, 1067, 1068, 1083, 1082
 857, 1173, 1174, 1189, 1188, 1068, 1069, 1084, 1083
 858, 1174, 1175, 1190, 1189, 1069, 1070, 1085, 1084
 859, 1175, 1176, 1191, 1190, 1070, 1071, 1086, 1085
 860, 1176, 1177, 1192, 1191, 1071, 1072, 1087, 1086
 861, 1177, 1178, 1193, 1192, 1072, 1073, 1088, 1087
 862, 1178, 1179, 1194, 1193, 1073, 1074, 1089, 1088
 863, 1179, 1180, 1195, 1194, 1074, 1075, 1090, 1089
 864, 1180, 1181, 1196, 1195, 1075, 1076, 1091, 1090
 865, 1181, 1182, 1197, 1196, 1076, 1077, 1092, 1091
 866, 1182, 1183, 1198, 1197, 1077, 1078, 1093, 1092
 867, 1183, 1184, 1199, 1198, 1078, 1079, 1094, 1093
 868, 1184, 1185, 1200, 1199, 1079, 1080, 1095, 1094
 869, 1186, 1187, 1202, 1201, 1081, 1082, 1097, 1096
 870, 1187, 1188, 1203, 1202, 1082, 1083, 1098, 1097
 871, 1188, 1189, 1204, 1203, 1083, 1084, 1099, 1098
 872, 1189, 1190, 1205, 1204, 1084, 1085, 1100, 1099
 873, 1190, 1191, 1206, 1205, 1085, 1086, 1101, 1100
 874, 1191, 1192, 1207, 1206, 1086, 1087, 1102, 1101
 875, 1192, 1193, 1208, 1207, 1087, 1088, 1103, 1102
 876, 1193, 1194, 1209, 1208, 1088, 1089, 1104, 1103
 877, 1194, 1195, 1210, 1209, 1089, 1090, 1105, 1104
 878, 1195, 1196, 1211, 1210, 1090, 1091, 1106, 1105
 879, 1196, 1197, 1212, 1211, 1091, 1092, 1107, 1106
 880, 1197, 1198, 1213, 1212, 1092, 1093, 1108, 1107
 881, 1198, 1199, 1214, 1213, 1093, 1094, 1109, 1108
 882, 1199, 1200, 1215, 1214, 1094, 1095, 1110, 1109
 883, 1201, 1202, 1217, 1216, 1096, 1097, 1112, 1111
 884, 1202, 1203, 1218, 1217, 1097, 1098, 1113, 1112
 885, 1203, 1204, 1219, 1218, 1098, 1099, 1114, 1113
 886, 1204, 1205, 1220, 1219, 1099, 1100, 1115, 1114
 887, 1205, 1206, 1221, 1220, 1100, 1101, 1116, 1115
 888, 1206, 1207, 1222, 1221, 1101, 1102, 1117, 1116
 889, 1207, 1208, 1223, 1222, 1102, 1103, 1118, 1117
 890, 1208, 1209, 1224, 1223, 1103, 1104, 1119, 1118
 891, 1209, 1210, 1225, 1224, 1104, 1105, 1120, 1119
 892, 1210, 1211, 1226, 1225, 1105, 1106, 1121, 1120
 893, 1211, 1212, 1227, 1226, 1106, 1107, 1122, 1121
 894, 1212, 1213, 1228, 1227, 1107, 1108, 1123, 1122
 895, 1213, 1214, 1229, 1228, 1108, 1109, 1124, 1123
 896, 1214, 1215, 1230, 1229, 1109, 1110, 1125, 1124
 897, 1216, 1217, 1232, 1231, 1111, 1112, 1127, 1126
 898, 1217, 1218, 1233, 1232, 1112, 1113, 1128, 1127
 899, 1218, 1219, 1234, 1233, 1113, 1114, 1129, 1128
 900, 1219, 1220, 1235, 1234, 1114, 1115, 1130, 1129
 901, 1220, 1221, 1236, 1235, 1115, 1116, 1131, 1130
 902, 1221, 1222, 1237, 1236, 1116, 1117, 1132, 1131
 903, 1222, 1223, 1238, 1237, 1117, 1118, 1133, 1132
 904, 1223, 1224, 1239, 1238, 1118, 1119, 1134, 1133
 905, 1224, 1225, 1240, 1239, 1119, 1120, 1135, 1134
 906, 1225, 1226, 1241, 1240, 1120, 1121, 1136, 1135
 907, 1226, 1227, 1242, 1241, 1121, 1122, 1137, 1136
 908, 1227, 1228, 1243, 1242, 1122, 1123, 1138, 1137
 909, 1228, 1229, 1244, 1243, 1123, 1124, 1139, 1138
 910, 1229, 1230, 1245, 1244, 1124, 1125, 1140, 1139
 911, 1231, 1232, 1247, 1246, 1126, 1127, 1142, 1141
 912, 1232, 1233, 1248, 1247, 1127, 1128, 1143, 1142
 913, 1233, 1234, 1249, 1248, 1128, 1129, 1144, 1143
 914, 1234, 1235, 1250, 1249, 1129, 1130, 1145, 1144
 915, 1235, 1236, 1251, 1250, 1130, 1131, 1146, 1145
 916, 1236, 1237, 1252, 1251, 1131, 1132, 1147, 1146
 917, 1237, 1238, 1253, 1252, 1132, 1133, 1148, 1147
 918, 1238, 1239, 1254, 1253, 1133, 1134, 1149, 1148
 919, 1239, 1240, 1255, 1254, 1134, 1135, 1150, 1149
 920, 1240, 1241, 1256, 1255, 1135, 1136, 1151, 1150
 921, 1241, 1242, 1257, 1256, 1136, 1137, 1152, 1151
 922, 1242, 1243, 1258, 1257, 1137, 1138, 1153, 1152
 923, 1243, 1244, 1259, 1258, 1138, 1139, 1154, 1153
 924, 1244, 1245, 1260, 1259, 1139, 1140, 1155, 1154
 925, 1261, 1262, 1277, 1276, 1156, 1157, 1172, 1171
 926, 1262, 1263, 1278, 1277, 1157, 1158, 1173, 1172
 927, 1263, 1264, 1279, 1278, 1158, 1159, 1174, 1173
 928, 1264, 1265, 1280, 1279, 1159, 1160, 1175, 1174
 929, 1265, 1266, 1281, 1280, 1160, 1161, 1176, 1175
 930, 1266, 1267, 1282, 1281, 1161, 1162, 1177, 1176
 931, 1267, 1268, 1283, 1282, 1162, 1163, 1178, 1177
 932, 1268, 1269, 1284, 1283, 1163, 1164, 1179, 1178
 933, 1269, 1270, 1285, 1284, 1164, 1165, 1180, 1179
 934, 1270, 1271, 1286, 1285, 1165, 1166, 1181, 1180
 935, 1271, 1272, 1287, 1286, 1166, 1167, 1182, 1181
 936, 1272, 1273, 1288, 1287, 1167, 1168, 1183, 1182
 937, 1273, 1274, 1289, 1288, 1168, 1169, 1184, 1183
 938, 1274, 1275, 1290, 1289, 1169, 1170, 1185, 1184
 939, 1276, 1277, 1292, 1291, 1171, 1172, 1187, 1186
 940, 1277, 1278, 1293, 1292, 1172, 1173, 1188, 1187
 941, 1278, 1279, 1294, 1293, 1173, 1174, 1189, 1188
 942, 1279, 1280, 1295, 1294, 1174, 1175, 1190, 1189
 943, 1280, 1281, 1296, 1295, 1175, 1176, 1191, 1190
 944, 1281, 1282, 1297, 1296, 1176, 1177, 1192, 1191
 945, 1282, 1283, 1298, 1297, 1177, 1178, 1193, 1192
 946, 1283, 1284, 1299, 1298, 1178, 1179, 1194, 1193
 947, 1284, 1285, 1300, 1299, 1179, 1180, 1195, 1194
 948, 1285, 1286, 1301, 1300, 1180, 1181, 1196, 1195
 949, 1286, 1287, 1302, 1301, 1181, 1182, 1197, 1196
 950, 1287, 1288, 1303, 1302, 1182, 1183, 1198, 1197
 951, 1288, 1289, 1304, 1303, 1183, 1184, 1199, 1198
 952, 1289, 1290, 1305, 1304, 1184, 1185, 1200, 1199
 953, 1291, 1292, 1307, 1306, 1186, 1187, 1202, 1201
 954, 1292, 1293, 1308, 1307, 1187, 1188, 1203, 1202
 955, 1293, 1294, 1309, 1308, 1188, 1189, 1204, 1203
 956, 1294, 1295, 1310, 1309, 1189, 1190, 1205, 1204
 957, 1295, 1296, 1311, 1310, 1190, 1191, 1206, 1205
 958, 1296, 1297, 1312, 1311, 1191, 1192, 1207, 1206
 959, 1297, 1298, 1313, 1312, 1192, 1193, 1208, 1207
 960, 1298, 1299, 1314, 1313, 1193, 1194, 1209, 1208
 961, 1299, 1300, 1315, 1314, 1194, 1195, 1210, 1209
 962, 1300, 1301, 1316, 1315, 1195, 1196, 1211, 1210
 963, 1301, 1302, 1317, 1316, 1196, 1197, 1212, 1211
 964, 1302, 1303, 1318, 1317, 1197, 1198, 1213, 1212
 965, 1303, 1304, 1319, 1318, 1198, 1199, 1214, 1213
 966, 1304, 1305, 1320, 1319, 1199, 1200, 1215, 1214
 967, 1306, 1307, 1322, 1321, 1201, 1202, 1217, 1216
 968, 1307, 1308, 1323, 1322, 1202, 1203, 1218, 1217
 969, 1308, 1309, 1324, 1323, 1203, 1204, 1219, 1218
 970, 1309, 1310, 1325, 1324, 1204, 1205, 1220, 1219
 971, 1310, 1311, 1326, 1325, 1205, 1206, 1221, 1220
 972, 1311, 1312, 1327, 1326, 1206, 1207, 1222, 1221
 973, 1312, 1313, 1328, 1327, 1207, 1208, 1223, 1222
 974, 1313, 1314, 1329, 1328, 1208, 1209, 1224, 1223
 975, 1314, 1315, 1330, 1329, 1209, 1210, 1225, 1224
 976, 1315, 1316, 1331, 1330, 1210, 1211, 1226, 1225
 977, 1316, 1317, 1332, 1331, 1211, 1212, 1227, 1226
 978, 1317, 1318, 1333, 1332, 1212, 1213, 1228, 1227
 979, 1318, 1319, 1334, 1333, 1213, 1214, 1229, 1228
 980, 1319, 1320, 1335, 1334, 1214, 1215, 1230, 1229
 981, 1321, 1322, 1337, 1336, 1216, 1217, 1232, 1231
 982, 1322, 1323, 1338, 1337, 1217, 1218, 1233, 1232
 983, 1323, 1324, 1339, 1338, 1218, 1219, 1234, 1233
 984, 1324, 1325, 1340, 1339, 1219, 1220, 1235, 1234
 985, 1325, 1326, 1341, 1340, 1220, 1221, 1236, 1235
 986, 1326, 1327, 1342, 1341, 1221, 1222, 1237, 1236
 987, 1327, 1328, 1343, 1342, 1222, 1223, 1238, 1237
 988, 1328, 1329, 1344, 1343, 1223, 1224, 1239, 1238
 989, 1329, 1330, 1345, 1344, 1224, 1225, 1240, 1239
 990, 1330, 1331, 1346, 1345, 1225, 1226, 1241, 1240
 991, 1331, 1332, 1347, 1346, 1226, 1227, 1242, 1241
 992, 1332, 1333, 1348, 1347, 1227, 1228, 1243, 1242
 993, 1333, 1334, 1349, 1348, 1228, 1229, 1244, 1243
 994, 1334, 1335, 1350, 1349, 1229, 1230, 1245, 1244
 995, 1336, 1337, 1352, 1351, 1231, 1232, 1247, 1246
 996, 1337, 1338, 1353, 1352, 1232, 1233, 1248, 1247
 997, 1338, 1339, 1354, 1353, 1233, 1234, 1249, 1248
 998, 1339, 1340, 1355, 1354, 1234, 1235, 1250, 1249
 999, 1340, 1341, 1356, 1355, 1235, 1236, 1251, 1250
1000, 1341, 1342, 1357, 1356, 1236, 1237, 1252, 1251
1001, 1342, 1343, 1358, 1357, 1237, 1238, 1253, 1252
1002, 1343, 1344, 1359, 1358, 1238, 1239, 1254, 1253
1003, 1344, 1345, 1360, 1359, 1239, 1240, 1255, 1254
1004, 1345, 1346, 1361, 1360, 1240, 1241, 1256, 1255
1005, 1346, 1347, 1362, 1361, 1241, 1242, 1257, 1256
1006, 1347, 1348, 1363, 1362, 1242, 1243, 1258, 1257
1007, 1348, 1349, 1364, 1363, 1243, 1244, 1259, 1258
1008, 1349, 1350, 1365, 1364, 1244, 1245, 1260, 1259
1009, 1366, 1367, 1382, 1381, 1261, 1262, 1277, 1276
1010, 1367, 1368, 1383, 1382, 1262, 1263, 1278, 1277
1011, 1368, 1369, 1384, 1383, 1263, 1264, 1279, 1278
1012, 1369, 1370, 1385, 1384, 1264, 1265, 1280, 1279
1013, 1370, 1371, 1386, 1385, 1265, 1266, 1281, 1280
1014, 1371, 1372, 1387, 1386, 1266, 1267, 1282, 1281
1015, 1372, 1373, 1388, 1387, 1267, 1268, 1283, 1282
1016, 1373, 1374, 1389, 1388, 1268, 1269, 1284, 1283
1017, 1374, 1375, 1390, 1389, 1269, 1270, 1285, 1284
1018, 1375, 1376, 1391, 1390, 1270, 1271, 1286, 1285
1019, 1376, 1377, 1392, 1391, 1271, 1272, 1287, 1286
1020, 1377, 1378, 1393, 1392, 1272, 1273, 1288, 1287
1021, 1378, 1379, 1394, 1393, 1273, 1274, 1289, 1288
1022, 1379, 1380, 1395, 1394, 1274, 1275, 1290, 1289
1023, 1381, 1382, 1397, 1396, 1276, 1277, 1292, 1291
1024, 1382, 1383, 1398, 1397, 1277, 1278, 1293, 1292
1025, 1383, 1384, 1399, 1398, 1278, 1279, 1294, 1293
1026, 1384, 1385, 1400, 1399, 1279, 1280, 1295, 1294
1027, 1385, 1386, 1401, 1400, 1280, 1281, 1296, 1295
1028, 1386, 1387, 1402, 1401, 1281, 1282, 1297, 1296
1029, 1387, 1388, 1403, 1402, 1282, 1283, 1298, 1297
1030, 1388, 1389, 1404, 1403, 1283, 1284, 1299, 1298
1031, 1389, 1390, 1405, 1404, 1284, 1285, 1300, 1299
1032, 1390, 1391, 1406, 1405, 1285, 1286, 1301, 1300
1033, 1391, 1392, 1407, 1406, 1286, 1287, 1302, 1301
1034, 1392, 1393, 1408, 1407, 1287, 1288, 1303, 1302
1035, 1393, 1394, 1409, 1408, 1288, 1289, 1304, 1303
1036, 1394, 1395, 1410, 1409, 1289, 1290, 1305, 1304
1037, 1396, 1397, 1412, 1411, 1291, 1292, 1307, 1306
1038, 1397, 1398, 1413, 1412, 1292, 1293, 1308, 1307
1039, 1398, 1399, 1414, 1413, 1293, 1294, 1309, 1308
1040, 1399, 1400, 1415, 1414, 1294, 1295, 1310, 1309
1041, 1400, 1401, 1416, 1415, 1295, 1296, 1311, 1310
1042, 1401, 1402, 1417, 1416, 1296, 1297, 1312, 1311
1043, 1402, 1403, 1418, 1417, 1297, 1298, 1313, 1312
1044, 1403, 1404, 1419, 1418, 1298, 1299, 1314, 1313
1045, 1404, 1405, 1420, 1419, 1299, 1300, 1315, 1314
1046, 1405, 1406, 1421, 1420, 1300, 1301, 1316, 1315
1047, 1406, 1407, 1422, 1421, 1301, 1302, 1317, 1316
1048, 1407, 1408, 1423, 1422, 1302, 1303, 1318, 1317
1049, 1408, 1409, 1424, 1423, 1303, 1304, 1319, 1318
1050, 1409, 1410, 1425, 1424, 1304, 1305, 1320, 1319
1051, 1411, 1412, 1427, 1426, 1306, 1307, 1322, 1321
1052, 1412, 1413, 1428, 1427, 1307, 1308, 1323, 1322
1053, 1413, 1414, 1429, 1428, 1308, 1309, 1324, 1323
1054, 1414, 1415, 1430, 1429, 1309, 1310, 1325, 1324
1055, 1415, 1416, 1431, 1430, 1310, 1311, 1326, 1325
1056, 1416, 1417, 1432, 1431, 1311, 1312, 1327, 1326
1057, 1417, 1418, 1433, 1432, 1312, 1313, 1328, 1327
1058, 1418, 1419, 1434, 1433, 1313, 1314, 1329, 1328
1059, 1419, 1420, 1435, 1434, 1314, 1315, 1330, 1329
1060, 1420, 1421, 1436, 1435, 1315, 1316, 1331, 1330
1061, 1421, 1422, 1437, 1436, 1316, 1317, 1332, 1331
1062, 1422, 1423, 1438, 1437, 1317, 1318, 1333, 1332
1063, 1423, 1424, 1439, 1438, 1318, 1319, 1334, 1333
1064, 1424, 1425, 1440, 1439, 1319, 1320, 1335, 1334
1065, 1426, 1427, 1442, 1441, 1321, 1322, 1337, 1336
1066, 1427, 1428, 1443, 1442, 1322, 1323, 1338, 1337
1067, 1428, 1429, 1444, 1443, 1323, 1324, 1339, 1338
1068, 1429, 1430, 1445, 1444, 1324, 1325, 1340, 1339
1069, 1430, 1431, 1446, 1445, 1325, 1326, 1341, 1340
1070, 1431, 1432, 1447, 1446, 1326, 1327, 1342, 1341
1071, 1432, 1433, 1448, 1447, 1327, 1328, 1343, 1342
1072, 1433, 1434, 1449, 1448, 1328, 1329, 1344, 1343
1073, 1434, 1435, 1450, 1449, 1329, 1330, 1345, 1344
1074, 1435, 1436, 1451, 1450, 1330, 1331, 1346, 1345
1075, 1436, 1437, 1452, 1451, 1331, 1332, 1347, 1346
1076, 1437, 1438, 1453, 1452, 1332, 1333, 1348, 1347
1077, 1438, 1439, 1454, 1453, 1333, 1334, 1349, 1348
1078, 1439, 1440, 1455, 1454, 1334, 1335, 1350, 1349
1079, 1441, 1442, 1457, 1456, 1336, 1337, 1352, 1351
1080, 1442, 1443, 1458, 1457, 1337, 1338, 1353, 1352
1081, 1443, 1444, 1459, 1458, 1338, 1339, 1354, 1353
1082, 1444, 1445, 1460, 1459, 1339, 1340, 1355, 1354
1083, 1445, 1446, 1461, 1460, 1340, 1341, 1356, 1355
1084, 1446, 1447, 1462, 1461, 1341, 1342, 1357, 1356
1085, 1447, 1448, 1463, 1462, 1342, 1343, 1358, 1357
1086, 1448, 1449, 1464, 1463, 1343, 1344, 1359, 1358
1087, 1449, 1450, 1465, 1464, 1344, 1345, 1360, 1359
1088, 1450, 1451, 1466, 1465, 1345, 1346, 1361, 1360
1089, 1451, 1452, 1467, 1466, 1346, 1347, 1362, 1361
1090, 1452, 1453, 1468, 1467, 1347, 1348, 1363, 1362
1091, 1453, 1454, 1469, 1468, 1348, 1349, 1364, 1363
1092, 1454, 1455, 1470, 1469, 1349, 1350, 1365, 1364
1093, 1471, 1472, 1487, 1486, 1366, 1367, 1382, 1381
1094, 1472, 1473, 1488, 1487, 1367, 1368, 1383, 1382
1095, 1473, 1474, 1489, 1488, 1368, 1369, 1384, 1383
1096, 1474, 1475, 1490, 1489, 1369, 1370, 1385, 1384
1097, 1475, 1476, 1491, 1490, 1370, 1371, 1386, 1385
1098, 1476, 1477, 1492, 1491, 1371, 1372, 1387, 1386
1099, 1477, 1478, 1493, 1492, 1372, 1373, 1388, 1387
1100, 1478, 1479, 1494, 1493, 1373, 1374, 1389, 1388
1101, 1479, 1480, 1495, 1494, 1374, 1375, 1390, 1389
1102, 1480, 1481, 1496, 1495, 1375, 1376, 1391, 1390
1103, 1481, 1482, 1497, 1496, 1376, 1377, 1392, 1391
1104, 1482, 1483, 1498, 1497, 1377, 1378, 1393, 1392
1105, 1483, 1484, 1499, 1498, 1378, 1379, 1394, 1393
1106, 1484, 1485, 1500, 1499, 1379, 1380, 1395, 1394
1107, 1486, 1487, 1502, 1501, 1381, 1382, 1397, 1396
1108, 1487, 1488, 1503, 1502, 1382, 1383, 1398, 1397
1109, 1488, 1489, 1504, 1503, 1383, 1384, 1399, 1398
1110, 1489, 1490, 1505, 1504, 1384, 1385, 1400, 1399
1111, 1490, 1491, 1506, 1505, 1385, 1386, 1401, 1400
1112, 1491, 1492, 1507, 1506, 1386, 1387, 1402, 1401
1113, 1492, 1493, 1508, 1507, 1387, 1388, 1403, 1402
1114, 1493, 1494, 1509, 1508, 1388, 1389, 1404, 1403
1115, 1494, 1495, 1510, 1509, 1389, 1390, 1405, 1404
1116, 1495, 1496, 1511, 1510, 1390, 1391, 1406, 1405
1117, 1496, 1497, 1512, 1511, 1391, 1392, 1407, 1406
1118, 1497, 1498, 1513, 1512, 1392, 1393, 1408, 1407
1119, 1498, 1499, 1514, 1513, 1393, 1394, 1409, 1408
1120, 1499, 1500, 1515, 1514, 1394, 1395, 1410, 1409
1121, 1501, 1502, 1517, 1516, 1396, 1397, 1412, 1411
1122, 1502, 1503, 1518, 1517, 1397, 1398, 1413, 1412
1123, 1503, 1504, 1519, 1518, 1398, 1399, 1414, 1413
1124, 1504, 1505, 1520, 1519, 1399, 1400, 1415, 1414
1125, 1505, 1506, 1521, 1520, 1400, 1401, 1416, 1415
1126, 1506, 1507, 1522, 1521, 1401, 1402, 1417, 1416
1127, 1507, 1508, 1523, 1522, 1402, 1403, 1418, 1417
1128, 1508, 1509, 1524, 1523, 1403, 1404, 1419, 1418
1129, 1509, 1510, 1525, 1524, 1404, 1405, 1420, 1419
1130, 1510, 1511, 1526, 1525, 1405, 1406, 1421, 1420
1131, 1511, 1512, 1527, 1526, 1406, 1407, 1422, 1421
1132, 1512, 1513, 1528, 1527, 1407, 1408, 1423, 1422
1133, 1513, 1514, 1529, 1528, 1408, 1409, 1424, 1423
1134, 1514, 1515, 1530, 1529, 1409, 1410, 1425, 1424
1135, 1516, 1517, 1532, 1531, 1411, 1412, 1427, 1426
1136, 1517, 1518, 1533, 1532, 1412, 1413, 1428, 1427
1137, 1518, 1519, 1534, 1533, 1413, 1414, 1429, 1428
1138, 1519, 1520, 1535, 1534, 1414, 1415, 1430, 1429
1139, 1520, 1521, 1536, 1535, 1415, 1416, 1431, 1430
1140, 1521, 1522, 1537, 1536, 1416, 1417, 1432, 1431
1141, 1522, 1523, 1538, 1537, 1417, 1418, 1433, 1432
1142, 1523, 1524, 1539, 1538, 1418, 1419, 1434, 1433
1143, 1524, 1525, 1540, 1539, 1419, 1420, 1435, 1434
1144, 1525, 1526, 1541, 1540, 1420, 1421, 1436, 1435
1145, 1526, 1527, 1542, 1541, 1421, 1422, 1437, 1436
1146, 1527, 1528, 1543, 1542, 1422, 1423, 1438, 1437
1147, 1528, 1529, 1544, 1543, 1423, 1424, 1439, 1438
1148, 1529, 1530, 1545, 1544, 1424, 1425, 1440, 1439
1149, 1531, 1532, 1547, 1546, 1426, 1427, 1442, 1441
1150, 1532, 1533, 1548, 1547, 1427, 1428, 1443, 1442
1151, 1533, 1534, 1549, 1548, 1428, 1429, 1444, 1443
1152, 1534, 1535, 1550, 1549, 1429, 1430, 1445, 1444
1153, 1535, 1536, 1551, 1550, 1430, 1431, 1446, 1445
1154, 1536, 1537, 1552, 1551, 1431, 1432, 1447, 1446
1155, 1537, 1538, 1553, 1552, 1432, 1433, 1448, 1447
1156, 1538, 1539, 1554, 1553, 1433, 1434, 1449, 1448
1157, 1539, 1540, 1555, 1554, 1434, 1435, 1450, 1449
1158, 1540, 1541, 1556, 1555, 1435, 1436, 1451, 1450
1159, 1541, 1542, 1557, 1556, 1436, 1437, 1452, 1451
1160, 1542, 1543, 1558, 1557, 1437, 1438, 1453, 1452
1161, 1543, 1544, 1559, 1558, 1438, 1439, 1454, 1453
1162, 1544, 1545, 1560, 1559, 1439, 1440, 1455, 1454
1163, 1546, 1547, 1562, 1561, 1441, 1442, 1457, 1456
1164, 1547, 1548, 1563, 1562, 1442, 1443, 1458, 1457
1165, 1548, 1549, 1564, 1563, 1443, 1444, 1459, 1458
1166, 1549, 1550, 1565, 1564, 1444, 1445, 1460, 1459
1167, 1550, 1551, 1566, 1565, 1445, 1446, 1461, 1460
1168, 1551, 1552, 1567, 1566, 1446, 1447, 1462, 1461
1169, 1552, 1553, 1568, 1567, 1447, 1448, 1463, 1462
1170, 1553, 1554, 1569, 1568, 1448, 1449, 1464, 1463
1171, 1554, 1555, 1570, 1569, 1449, 1450, 1465, 1464
1172, 1555, 1556, 1571, 1570, 1450, 1451, 1466, 1465
1173, 1556, 1557, 1572, 1571, 1451, 1452, 1467, 1466
1174, 1557, 1558, 1573, 1572, 1452, 1453, 1468, 1467
1175, 1558, 1559, 1574, 1573, 1453, 1454, 1469, 1468
1176, 1559, 1560, 1575, 1574, 1454, 1455, 1470, 1469
1177, 1576, 1577, 1592, 1591, 1471, 1472, 1487, 1486
1178, 1577, 1578, 1593, 1592, 1472, 1473, 1488, 1487
1179, 1578, 1579, 1594, 1593, 1473, 1474, 1489, 1488
1180, 1579, 1580, 1595, 1594, 1474, 1475, 1490, 1489
1181, 1580, 1581, 1596, 1595, 1475, 1476, 1491, 1490
1182, 1581, 1582, 1597, 1596, 1476, 1477, 1492, 1491
1183, 1582, 1583, 1598, 1597, 1477, 1478, 1493, 1492
1184, 1583, 1584, 1599, 1598, 1478, 1479, 1494, 1493
1185, 1584, 1585, 1600, 1599, 1479, 1480, 1495, 1494
1186, 1585, 1586, 1601, 1600, 1480, 1481, 1496, 1495
1187, 1586, 1587, 1602, 1601, 1481, 1482, 1497, 1496
1188, 1587, 1588, 1603, 1602, 1482, 1483, 1498, 1497
1189, 1588, 1589, 1604, 1603, 1483, 1484, 1499, 1498
1190, 1589, 1590, 1605, 1604, 1484, 1485, 1500, 1499
1191, 1591, 1592, 1607, 1606, 1486, 1487, 1502, 1501
1192, 1592, 1593, 1608, 1607, 1487, 1488, 1503, 1502
1193, 1593, 1594, 1609, 1608, 1488, 1489, 1504, 1503
1194, 1594, 1595, 1610, 1609, 1489, 1490, 1505, 1504
1195, 1595, 1596, 1611, 1610, 1490, 1491, 1506, 1505
1196, 1596, 1597, 1612, 1611, 1491, 1492, 1507, 1506
1197, 1597, 1598, 1613, 1612, 1492, 1493, 1508, 1507
1198, 1598, 1599, 1614, 1613, 1493, 1494, 1509, 1508
1199, 1599, 1600, 1615, 1614, 1494, 1495, 1510, 1509
1200, 1600, 1601, 1616, 1615, 1495, 1496, 1511, 1510
1201, 1601, 1602, 1617, 1616, 1496, 1497, 1512, 1511
1202, 1602, 1603, 1618, 1617, 1497, 1498, 1513, 1512
1203, 1603, 1604, 1619, 1618, 1498, 1499, 1514, 1513
1204, 1604, 1605, 1620, 1619, 1499, 1500, 1515, 1514
1205, 1606, 1607, 1622, 1621, 1501, 1502, 1517, 1516
1206, 1607, 1608, 1623, 1622, 1502, 1503, 1518, 1517
1207, 1608, 1609, 1624, 1623, 1503, 1504, 1519, 1518
1208, 1609, 1610, 1625, 1624, 1504, 1505, 1520, 1519
1209, 1610, 1611, 1626, 1625, 1505, 1506, 1521, 1520
1210, 1611, 1612, 1627, 1626, 1506, 1507, 1522, 1521
1211, 1612, 1613, 1628, 1627, 1507, 1508, 1523, 1522
1212, 1613, 1614, 1629, 1628, 1508, 1509, 1524, 1523
1213, 1614, 1615, 1630, 1629, 1509, 1510, 1525, 1524
1214, 1615, 1616, 1631, 1630, 1510, 1511, 1526, 1525
1215, 1616, 1617, 1632, 1631, 1511, 1512, 1527, 1526
1216, 1617, 1618, 1633, 1632, 1512, 1513, 1528, 1527
1217, 1618, 1619, 1634, 1633, 1513, 1514, 1529, 1528
1218, 1619, 1620, 1635, 1634, 1514, 1515, 1530, 1529
1219, 1621, 1622, 1637, 1636, 1516, 1517, 1532, 1531
1220, 1622, 1623, 1638, 1637, 1517, 1518, 1533, 1532
1221, 1623, 1624, 1639, 1638, 1518, 1519, 1534, 1533
1222, 1624, 1625, 1640, 1639, 1519, 1520, 1535, 1534
1223, 1625, 1626, 1641, 1640, 1520, 1521, 1536, 1535
1224, 1626, 1627, 1642, 1641, 1521, 1522, 1537, 1536
1225, 1627, 1628, 1643, 1642, 1522, 1523, 1538, 1537
1226, 1628, 1629, 1644, 1643, 1523, 1524, 1539, 1538
1227, 1629, 1630, 1645, 1644, 1524, 1525, 1540, 1539
1228, 1630, 1631, 1646, 1645, 1525, 1526, 1541, 1540
1229, 1631, 1632, 1647, 1646, 1526, 1527, 1542, 1541
1230, 1632, 1633, 1648, 1647, 1527, 1528, 1543, 1542
1231, 1633, 1634, 1649, 1648, 1528, 1529, 1544, 1543
1232, 1634, 1635, 1650, 1649, 1529, 1530, 1545, 1544
1233, 1636, 1637, 1652, 1651, 1531, 1532, 1547, 1546
1234, 1637, 1638, 1653, 1652, 1532, 1533, 1548, 1547
1235, 1638, 1639, 1654, 1653, 1533, 1534, 1549, 1548
1236, 1639, 1640, 1655, 1654, 1534, 1535, 1550, 1549
1237, 1640, 1641, 1656, 1655, 1535, 1536, 1551, 1550
1238, 1641, 1642, 1657, 1656, 1536, 1537, 1552, 1551
1239, 1642, 1643, 1658, 1657, 1537, 1538, 1553, 1552
1240, 1643, 1644, 1659, 1658, 1538, 1539, 1554, 1553
1241, 1644, 1645, 1660, 1659, 1539, 1540, 1555, 1554
1242, 1645, 1646, 1661, 1660, 1540, 1541, 1556, 1555
1243, 1646, 1647, 1662, 1661, 1541, 1542, 1557, 1556
1244, 1647, 1648, 1663, 1662, 1542, 1543, 1558, 1557
1245, 1648, 1649, 1664, 1663, 1543, 1544, 1559, 1558
1246, 1649, 1650, 1665, 1664, 1544, 1545, 1560, 1559
1247, 1651, 1652, 1667, 1666, 1546, 1547, 1562, 1561
1248, 1652, 1653, 1668, 1667, 1547, 1548, 1563, 1562
1249, 1653, 1654, 1669, 1668, 1548, 1549, 1564, 1563
1250, 1654, 1655, 1670, 1669, 1549, 1550, 1565, 1564
1251, 1655, 1656, 1671, 1670, 1550, 1551, 1566, 1565
1252, 1656, 1657, 1672, 1671, 1551, 1552, 1567, 1566
1253, 1657, 1658, 1673, 1672, 1552, 1553, 1568, 1567
1254, 1658, 1659, 1674, 1673, 1553, 1554, 1569, 1568
1255, 1659, 1660, 1675, 1674, 1554, 1555, 1570, 1569
1256, 1660, 1661, 1676, 1675, 1555, 1556, 1571, 1570
1257, 1661, 1662, 1677, 1676, 1556, 1557, 1572, 1571
1258, 1662, 1663, 1678, 1677, 1557, 1558, 1573, 1572
1259, 1663, 1664, 1679, 1678, 1558, 1559, 1574, 1573
1260, 1664, 1665, 1680, 1679, 1559, 1560, 1575, 1574
*End Part
**  
**
** ASSEMBLY
**
*Assembly, name=Assembly
**  
*Instance, name=Part-1-1, part=Part-1
*End Instance
**  
*End Assembly
