*Heading
** Job name: Plate_T24 Model name: Model-1
** Generated by: Abaqus/CAE 2020
*Preprint, echo=NO, model=NO, history=NO, contact=NO
**
** PARTS
**
*Part, name=Part-1
*Node
      1,          -1.,          -1.,  0.100000001
      2,          -1., -0.941176474,  0.100000001
      3,          -1., -0.882352948,  0.100000001
      4,          -1., -0.823529422,  0.100000001
      5,          -1., -0.764705896,  0.100000001
      6,          -1.,  -0.70588237,  0.100000001
      7,          -1., -0.647058845,  0.100000001
      8,          -1., -0.588235319,  0.100000001
      9,          -1., -0.529411793,  0.100000001
     10,          -1., -0.470588237,  0.100000001
     11,          -1., -0.411764711,  0.100000001
     12,          -1., -0.352941185,  0.100000001
     13,          -1., -0.294117659,  0.100000001
     14,          -1., -0.235294119,  0.100000001
     15,          -1., -0.176470593,  0.100000001
     16,          -1., -0.117647059,  0.100000001
     17,          -1., -0.0588235296,  0.100000001
     18,          -1.,           0.,  0.100000001
     19,          -1., 0.0588235296,  0.100000001
     20,          -1.,  0.117647059,  0.100000001
     21,          -1.,  0.176470593,  0.100000001
     22,          -1.,  0.235294119,  0.100000001
     23,          -1.,  0.294117659,  0.100000001
     24,          -1.,  0.352941185,  0.100000001
     25,          -1.,  0.411764711,  0.100000001
     26,          -1.,  0.470588237,  0.100000001
     27,          -1.,  0.529411793,  0.100000001
     28,          -1.,  0.588235319,  0.100000001
     29,          -1.,  0.647058845,  0.100000001
     30,          -1.,   0.70588237,  0.100000001
     31,          -1.,  0.764705896,  0.100000001
     32,          -1.,  0.823529422,  0.100000001
     33,          -1.,  0.882352948,  0.100000001
     34,          -1.,  0.941176474,  0.100000001
     35,          -1.,           1.,  0.100000001
     36,          -1.,          -1., 0.0833333358
     37,          -1., -0.941176474, 0.0833333358
     38,          -1., -0.882352948, 0.0833333358
     39,          -1., -0.823529422, 0.0833333358
     40,          -1., -0.764705896, 0.0833333358
     41,          -1.,  -0.70588237, 0.0833333358
     42,          -1., -0.647058845, 0.0833333358
     43,          -1., -0.588235319, 0.0833333358
     44,          -1., -0.529411793, 0.0833333358
     45,          -1., -0.470588237, 0.0833333358
     46,          -1., -0.411764711, 0.0833333358
     47,          -1., -0.352941185, 0.0833333358
     48,          -1., -0.294117659, 0.0833333358
     49,          -1., -0.235294119, 0.0833333358
     50,          -1., -0.176470593, 0.0833333358
     51,          -1., -0.117647059, 0.0833333358
     52,          -1., -0.0588235296, 0.0833333358
     53,          -1.,           0., 0.0833333358
     54,          -1., 0.0588235296, 0.0833333358
     55,          -1.,  0.117647059, 0.0833333358
     56,          -1.,  0.176470593, 0.0833333358
     57,          -1.,  0.235294119, 0.0833333358
     58,          -1.,  0.294117659, 0.0833333358
     59,          -1.,  0.352941185, 0.0833333358
     60,          -1.,  0.411764711, 0.0833333358
     61,          -1.,  0.470588237, 0.0833333358
     62,          -1.,  0.529411793, 0.0833333358
     63,          -1.,  0.588235319, 0.0833333358
     64,          -1.,  0.647058845, 0.0833333358
     65,          -1.,   0.70588237, 0.0833333358
     66,          -1.,  0.764705896, 0.0833333358
     67,          -1.,  0.823529422, 0.0833333358
     68,          -1.,  0.882352948, 0.0833333358
     69,          -1.,  0.941176474, 0.0833333358
     70,          -1.,           1., 0.0833333358
     71,          -1.,          -1., 0.0666666701
     72,          -1., -0.941176474, 0.0666666701
     73,          -1., -0.882352948, 0.0666666701
     74,          -1., -0.823529422, 0.0666666701
     75,          -1., -0.764705896, 0.0666666701
     76,          -1.,  -0.70588237, 0.0666666701
     77,          -1., -0.647058845, 0.0666666701
     78,          -1., -0.588235319, 0.0666666701
     79,          -1., -0.529411793, 0.0666666701
     80,          -1., -0.470588237, 0.0666666701
     81,          -1., -0.411764711, 0.0666666701
     82,          -1., -0.352941185, 0.0666666701
     83,          -1., -0.294117659, 0.0666666701
     84,          -1., -0.235294119, 0.0666666701
     85,          -1., -0.176470593, 0.0666666701
     86,          -1., -0.117647059, 0.0666666701
     87,          -1., -0.0588235296, 0.0666666701
     88,          -1.,           0., 0.0666666701
     89,          -1., 0.0588235296, 0.0666666701
     90,          -1.,  0.117647059, 0.0666666701
     91,          -1.,  0.176470593, 0.0666666701
     92,          -1.,  0.235294119, 0.0666666701
     93,          -1.,  0.294117659, 0.0666666701
     94,          -1.,  0.352941185, 0.0666666701
     95,          -1.,  0.411764711, 0.0666666701
     96,          -1.,  0.470588237, 0.0666666701
     97,          -1.,  0.529411793, 0.0666666701
     98,          -1.,  0.588235319, 0.0666666701
     99,          -1.,  0.647058845, 0.0666666701
    100,          -1.,   0.70588237, 0.0666666701
    101,          -1.,  0.764705896, 0.0666666701
    102,          -1.,  0.823529422, 0.0666666701
    103,          -1.,  0.882352948, 0.0666666701
    104,          -1.,  0.941176474, 0.0666666701
    105,          -1.,           1., 0.0666666701
    106,          -1.,          -1., 0.0500000007
    107,          -1., -0.941176474, 0.0500000007
    108,          -1., -0.882352948, 0.0500000007
    109,          -1., -0.823529422, 0.0500000007
    110,          -1., -0.764705896, 0.0500000007
    111,          -1.,  -0.70588237, 0.0500000007
    112,          -1., -0.647058845, 0.0500000007
    113,          -1., -0.588235319, 0.0500000007
    114,          -1., -0.529411793, 0.0500000007
    115,          -1., -0.470588237, 0.0500000007
    116,          -1., -0.411764711, 0.0500000007
    117,          -1., -0.352941185, 0.0500000007
    118,          -1., -0.294117659, 0.0500000007
    119,          -1., -0.235294119, 0.0500000007
    120,          -1., -0.176470593, 0.0500000007
    121,          -1., -0.117647059, 0.0500000007
    122,          -1., -0.0588235296, 0.0500000007
    123,          -1.,           0., 0.0500000007
    124,          -1., 0.0588235296, 0.0500000007
    125,          -1.,  0.117647059, 0.0500000007
    126,          -1.,  0.176470593, 0.0500000007
    127,          -1.,  0.235294119, 0.0500000007
    128,          -1.,  0.294117659, 0.0500000007
    129,          -1.,  0.352941185, 0.0500000007
    130,          -1.,  0.411764711, 0.0500000007
    131,          -1.,  0.470588237, 0.0500000007
    132,          -1.,  0.529411793, 0.0500000007
    133,          -1.,  0.588235319, 0.0500000007
    134,          -1.,  0.647058845, 0.0500000007
    135,          -1.,   0.70588237, 0.0500000007
    136,          -1.,  0.764705896, 0.0500000007
    137,          -1.,  0.823529422, 0.0500000007
    138,          -1.,  0.882352948, 0.0500000007
    139,          -1.,  0.941176474, 0.0500000007
    140,          -1.,           1., 0.0500000007
    141,          -1.,          -1., 0.0333333351
    142,          -1., -0.941176474, 0.0333333351
    143,          -1., -0.882352948, 0.0333333351
    144,          -1., -0.823529422, 0.0333333351
    145,          -1., -0.764705896, 0.0333333351
    146,          -1.,  -0.70588237, 0.0333333351
    147,          -1., -0.647058845, 0.0333333351
    148,          -1., -0.588235319, 0.0333333351
    149,          -1., -0.529411793, 0.0333333351
    150,          -1., -0.470588237, 0.0333333351
    151,          -1., -0.411764711, 0.0333333351
    152,          -1., -0.352941185, 0.0333333351
    153,          -1., -0.294117659, 0.0333333351
    154,          -1., -0.235294119, 0.0333333351
    155,          -1., -0.176470593, 0.0333333351
    156,          -1., -0.117647059, 0.0333333351
    157,          -1., -0.0588235296, 0.0333333351
    158,          -1.,           0., 0.0333333351
    159,          -1., 0.0588235296, 0.0333333351
    160,          -1.,  0.117647059, 0.0333333351
    161,          -1.,  0.176470593, 0.0333333351
    162,          -1.,  0.235294119, 0.0333333351
    163,          -1.,  0.294117659, 0.0333333351
    164,          -1.,  0.352941185, 0.0333333351
    165,          -1.,  0.411764711, 0.0333333351
    166,          -1.,  0.470588237, 0.0333333351
    167,          -1.,  0.529411793, 0.0333333351
    168,          -1.,  0.588235319, 0.0333333351
    169,          -1.,  0.647058845, 0.0333333351
    170,          -1.,   0.70588237, 0.0333333351
    171,          -1.,  0.764705896, 0.0333333351
    172,          -1.,  0.823529422, 0.0333333351
    173,          -1.,  0.882352948, 0.0333333351
    174,          -1.,  0.941176474, 0.0333333351
    175,          -1.,           1., 0.0333333351
    176,          -1.,          -1., 0.0166666675
    177,          -1., -0.941176474, 0.0166666675
    178,          -1., -0.882352948, 0.0166666675
    179,          -1., -0.823529422, 0.0166666675
    180,          -1., -0.764705896, 0.0166666675
    181,          -1.,  -0.70588237, 0.0166666675
    182,          -1., -0.647058845, 0.0166666675
    183,          -1., -0.588235319, 0.0166666675
    184,          -1., -0.529411793, 0.0166666675
    185,          -1., -0.470588237, 0.0166666675
    186,          -1., -0.411764711, 0.0166666675
    187,          -1., -0.352941185, 0.0166666675
    188,          -1., -0.294117659, 0.0166666675
    189,          -1., -0.235294119, 0.0166666675
    190,          -1., -0.176470593, 0.0166666675
    191,          -1., -0.117647059, 0.0166666675
    192,          -1., -0.0588235296, 0.0166666675
    193,          -1.,           0., 0.0166666675
    194,          -1., 0.0588235296, 0.0166666675
    195,          -1.,  0.117647059, 0.0166666675
    196,          -1.,  0.176470593, 0.0166666675
    197,          -1.,  0.235294119, 0.0166666675
    198,          -1.,  0.294117659, 0.0166666675
    199,          -1.,  0.352941185, 0.0166666675
    200,          -1.,  0.411764711, 0.0166666675
    201,          -1.,  0.470588237, 0.0166666675
    202,          -1.,  0.529411793, 0.0166666675
    203,          -1.,  0.588235319, 0.0166666675
    204,          -1.,  0.647058845, 0.0166666675
    205,          -1.,   0.70588237, 0.0166666675
    206,          -1.,  0.764705896, 0.0166666675
    207,          -1.,  0.823529422, 0.0166666675
    208,          -1.,  0.882352948, 0.0166666675
    209,          -1.,  0.941176474, 0.0166666675
    210,          -1.,           1., 0.0166666675
    211,          -1.,          -1.,           0.
    212,          -1., -0.941176474,           0.
    213,          -1., -0.882352948,           0.
    214,          -1., -0.823529422,           0.
    215,          -1., -0.764705896,           0.
    216,          -1.,  -0.70588237,           0.
    217,          -1., -0.647058845,           0.
    218,          -1., -0.588235319,           0.
    219,          -1., -0.529411793,           0.
    220,          -1., -0.470588237,           0.
    221,          -1., -0.411764711,           0.
    222,          -1., -0.352941185,           0.
    223,          -1., -0.294117659,           0.
    224,          -1., -0.235294119,           0.
    225,          -1., -0.176470593,           0.
    226,          -1., -0.117647059,           0.
    227,          -1., -0.0588235296,           0.
    228,          -1.,           0.,           0.
    229,          -1., 0.0588235296,           0.
    230,          -1.,  0.117647059,           0.
    231,          -1.,  0.176470593,           0.
    232,          -1.,  0.235294119,           0.
    233,          -1.,  0.294117659,           0.
    234,          -1.,  0.352941185,           0.
    235,          -1.,  0.411764711,           0.
    236,          -1.,  0.470588237,           0.
    237,          -1.,  0.529411793,           0.
    238,          -1.,  0.588235319,           0.
    239,          -1.,  0.647058845,           0.
    240,          -1.,   0.70588237,           0.
    241,          -1.,  0.764705896,           0.
    242,          -1.,  0.823529422,           0.
    243,          -1.,  0.882352948,           0.
    244,          -1.,  0.941176474,           0.
    245,          -1.,           1.,           0.
    246, -0.942857146,          -1.,  0.100000001
    247, -0.942857146, -0.941176474,  0.100000001
    248, -0.942857146, -0.882352948,  0.100000001
    249, -0.942857146, -0.823529422,  0.100000001
    250, -0.942857146, -0.764705896,  0.100000001
    251, -0.942857146,  -0.70588237,  0.100000001
    252, -0.942857146, -0.647058845,  0.100000001
    253, -0.942857146, -0.588235319,  0.100000001
    254, -0.942857146, -0.529411793,  0.100000001
    255, -0.942857146, -0.470588237,  0.100000001
    256, -0.942857146, -0.411764711,  0.100000001
    257, -0.942857146, -0.352941185,  0.100000001
    258, -0.942857146, -0.294117659,  0.100000001
    259, -0.942857146, -0.235294119,  0.100000001
    260, -0.942857146, -0.176470593,  0.100000001
    261, -0.942857146, -0.117647059,  0.100000001
    262, -0.942857146, -0.0588235296,  0.100000001
    263, -0.942857146,           0.,  0.100000001
    264, -0.942857146, 0.0588235296,  0.100000001
    265, -0.942857146,  0.117647059,  0.100000001
    266, -0.942857146,  0.176470593,  0.100000001
    267, -0.942857146,  0.235294119,  0.100000001
    268, -0.942857146,  0.294117659,  0.100000001
    269, -0.942857146,  0.352941185,  0.100000001
    270, -0.942857146,  0.411764711,  0.100000001
    271, -0.942857146,  0.470588237,  0.100000001
    272, -0.942857146,  0.529411793,  0.100000001
    273, -0.942857146,  0.588235319,  0.100000001
    274, -0.942857146,  0.647058845,  0.100000001
    275, -0.942857146,   0.70588237,  0.100000001
    276, -0.942857146,  0.764705896,  0.100000001
    277, -0.942857146,  0.823529422,  0.100000001
    278, -0.942857146,  0.882352948,  0.100000001
    279, -0.942857146,  0.941176474,  0.100000001
    280, -0.942857146,           1.,  0.100000001
    281, -0.942857146,          -1., 0.0833333358
    282, -0.942857146, -0.941176474, 0.0833333358
    283, -0.942857146, -0.882352948, 0.0833333358
    284, -0.942857146, -0.823529422, 0.0833333358
    285, -0.942857146, -0.764705896, 0.0833333358
    286, -0.942857146,  -0.70588237, 0.0833333358
    287, -0.942857146, -0.647058845, 0.0833333358
    288, -0.942857146, -0.588235319, 0.0833333358
    289, -0.942857146, -0.529411793, 0.0833333358
    290, -0.942857146, -0.470588237, 0.0833333358
    291, -0.942857146, -0.411764711, 0.0833333358
    292, -0.942857146, -0.352941185, 0.0833333358
    293, -0.942857146, -0.294117659, 0.0833333358
    294, -0.942857146, -0.235294119, 0.0833333358
    295, -0.942857146, -0.176470593, 0.0833333358
    296, -0.942857146, -0.117647059, 0.0833333358
    297, -0.942857146, -0.0588235296, 0.0833333358
    298, -0.942857146,           0., 0.0833333358
    299, -0.942857146, 0.0588235296, 0.0833333358
    300, -0.942857146,  0.117647059, 0.0833333358
    301, -0.942857146,  0.176470593, 0.0833333358
    302, -0.942857146,  0.235294119, 0.0833333358
    303, -0.942857146,  0.294117659, 0.0833333358
    304, -0.942857146,  0.352941185, 0.0833333358
    305, -0.942857146,  0.411764711, 0.0833333358
    306, -0.942857146,  0.470588237, 0.0833333358
    307, -0.942857146,  0.529411793, 0.0833333358
    308, -0.942857146,  0.588235319, 0.0833333358
    309, -0.942857146,  0.647058845, 0.0833333358
    310, -0.942857146,   0.70588237, 0.0833333358
    311, -0.942857146,  0.764705896, 0.0833333358
    312, -0.942857146,  0.823529422, 0.0833333358
    313, -0.942857146,  0.882352948, 0.0833333358
    314, -0.942857146,  0.941176474, 0.0833333358
    315, -0.942857146,           1., 0.0833333358
    316, -0.942857146,          -1., 0.0666666701
    317, -0.942857146, -0.941176474, 0.0666666701
    318, -0.942857146, -0.882352948, 0.0666666701
    319, -0.942857146, -0.823529422, 0.0666666701
    320, -0.942857146, -0.764705896, 0.0666666701
    321, -0.942857146,  -0.70588237, 0.0666666701
    322, -0.942857146, -0.647058845, 0.0666666701
    323, -0.942857146, -0.588235319, 0.0666666701
    324, -0.942857146, -0.529411793, 0.0666666701
    325, -0.942857146, -0.470588237, 0.0666666701
    326, -0.942857146, -0.411764711, 0.0666666701
    327, -0.942857146, -0.352941185, 0.0666666701
    328, -0.942857146, -0.294117659, 0.0666666701
    329, -0.942857146, -0.235294119, 0.0666666701
    330, -0.942857146, -0.176470593, 0.0666666701
    331, -0.942857146, -0.117647059, 0.0666666701
    332, -0.942857146, -0.0588235296, 0.0666666701
    333, -0.942857146,           0., 0.0666666701
    334, -0.942857146, 0.0588235296, 0.0666666701
    335, -0.942857146,  0.117647059, 0.0666666701
    336, -0.942857146,  0.176470593, 0.0666666701
    337, -0.942857146,  0.235294119, 0.0666666701
    338, -0.942857146,  0.294117659, 0.0666666701
    339, -0.942857146,  0.352941185, 0.0666666701
    340, -0.942857146,  0.411764711, 0.0666666701
    341, -0.942857146,  0.470588237, 0.0666666701
    342, -0.942857146,  0.529411793, 0.0666666701
    343, -0.942857146,  0.588235319, 0.0666666701
    344, -0.942857146,  0.647058845, 0.0666666701
    345, -0.942857146,   0.70588237, 0.0666666701
    346, -0.942857146,  0.764705896, 0.0666666701
    347, -0.942857146,  0.823529422, 0.0666666701
    348, -0.942857146,  0.882352948, 0.0666666701
    349, -0.942857146,  0.941176474, 0.0666666701
    350, -0.942857146,           1., 0.0666666701
    351, -0.942857146,          -1., 0.0500000007
    352, -0.942857146, -0.941176474, 0.0500000007
    353, -0.942857146, -0.882352948, 0.0500000007
    354, -0.942857146, -0.823529422, 0.0500000007
    355, -0.942857146, -0.764705896, 0.0500000007
    356, -0.942857146,  -0.70588237, 0.0500000007
    357, -0.942857146, -0.647058845, 0.0500000007
    358, -0.942857146, -0.588235319, 0.0500000007
    359, -0.942857146, -0.529411793, 0.0500000007
    360, -0.942857146, -0.470588237, 0.0500000007
    361, -0.942857146, -0.411764711, 0.0500000007
    362, -0.942857146, -0.352941185, 0.0500000007
    363, -0.942857146, -0.294117659, 0.0500000007
    364, -0.942857146, -0.235294119, 0.0500000007
    365, -0.942857146, -0.176470593, 0.0500000007
    366, -0.942857146, -0.117647059, 0.0500000007
    367, -0.942857146, -0.0588235296, 0.0500000007
    368, -0.942857146,           0., 0.0500000007
    369, -0.942857146, 0.0588235296, 0.0500000007
    370, -0.942857146,  0.117647059, 0.0500000007
    371, -0.942857146,  0.176470593, 0.0500000007
    372, -0.942857146,  0.235294119, 0.0500000007
    373, -0.942857146,  0.294117659, 0.0500000007
    374, -0.942857146,  0.352941185, 0.0500000007
    375, -0.942857146,  0.411764711, 0.0500000007
    376, -0.942857146,  0.470588237, 0.0500000007
    377, -0.942857146,  0.529411793, 0.0500000007
    378, -0.942857146,  0.588235319, 0.0500000007
    379, -0.942857146,  0.647058845, 0.0500000007
    380, -0.942857146,   0.70588237, 0.0500000007
    381, -0.942857146,  0.764705896, 0.0500000007
    382, -0.942857146,  0.823529422, 0.0500000007
    383, -0.942857146,  0.882352948, 0.0500000007
    384, -0.942857146,  0.941176474, 0.0500000007
    385, -0.942857146,           1., 0.0500000007
    386, -0.942857146,          -1., 0.0333333351
    387, -0.942857146, -0.941176474, 0.0333333351
    388, -0.942857146, -0.882352948, 0.0333333351
    389, -0.942857146, -0.823529422, 0.0333333351
    390, -0.942857146, -0.764705896, 0.0333333351
    391, -0.942857146,  -0.70588237, 0.0333333351
    392, -0.942857146, -0.647058845, 0.0333333351
    393, -0.942857146, -0.588235319, 0.0333333351
    394, -0.942857146, -0.529411793, 0.0333333351
    395, -0.942857146, -0.470588237, 0.0333333351
    396, -0.942857146, -0.411764711, 0.0333333351
    397, -0.942857146, -0.352941185, 0.0333333351
    398, -0.942857146, -0.294117659, 0.0333333351
    399, -0.942857146, -0.235294119, 0.0333333351
    400, -0.942857146, -0.176470593, 0.0333333351
    401, -0.942857146, -0.117647059, 0.0333333351
    402, -0.942857146, -0.0588235296, 0.0333333351
    403, -0.942857146,           0., 0.0333333351
    404, -0.942857146, 0.0588235296, 0.0333333351
    405, -0.942857146,  0.117647059, 0.0333333351
    406, -0.942857146,  0.176470593, 0.0333333351
    407, -0.942857146,  0.235294119, 0.0333333351
    408, -0.942857146,  0.294117659, 0.0333333351
    409, -0.942857146,  0.352941185, 0.0333333351
    410, -0.942857146,  0.411764711, 0.0333333351
    411, -0.942857146,  0.470588237, 0.0333333351
    412, -0.942857146,  0.529411793, 0.0333333351
    413, -0.942857146,  0.588235319, 0.0333333351
    414, -0.942857146,  0.647058845, 0.0333333351
    415, -0.942857146,   0.70588237, 0.0333333351
    416, -0.942857146,  0.764705896, 0.0333333351
    417, -0.942857146,  0.823529422, 0.0333333351
    418, -0.942857146,  0.882352948, 0.0333333351
    419, -0.942857146,  0.941176474, 0.0333333351
    420, -0.942857146,           1., 0.0333333351
    421, -0.942857146,          -1., 0.0166666675
    422, -0.942857146, -0.941176474, 0.0166666675
    423, -0.942857146, -0.882352948, 0.0166666675
    424, -0.942857146, -0.823529422, 0.0166666675
    425, -0.942857146, -0.764705896, 0.0166666675
    426, -0.942857146,  -0.70588237, 0.0166666675
    427, -0.942857146, -0.647058845, 0.0166666675
    428, -0.942857146, -0.588235319, 0.0166666675
    429, -0.942857146, -0.529411793, 0.0166666675
    430, -0.942857146, -0.470588237, 0.0166666675
    431, -0.942857146, -0.411764711, 0.0166666675
    432, -0.942857146, -0.352941185, 0.0166666675
    433, -0.942857146, -0.294117659, 0.0166666675
    434, -0.942857146, -0.235294119, 0.0166666675
    435, -0.942857146, -0.176470593, 0.0166666675
    436, -0.942857146, -0.117647059, 0.0166666675
    437, -0.942857146, -0.0588235296, 0.0166666675
    438, -0.942857146,           0., 0.0166666675
    439, -0.942857146, 0.0588235296, 0.0166666675
    440, -0.942857146,  0.117647059, 0.0166666675
    441, -0.942857146,  0.176470593, 0.0166666675
    442, -0.942857146,  0.235294119, 0.0166666675
    443, -0.942857146,  0.294117659, 0.0166666675
    444, -0.942857146,  0.352941185, 0.0166666675
    445, -0.942857146,  0.411764711, 0.0166666675
    446, -0.942857146,  0.470588237, 0.0166666675
    447, -0.942857146,  0.529411793, 0.0166666675
    448, -0.942857146,  0.588235319, 0.0166666675
    449, -0.942857146,  0.647058845, 0.0166666675
    450, -0.942857146,   0.70588237, 0.0166666675
    451, -0.942857146,  0.764705896, 0.0166666675
    452, -0.942857146,  0.823529422, 0.0166666675
    453, -0.942857146,  0.882352948, 0.0166666675
    454, -0.942857146,  0.941176474, 0.0166666675
    455, -0.942857146,           1., 0.0166666675
    456, -0.942857146,          -1.,           0.
    457, -0.942857146, -0.941176474,           0.
    458, -0.942857146, -0.882352948,           0.
    459, -0.942857146, -0.823529422,           0.
    460, -0.942857146, -0.764705896,           0.
    461, -0.942857146,  -0.70588237,           0.
    462, -0.942857146, -0.647058845,           0.
    463, -0.942857146, -0.588235319,           0.
    464, -0.942857146, -0.529411793,           0.
    465, -0.942857146, -0.470588237,           0.
    466, -0.942857146, -0.411764711,           0.
    467, -0.942857146, -0.352941185,           0.
    468, -0.942857146, -0.294117659,           0.
    469, -0.942857146, -0.235294119,           0.
    470, -0.942857146, -0.176470593,           0.
    471, -0.942857146, -0.117647059,           0.
    472, -0.942857146, -0.0588235296,           0.
    473, -0.942857146,           0.,           0.
    474, -0.942857146, 0.0588235296,           0.
    475, -0.942857146,  0.117647059,           0.
    476, -0.942857146,  0.176470593,           0.
    477, -0.942857146,  0.235294119,           0.
    478, -0.942857146,  0.294117659,           0.
    479, -0.942857146,  0.352941185,           0.
    480, -0.942857146,  0.411764711,           0.
    481, -0.942857146,  0.470588237,           0.
    482, -0.942857146,  0.529411793,           0.
    483, -0.942857146,  0.588235319,           0.
    484, -0.942857146,  0.647058845,           0.
    485, -0.942857146,   0.70588237,           0.
    486, -0.942857146,  0.764705896,           0.
    487, -0.942857146,  0.823529422,           0.
    488, -0.942857146,  0.882352948,           0.
    489, -0.942857146,  0.941176474,           0.
    490, -0.942857146,           1.,           0.
    491, -0.885714293,          -1.,  0.100000001
    492, -0.885714293, -0.941176474,  0.100000001
    493, -0.885714293, -0.882352948,  0.100000001
    494, -0.885714293, -0.823529422,  0.100000001
    495, -0.885714293, -0.764705896,  0.100000001
    496, -0.885714293,  -0.70588237,  0.100000001
    497, -0.885714293, -0.647058845,  0.100000001
    498, -0.885714293, -0.588235319,  0.100000001
    499, -0.885714293, -0.529411793,  0.100000001
    500, -0.885714293, -0.470588237,  0.100000001
    501, -0.885714293, -0.411764711,  0.100000001
    502, -0.885714293, -0.352941185,  0.100000001
    503, -0.885714293, -0.294117659,  0.100000001
    504, -0.885714293, -0.235294119,  0.100000001
    505, -0.885714293, -0.176470593,  0.100000001
    506, -0.885714293, -0.117647059,  0.100000001
    507, -0.885714293, -0.0588235296,  0.100000001
    508, -0.885714293,           0.,  0.100000001
    509, -0.885714293, 0.0588235296,  0.100000001
    510, -0.885714293,  0.117647059,  0.100000001
    511, -0.885714293,  0.176470593,  0.100000001
    512, -0.885714293,  0.235294119,  0.100000001
    513, -0.885714293,  0.294117659,  0.100000001
    514, -0.885714293,  0.352941185,  0.100000001
    515, -0.885714293,  0.411764711,  0.100000001
    516, -0.885714293,  0.470588237,  0.100000001
    517, -0.885714293,  0.529411793,  0.100000001
    518, -0.885714293,  0.588235319,  0.100000001
    519, -0.885714293,  0.647058845,  0.100000001
    520, -0.885714293,   0.70588237,  0.100000001
    521, -0.885714293,  0.764705896,  0.100000001
    522, -0.885714293,  0.823529422,  0.100000001
    523, -0.885714293,  0.882352948,  0.100000001
    524, -0.885714293,  0.941176474,  0.100000001
    525, -0.885714293,           1.,  0.100000001
    526, -0.885714293,          -1., 0.0833333358
    527, -0.885714293, -0.941176474, 0.0833333358
    528, -0.885714293, -0.882352948, 0.0833333358
    529, -0.885714293, -0.823529422, 0.0833333358
    530, -0.885714293, -0.764705896, 0.0833333358
    531, -0.885714293,  -0.70588237, 0.0833333358
    532, -0.885714293, -0.647058845, 0.0833333358
    533, -0.885714293, -0.588235319, 0.0833333358
    534, -0.885714293, -0.529411793, 0.0833333358
    535, -0.885714293, -0.470588237, 0.0833333358
    536, -0.885714293, -0.411764711, 0.0833333358
    537, -0.885714293, -0.352941185, 0.0833333358
    538, -0.885714293, -0.294117659, 0.0833333358
    539, -0.885714293, -0.235294119, 0.0833333358
    540, -0.885714293, -0.176470593, 0.0833333358
    541, -0.885714293, -0.117647059, 0.0833333358
    542, -0.885714293, -0.0588235296, 0.0833333358
    543, -0.885714293,           0., 0.0833333358
    544, -0.885714293, 0.0588235296, 0.0833333358
    545, -0.885714293,  0.117647059, 0.0833333358
    546, -0.885714293,  0.176470593, 0.0833333358
    547, -0.885714293,  0.235294119, 0.0833333358
    548, -0.885714293,  0.294117659, 0.0833333358
    549, -0.885714293,  0.352941185, 0.0833333358
    550, -0.885714293,  0.411764711, 0.0833333358
    551, -0.885714293,  0.470588237, 0.0833333358
    552, -0.885714293,  0.529411793, 0.0833333358
    553, -0.885714293,  0.588235319, 0.0833333358
    554, -0.885714293,  0.647058845, 0.0833333358
    555, -0.885714293,   0.70588237, 0.0833333358
    556, -0.885714293,  0.764705896, 0.0833333358
    557, -0.885714293,  0.823529422, 0.0833333358
    558, -0.885714293,  0.882352948, 0.0833333358
    559, -0.885714293,  0.941176474, 0.0833333358
    560, -0.885714293,           1., 0.0833333358
    561, -0.885714293,          -1., 0.0666666701
    562, -0.885714293, -0.941176474, 0.0666666701
    563, -0.885714293, -0.882352948, 0.0666666701
    564, -0.885714293, -0.823529422, 0.0666666701
    565, -0.885714293, -0.764705896, 0.0666666701
    566, -0.885714293,  -0.70588237, 0.0666666701
    567, -0.885714293, -0.647058845, 0.0666666701
    568, -0.885714293, -0.588235319, 0.0666666701
    569, -0.885714293, -0.529411793, 0.0666666701
    570, -0.885714293, -0.470588237, 0.0666666701
    571, -0.885714293, -0.411764711, 0.0666666701
    572, -0.885714293, -0.352941185, 0.0666666701
    573, -0.885714293, -0.294117659, 0.0666666701
    574, -0.885714293, -0.235294119, 0.0666666701
    575, -0.885714293, -0.176470593, 0.0666666701
    576, -0.885714293, -0.117647059, 0.0666666701
    577, -0.885714293, -0.0588235296, 0.0666666701
    578, -0.885714293,           0., 0.0666666701
    579, -0.885714293, 0.0588235296, 0.0666666701
    580, -0.885714293,  0.117647059, 0.0666666701
    581, -0.885714293,  0.176470593, 0.0666666701
    582, -0.885714293,  0.235294119, 0.0666666701
    583, -0.885714293,  0.294117659, 0.0666666701
    584, -0.885714293,  0.352941185, 0.0666666701
    585, -0.885714293,  0.411764711, 0.0666666701
    586, -0.885714293,  0.470588237, 0.0666666701
    587, -0.885714293,  0.529411793, 0.0666666701
    588, -0.885714293,  0.588235319, 0.0666666701
    589, -0.885714293,  0.647058845, 0.0666666701
    590, -0.885714293,   0.70588237, 0.0666666701
    591, -0.885714293,  0.764705896, 0.0666666701
    592, -0.885714293,  0.823529422, 0.0666666701
    593, -0.885714293,  0.882352948, 0.0666666701
    594, -0.885714293,  0.941176474, 0.0666666701
    595, -0.885714293,           1., 0.0666666701
    596, -0.885714293,          -1., 0.0500000007
    597, -0.885714293, -0.941176474, 0.0500000007
    598, -0.885714293, -0.882352948, 0.0500000007
    599, -0.885714293, -0.823529422, 0.0500000007
    600, -0.885714293, -0.764705896, 0.0500000007
    601, -0.885714293,  -0.70588237, 0.0500000007
    602, -0.885714293, -0.647058845, 0.0500000007
    603, -0.885714293, -0.588235319, 0.0500000007
    604, -0.885714293, -0.529411793, 0.0500000007
    605, -0.885714293, -0.470588237, 0.0500000007
    606, -0.885714293, -0.411764711, 0.0500000007
    607, -0.885714293, -0.352941185, 0.0500000007
    608, -0.885714293, -0.294117659, 0.0500000007
    609, -0.885714293, -0.235294119, 0.0500000007
    610, -0.885714293, -0.176470593, 0.0500000007
    611, -0.885714293, -0.117647059, 0.0500000007
    612, -0.885714293, -0.0588235296, 0.0500000007
    613, -0.885714293,           0., 0.0500000007
    614, -0.885714293, 0.0588235296, 0.0500000007
    615, -0.885714293,  0.117647059, 0.0500000007
    616, -0.885714293,  0.176470593, 0.0500000007
    617, -0.885714293,  0.235294119, 0.0500000007
    618, -0.885714293,  0.294117659, 0.0500000007
    619, -0.885714293,  0.352941185, 0.0500000007
    620, -0.885714293,  0.411764711, 0.0500000007
    621, -0.885714293,  0.470588237, 0.0500000007
    622, -0.885714293,  0.529411793, 0.0500000007
    623, -0.885714293,  0.588235319, 0.0500000007
    624, -0.885714293,  0.647058845, 0.0500000007
    625, -0.885714293,   0.70588237, 0.0500000007
    626, -0.885714293,  0.764705896, 0.0500000007
    627, -0.885714293,  0.823529422, 0.0500000007
    628, -0.885714293,  0.882352948, 0.0500000007
    629, -0.885714293,  0.941176474, 0.0500000007
    630, -0.885714293,           1., 0.0500000007
    631, -0.885714293,          -1., 0.0333333351
    632, -0.885714293, -0.941176474, 0.0333333351
    633, -0.885714293, -0.882352948, 0.0333333351
    634, -0.885714293, -0.823529422, 0.0333333351
    635, -0.885714293, -0.764705896, 0.0333333351
    636, -0.885714293,  -0.70588237, 0.0333333351
    637, -0.885714293, -0.647058845, 0.0333333351
    638, -0.885714293, -0.588235319, 0.0333333351
    639, -0.885714293, -0.529411793, 0.0333333351
    640, -0.885714293, -0.470588237, 0.0333333351
    641, -0.885714293, -0.411764711, 0.0333333351
    642, -0.885714293, -0.352941185, 0.0333333351
    643, -0.885714293, -0.294117659, 0.0333333351
    644, -0.885714293, -0.235294119, 0.0333333351
    645, -0.885714293, -0.176470593, 0.0333333351
    646, -0.885714293, -0.117647059, 0.0333333351
    647, -0.885714293, -0.0588235296, 0.0333333351
    648, -0.885714293,           0., 0.0333333351
    649, -0.885714293, 0.0588235296, 0.0333333351
    650, -0.885714293,  0.117647059, 0.0333333351
    651, -0.885714293,  0.176470593, 0.0333333351
    652, -0.885714293,  0.235294119, 0.0333333351
    653, -0.885714293,  0.294117659, 0.0333333351
    654, -0.885714293,  0.352941185, 0.0333333351
    655, -0.885714293,  0.411764711, 0.0333333351
    656, -0.885714293,  0.470588237, 0.0333333351
    657, -0.885714293,  0.529411793, 0.0333333351
    658, -0.885714293,  0.588235319, 0.0333333351
    659, -0.885714293,  0.647058845, 0.0333333351
    660, -0.885714293,   0.70588237, 0.0333333351
    661, -0.885714293,  0.764705896, 0.0333333351
    662, -0.885714293,  0.823529422, 0.0333333351
    663, -0.885714293,  0.882352948, 0.0333333351
    664, -0.885714293,  0.941176474, 0.0333333351
    665, -0.885714293,           1., 0.0333333351
    666, -0.885714293,          -1., 0.0166666675
    667, -0.885714293, -0.941176474, 0.0166666675
    668, -0.885714293, -0.882352948, 0.0166666675
    669, -0.885714293, -0.823529422, 0.0166666675
    670, -0.885714293, -0.764705896, 0.0166666675
    671, -0.885714293,  -0.70588237, 0.0166666675
    672, -0.885714293, -0.647058845, 0.0166666675
    673, -0.885714293, -0.588235319, 0.0166666675
    674, -0.885714293, -0.529411793, 0.0166666675
    675, -0.885714293, -0.470588237, 0.0166666675
    676, -0.885714293, -0.411764711, 0.0166666675
    677, -0.885714293, -0.352941185, 0.0166666675
    678, -0.885714293, -0.294117659, 0.0166666675
    679, -0.885714293, -0.235294119, 0.0166666675
    680, -0.885714293, -0.176470593, 0.0166666675
    681, -0.885714293, -0.117647059, 0.0166666675
    682, -0.885714293, -0.0588235296, 0.0166666675
    683, -0.885714293,           0., 0.0166666675
    684, -0.885714293, 0.0588235296, 0.0166666675
    685, -0.885714293,  0.117647059, 0.0166666675
    686, -0.885714293,  0.176470593, 0.0166666675
    687, -0.885714293,  0.235294119, 0.0166666675
    688, -0.885714293,  0.294117659, 0.0166666675
    689, -0.885714293,  0.352941185, 0.0166666675
    690, -0.885714293,  0.411764711, 0.0166666675
    691, -0.885714293,  0.470588237, 0.0166666675
    692, -0.885714293,  0.529411793, 0.0166666675
    693, -0.885714293,  0.588235319, 0.0166666675
    694, -0.885714293,  0.647058845, 0.0166666675
    695, -0.885714293,   0.70588237, 0.0166666675
    696, -0.885714293,  0.764705896, 0.0166666675
    697, -0.885714293,  0.823529422, 0.0166666675
    698, -0.885714293,  0.882352948, 0.0166666675
    699, -0.885714293,  0.941176474, 0.0166666675
    700, -0.885714293,           1., 0.0166666675
    701, -0.885714293,          -1.,           0.
    702, -0.885714293, -0.941176474,           0.
    703, -0.885714293, -0.882352948,           0.
    704, -0.885714293, -0.823529422,           0.
    705, -0.885714293, -0.764705896,           0.
    706, -0.885714293,  -0.70588237,           0.
    707, -0.885714293, -0.647058845,           0.
    708, -0.885714293, -0.588235319,           0.
    709, -0.885714293, -0.529411793,           0.
    710, -0.885714293, -0.470588237,           0.
    711, -0.885714293, -0.411764711,           0.
    712, -0.885714293, -0.352941185,           0.
    713, -0.885714293, -0.294117659,           0.
    714, -0.885714293, -0.235294119,           0.
    715, -0.885714293, -0.176470593,           0.
    716, -0.885714293, -0.117647059,           0.
    717, -0.885714293, -0.0588235296,           0.
    718, -0.885714293,           0.,           0.
    719, -0.885714293, 0.0588235296,           0.
    720, -0.885714293,  0.117647059,           0.
    721, -0.885714293,  0.176470593,           0.
    722, -0.885714293,  0.235294119,           0.
    723, -0.885714293,  0.294117659,           0.
    724, -0.885714293,  0.352941185,           0.
    725, -0.885714293,  0.411764711,           0.
    726, -0.885714293,  0.470588237,           0.
    727, -0.885714293,  0.529411793,           0.
    728, -0.885714293,  0.588235319,           0.
    729, -0.885714293,  0.647058845,           0.
    730, -0.885714293,   0.70588237,           0.
    731, -0.885714293,  0.764705896,           0.
    732, -0.885714293,  0.823529422,           0.
    733, -0.885714293,  0.882352948,           0.
    734, -0.885714293,  0.941176474,           0.
    735, -0.885714293,           1.,           0.
    736, -0.828571439,          -1.,  0.100000001
    737, -0.828571439, -0.941176474,  0.100000001
    738, -0.828571439, -0.882352948,  0.100000001
    739, -0.828571439, -0.823529422,  0.100000001
    740, -0.828571439, -0.764705896,  0.100000001
    741, -0.828571439,  -0.70588237,  0.100000001
    742, -0.828571439, -0.647058845,  0.100000001
    743, -0.828571439, -0.588235319,  0.100000001
    744, -0.828571439, -0.529411793,  0.100000001
    745, -0.828571439, -0.470588237,  0.100000001
    746, -0.828571439, -0.411764711,  0.100000001
    747, -0.828571439, -0.352941185,  0.100000001
    748, -0.828571439, -0.294117659,  0.100000001
    749, -0.828571439, -0.235294119,  0.100000001
    750, -0.828571439, -0.176470593,  0.100000001
    751, -0.828571439, -0.117647059,  0.100000001
    752, -0.828571439, -0.0588235296,  0.100000001
    753, -0.828571439,           0.,  0.100000001
    754, -0.828571439, 0.0588235296,  0.100000001
    755, -0.828571439,  0.117647059,  0.100000001
    756, -0.828571439,  0.176470593,  0.100000001
    757, -0.828571439,  0.235294119,  0.100000001
    758, -0.828571439,  0.294117659,  0.100000001
    759, -0.828571439,  0.352941185,  0.100000001
    760, -0.828571439,  0.411764711,  0.100000001
    761, -0.828571439,  0.470588237,  0.100000001
    762, -0.828571439,  0.529411793,  0.100000001
    763, -0.828571439,  0.588235319,  0.100000001
    764, -0.828571439,  0.647058845,  0.100000001
    765, -0.828571439,   0.70588237,  0.100000001
    766, -0.828571439,  0.764705896,  0.100000001
    767, -0.828571439,  0.823529422,  0.100000001
    768, -0.828571439,  0.882352948,  0.100000001
    769, -0.828571439,  0.941176474,  0.100000001
    770, -0.828571439,           1.,  0.100000001
    771, -0.828571439,          -1., 0.0833333358
    772, -0.828571439, -0.941176474, 0.0833333358
    773, -0.828571439, -0.882352948, 0.0833333358
    774, -0.828571439, -0.823529422, 0.0833333358
    775, -0.828571439, -0.764705896, 0.0833333358
    776, -0.828571439,  -0.70588237, 0.0833333358
    777, -0.828571439, -0.647058845, 0.0833333358
    778, -0.828571439, -0.588235319, 0.0833333358
    779, -0.828571439, -0.529411793, 0.0833333358
    780, -0.828571439, -0.470588237, 0.0833333358
    781, -0.828571439, -0.411764711, 0.0833333358
    782, -0.828571439, -0.352941185, 0.0833333358
    783, -0.828571439, -0.294117659, 0.0833333358
    784, -0.828571439, -0.235294119, 0.0833333358
    785, -0.828571439, -0.176470593, 0.0833333358
    786, -0.828571439, -0.117647059, 0.0833333358
    787, -0.828571439, -0.0588235296, 0.0833333358
    788, -0.828571439,           0., 0.0833333358
    789, -0.828571439, 0.0588235296, 0.0833333358
    790, -0.828571439,  0.117647059, 0.0833333358
    791, -0.828571439,  0.176470593, 0.0833333358
    792, -0.828571439,  0.235294119, 0.0833333358
    793, -0.828571439,  0.294117659, 0.0833333358
    794, -0.828571439,  0.352941185, 0.0833333358
    795, -0.828571439,  0.411764711, 0.0833333358
    796, -0.828571439,  0.470588237, 0.0833333358
    797, -0.828571439,  0.529411793, 0.0833333358
    798, -0.828571439,  0.588235319, 0.0833333358
    799, -0.828571439,  0.647058845, 0.0833333358
    800, -0.828571439,   0.70588237, 0.0833333358
    801, -0.828571439,  0.764705896, 0.0833333358
    802, -0.828571439,  0.823529422, 0.0833333358
    803, -0.828571439,  0.882352948, 0.0833333358
    804, -0.828571439,  0.941176474, 0.0833333358
    805, -0.828571439,           1., 0.0833333358
    806, -0.828571439,          -1., 0.0666666701
    807, -0.828571439, -0.941176474, 0.0666666701
    808, -0.828571439, -0.882352948, 0.0666666701
    809, -0.828571439, -0.823529422, 0.0666666701
    810, -0.828571439, -0.764705896, 0.0666666701
    811, -0.828571439,  -0.70588237, 0.0666666701
    812, -0.828571439, -0.647058845, 0.0666666701
    813, -0.828571439, -0.588235319, 0.0666666701
    814, -0.828571439, -0.529411793, 0.0666666701
    815, -0.828571439, -0.470588237, 0.0666666701
    816, -0.828571439, -0.411764711, 0.0666666701
    817, -0.828571439, -0.352941185, 0.0666666701
    818, -0.828571439, -0.294117659, 0.0666666701
    819, -0.828571439, -0.235294119, 0.0666666701
    820, -0.828571439, -0.176470593, 0.0666666701
    821, -0.828571439, -0.117647059, 0.0666666701
    822, -0.828571439, -0.0588235296, 0.0666666701
    823, -0.828571439,           0., 0.0666666701
    824, -0.828571439, 0.0588235296, 0.0666666701
    825, -0.828571439,  0.117647059, 0.0666666701
    826, -0.828571439,  0.176470593, 0.0666666701
    827, -0.828571439,  0.235294119, 0.0666666701
    828, -0.828571439,  0.294117659, 0.0666666701
    829, -0.828571439,  0.352941185, 0.0666666701
    830, -0.828571439,  0.411764711, 0.0666666701
    831, -0.828571439,  0.470588237, 0.0666666701
    832, -0.828571439,  0.529411793, 0.0666666701
    833, -0.828571439,  0.588235319, 0.0666666701
    834, -0.828571439,  0.647058845, 0.0666666701
    835, -0.828571439,   0.70588237, 0.0666666701
    836, -0.828571439,  0.764705896, 0.0666666701
    837, -0.828571439,  0.823529422, 0.0666666701
    838, -0.828571439,  0.882352948, 0.0666666701
    839, -0.828571439,  0.941176474, 0.0666666701
    840, -0.828571439,           1., 0.0666666701
    841, -0.828571439,          -1., 0.0500000007
    842, -0.828571439, -0.941176474, 0.0500000007
    843, -0.828571439, -0.882352948, 0.0500000007
    844, -0.828571439, -0.823529422, 0.0500000007
    845, -0.828571439, -0.764705896, 0.0500000007
    846, -0.828571439,  -0.70588237, 0.0500000007
    847, -0.828571439, -0.647058845, 0.0500000007
    848, -0.828571439, -0.588235319, 0.0500000007
    849, -0.828571439, -0.529411793, 0.0500000007
    850, -0.828571439, -0.470588237, 0.0500000007
    851, -0.828571439, -0.411764711, 0.0500000007
    852, -0.828571439, -0.352941185, 0.0500000007
    853, -0.828571439, -0.294117659, 0.0500000007
    854, -0.828571439, -0.235294119, 0.0500000007
    855, -0.828571439, -0.176470593, 0.0500000007
    856, -0.828571439, -0.117647059, 0.0500000007
    857, -0.828571439, -0.0588235296, 0.0500000007
    858, -0.828571439,           0., 0.0500000007
    859, -0.828571439, 0.0588235296, 0.0500000007
    860, -0.828571439,  0.117647059, 0.0500000007
    861, -0.828571439,  0.176470593, 0.0500000007
    862, -0.828571439,  0.235294119, 0.0500000007
    863, -0.828571439,  0.294117659, 0.0500000007
    864, -0.828571439,  0.352941185, 0.0500000007
    865, -0.828571439,  0.411764711, 0.0500000007
    866, -0.828571439,  0.470588237, 0.0500000007
    867, -0.828571439,  0.529411793, 0.0500000007
    868, -0.828571439,  0.588235319, 0.0500000007
    869, -0.828571439,  0.647058845, 0.0500000007
    870, -0.828571439,   0.70588237, 0.0500000007
    871, -0.828571439,  0.764705896, 0.0500000007
    872, -0.828571439,  0.823529422, 0.0500000007
    873, -0.828571439,  0.882352948, 0.0500000007
    874, -0.828571439,  0.941176474, 0.0500000007
    875, -0.828571439,           1., 0.0500000007
    876, -0.828571439,          -1., 0.0333333351
    877, -0.828571439, -0.941176474, 0.0333333351
    878, -0.828571439, -0.882352948, 0.0333333351
    879, -0.828571439, -0.823529422, 0.0333333351
    880, -0.828571439, -0.764705896, 0.0333333351
    881, -0.828571439,  -0.70588237, 0.0333333351
    882, -0.828571439, -0.647058845, 0.0333333351
    883, -0.828571439, -0.588235319, 0.0333333351
    884, -0.828571439, -0.529411793, 0.0333333351
    885, -0.828571439, -0.470588237, 0.0333333351
    886, -0.828571439, -0.411764711, 0.0333333351
    887, -0.828571439, -0.352941185, 0.0333333351
    888, -0.828571439, -0.294117659, 0.0333333351
    889, -0.828571439, -0.235294119, 0.0333333351
    890, -0.828571439, -0.176470593, 0.0333333351
    891, -0.828571439, -0.117647059, 0.0333333351
    892, -0.828571439, -0.0588235296, 0.0333333351
    893, -0.828571439,           0., 0.0333333351
    894, -0.828571439, 0.0588235296, 0.0333333351
    895, -0.828571439,  0.117647059, 0.0333333351
    896, -0.828571439,  0.176470593, 0.0333333351
    897, -0.828571439,  0.235294119, 0.0333333351
    898, -0.828571439,  0.294117659, 0.0333333351
    899, -0.828571439,  0.352941185, 0.0333333351
    900, -0.828571439,  0.411764711, 0.0333333351
    901, -0.828571439,  0.470588237, 0.0333333351
    902, -0.828571439,  0.529411793, 0.0333333351
    903, -0.828571439,  0.588235319, 0.0333333351
    904, -0.828571439,  0.647058845, 0.0333333351
    905, -0.828571439,   0.70588237, 0.0333333351
    906, -0.828571439,  0.764705896, 0.0333333351
    907, -0.828571439,  0.823529422, 0.0333333351
    908, -0.828571439,  0.882352948, 0.0333333351
    909, -0.828571439,  0.941176474, 0.0333333351
    910, -0.828571439,           1., 0.0333333351
    911, -0.828571439,          -1., 0.0166666675
    912, -0.828571439, -0.941176474, 0.0166666675
    913, -0.828571439, -0.882352948, 0.0166666675
    914, -0.828571439, -0.823529422, 0.0166666675
    915, -0.828571439, -0.764705896, 0.0166666675
    916, -0.828571439,  -0.70588237, 0.0166666675
    917, -0.828571439, -0.647058845, 0.0166666675
    918, -0.828571439, -0.588235319, 0.0166666675
    919, -0.828571439, -0.529411793, 0.0166666675
    920, -0.828571439, -0.470588237, 0.0166666675
    921, -0.828571439, -0.411764711, 0.0166666675
    922, -0.828571439, -0.352941185, 0.0166666675
    923, -0.828571439, -0.294117659, 0.0166666675
    924, -0.828571439, -0.235294119, 0.0166666675
    925, -0.828571439, -0.176470593, 0.0166666675
    926, -0.828571439, -0.117647059, 0.0166666675
    927, -0.828571439, -0.0588235296, 0.0166666675
    928, -0.828571439,           0., 0.0166666675
    929, -0.828571439, 0.0588235296, 0.0166666675
    930, -0.828571439,  0.117647059, 0.0166666675
    931, -0.828571439,  0.176470593, 0.0166666675
    932, -0.828571439,  0.235294119, 0.0166666675
    933, -0.828571439,  0.294117659, 0.0166666675
    934, -0.828571439,  0.352941185, 0.0166666675
    935, -0.828571439,  0.411764711, 0.0166666675
    936, -0.828571439,  0.470588237, 0.0166666675
    937, -0.828571439,  0.529411793, 0.0166666675
    938, -0.828571439,  0.588235319, 0.0166666675
    939, -0.828571439,  0.647058845, 0.0166666675
    940, -0.828571439,   0.70588237, 0.0166666675
    941, -0.828571439,  0.764705896, 0.0166666675
    942, -0.828571439,  0.823529422, 0.0166666675
    943, -0.828571439,  0.882352948, 0.0166666675
    944, -0.828571439,  0.941176474, 0.0166666675
    945, -0.828571439,           1., 0.0166666675
    946, -0.828571439,          -1.,           0.
    947, -0.828571439, -0.941176474,           0.
    948, -0.828571439, -0.882352948,           0.
    949, -0.828571439, -0.823529422,           0.
    950, -0.828571439, -0.764705896,           0.
    951, -0.828571439,  -0.70588237,           0.
    952, -0.828571439, -0.647058845,           0.
    953, -0.828571439, -0.588235319,           0.
    954, -0.828571439, -0.529411793,           0.
    955, -0.828571439, -0.470588237,           0.
    956, -0.828571439, -0.411764711,           0.
    957, -0.828571439, -0.352941185,           0.
    958, -0.828571439, -0.294117659,           0.
    959, -0.828571439, -0.235294119,           0.
    960, -0.828571439, -0.176470593,           0.
    961, -0.828571439, -0.117647059,           0.
    962, -0.828571439, -0.0588235296,           0.
    963, -0.828571439,           0.,           0.
    964, -0.828571439, 0.0588235296,           0.
    965, -0.828571439,  0.117647059,           0.
    966, -0.828571439,  0.176470593,           0.
    967, -0.828571439,  0.235294119,           0.
    968, -0.828571439,  0.294117659,           0.
    969, -0.828571439,  0.352941185,           0.
    970, -0.828571439,  0.411764711,           0.
    971, -0.828571439,  0.470588237,           0.
    972, -0.828571439,  0.529411793,           0.
    973, -0.828571439,  0.588235319,           0.
    974, -0.828571439,  0.647058845,           0.
    975, -0.828571439,   0.70588237,           0.
    976, -0.828571439,  0.764705896,           0.
    977, -0.828571439,  0.823529422,           0.
    978, -0.828571439,  0.882352948,           0.
    979, -0.828571439,  0.941176474,           0.
    980, -0.828571439,           1.,           0.
    981, -0.771428585,          -1.,  0.100000001
    982, -0.771428585, -0.941176474,  0.100000001
    983, -0.771428585, -0.882352948,  0.100000001
    984, -0.771428585, -0.823529422,  0.100000001
    985, -0.771428585, -0.764705896,  0.100000001
    986, -0.771428585,  -0.70588237,  0.100000001
    987, -0.771428585, -0.647058845,  0.100000001
    988, -0.771428585, -0.588235319,  0.100000001
    989, -0.771428585, -0.529411793,  0.100000001
    990, -0.771428585, -0.470588237,  0.100000001
    991, -0.771428585, -0.411764711,  0.100000001
    992, -0.771428585, -0.352941185,  0.100000001
    993, -0.771428585, -0.294117659,  0.100000001
    994, -0.771428585, -0.235294119,  0.100000001
    995, -0.771428585, -0.176470593,  0.100000001
    996, -0.771428585, -0.117647059,  0.100000001
    997, -0.771428585, -0.0588235296,  0.100000001
    998, -0.771428585,           0.,  0.100000001
    999, -0.771428585, 0.0588235296,  0.100000001
   1000, -0.771428585,  0.117647059,  0.100000001
   1001, -0.771428585,  0.176470593,  0.100000001
   1002, -0.771428585,  0.235294119,  0.100000001
   1003, -0.771428585,  0.294117659,  0.100000001
   1004, -0.771428585,  0.352941185,  0.100000001
   1005, -0.771428585,  0.411764711,  0.100000001
   1006, -0.771428585,  0.470588237,  0.100000001
   1007, -0.771428585,  0.529411793,  0.100000001
   1008, -0.771428585,  0.588235319,  0.100000001
   1009, -0.771428585,  0.647058845,  0.100000001
   1010, -0.771428585,   0.70588237,  0.100000001
   1011, -0.771428585,  0.764705896,  0.100000001
   1012, -0.771428585,  0.823529422,  0.100000001
   1013, -0.771428585,  0.882352948,  0.100000001
   1014, -0.771428585,  0.941176474,  0.100000001
   1015, -0.771428585,           1.,  0.100000001
   1016, -0.771428585,          -1., 0.0833333358
   1017, -0.771428585, -0.941176474, 0.0833333358
   1018, -0.771428585, -0.882352948, 0.0833333358
   1019, -0.771428585, -0.823529422, 0.0833333358
   1020, -0.771428585, -0.764705896, 0.0833333358
   1021, -0.771428585,  -0.70588237, 0.0833333358
   1022, -0.771428585, -0.647058845, 0.0833333358
   1023, -0.771428585, -0.588235319, 0.0833333358
   1024, -0.771428585, -0.529411793, 0.0833333358
   1025, -0.771428585, -0.470588237, 0.0833333358
   1026, -0.771428585, -0.411764711, 0.0833333358
   1027, -0.771428585, -0.352941185, 0.0833333358
   1028, -0.771428585, -0.294117659, 0.0833333358
   1029, -0.771428585, -0.235294119, 0.0833333358
   1030, -0.771428585, -0.176470593, 0.0833333358
   1031, -0.771428585, -0.117647059, 0.0833333358
   1032, -0.771428585, -0.0588235296, 0.0833333358
   1033, -0.771428585,           0., 0.0833333358
   1034, -0.771428585, 0.0588235296, 0.0833333358
   1035, -0.771428585,  0.117647059, 0.0833333358
   1036, -0.771428585,  0.176470593, 0.0833333358
   1037, -0.771428585,  0.235294119, 0.0833333358
   1038, -0.771428585,  0.294117659, 0.0833333358
   1039, -0.771428585,  0.352941185, 0.0833333358
   1040, -0.771428585,  0.411764711, 0.0833333358
   1041, -0.771428585,  0.470588237, 0.0833333358
   1042, -0.771428585,  0.529411793, 0.0833333358
   1043, -0.771428585,  0.588235319, 0.0833333358
   1044, -0.771428585,  0.647058845, 0.0833333358
   1045, -0.771428585,   0.70588237, 0.0833333358
   1046, -0.771428585,  0.764705896, 0.0833333358
   1047, -0.771428585,  0.823529422, 0.0833333358
   1048, -0.771428585,  0.882352948, 0.0833333358
   1049, -0.771428585,  0.941176474, 0.0833333358
   1050, -0.771428585,           1., 0.0833333358
   1051, -0.771428585,          -1., 0.0666666701
   1052, -0.771428585, -0.941176474, 0.0666666701
   1053, -0.771428585, -0.882352948, 0.0666666701
   1054, -0.771428585, -0.823529422, 0.0666666701
   1055, -0.771428585, -0.764705896, 0.0666666701
   1056, -0.771428585,  -0.70588237, 0.0666666701
   1057, -0.771428585, -0.647058845, 0.0666666701
   1058, -0.771428585, -0.588235319, 0.0666666701
   1059, -0.771428585, -0.529411793, 0.0666666701
   1060, -0.771428585, -0.470588237, 0.0666666701
   1061, -0.771428585, -0.411764711, 0.0666666701
   1062, -0.771428585, -0.352941185, 0.0666666701
   1063, -0.771428585, -0.294117659, 0.0666666701
   1064, -0.771428585, -0.235294119, 0.0666666701
   1065, -0.771428585, -0.176470593, 0.0666666701
   1066, -0.771428585, -0.117647059, 0.0666666701
   1067, -0.771428585, -0.0588235296, 0.0666666701
   1068, -0.771428585,           0., 0.0666666701
   1069, -0.771428585, 0.0588235296, 0.0666666701
   1070, -0.771428585,  0.117647059, 0.0666666701
   1071, -0.771428585,  0.176470593, 0.0666666701
   1072, -0.771428585,  0.235294119, 0.0666666701
   1073, -0.771428585,  0.294117659, 0.0666666701
   1074, -0.771428585,  0.352941185, 0.0666666701
   1075, -0.771428585,  0.411764711, 0.0666666701
   1076, -0.771428585,  0.470588237, 0.0666666701
   1077, -0.771428585,  0.529411793, 0.0666666701
   1078, -0.771428585,  0.588235319, 0.0666666701
   1079, -0.771428585,  0.647058845, 0.0666666701
   1080, -0.771428585,   0.70588237, 0.0666666701
   1081, -0.771428585,  0.764705896, 0.0666666701
   1082, -0.771428585,  0.823529422, 0.0666666701
   1083, -0.771428585,  0.882352948, 0.0666666701
   1084, -0.771428585,  0.941176474, 0.0666666701
   1085, -0.771428585,           1., 0.0666666701
   1086, -0.771428585,          -1., 0.0500000007
   1087, -0.771428585, -0.941176474, 0.0500000007
   1088, -0.771428585, -0.882352948, 0.0500000007
   1089, -0.771428585, -0.823529422, 0.0500000007
   1090, -0.771428585, -0.764705896, 0.0500000007
   1091, -0.771428585,  -0.70588237, 0.0500000007
   1092, -0.771428585, -0.647058845, 0.0500000007
   1093, -0.771428585, -0.588235319, 0.0500000007
   1094, -0.771428585, -0.529411793, 0.0500000007
   1095, -0.771428585, -0.470588237, 0.0500000007
   1096, -0.771428585, -0.411764711, 0.0500000007
   1097, -0.771428585, -0.352941185, 0.0500000007
   1098, -0.771428585, -0.294117659, 0.0500000007
   1099, -0.771428585, -0.235294119, 0.0500000007
   1100, -0.771428585, -0.176470593, 0.0500000007
   1101, -0.771428585, -0.117647059, 0.0500000007
   1102, -0.771428585, -0.0588235296, 0.0500000007
   1103, -0.771428585,           0., 0.0500000007
   1104, -0.771428585, 0.0588235296, 0.0500000007
   1105, -0.771428585,  0.117647059, 0.0500000007
   1106, -0.771428585,  0.176470593, 0.0500000007
   1107, -0.771428585,  0.235294119, 0.0500000007
   1108, -0.771428585,  0.294117659, 0.0500000007
   1109, -0.771428585,  0.352941185, 0.0500000007
   1110, -0.771428585,  0.411764711, 0.0500000007
   1111, -0.771428585,  0.470588237, 0.0500000007
   1112, -0.771428585,  0.529411793, 0.0500000007
   1113, -0.771428585,  0.588235319, 0.0500000007
   1114, -0.771428585,  0.647058845, 0.0500000007
   1115, -0.771428585,   0.70588237, 0.0500000007
   1116, -0.771428585,  0.764705896, 0.0500000007
   1117, -0.771428585,  0.823529422, 0.0500000007
   1118, -0.771428585,  0.882352948, 0.0500000007
   1119, -0.771428585,  0.941176474, 0.0500000007
   1120, -0.771428585,           1., 0.0500000007
   1121, -0.771428585,          -1., 0.0333333351
   1122, -0.771428585, -0.941176474, 0.0333333351
   1123, -0.771428585, -0.882352948, 0.0333333351
   1124, -0.771428585, -0.823529422, 0.0333333351
   1125, -0.771428585, -0.764705896, 0.0333333351
   1126, -0.771428585,  -0.70588237, 0.0333333351
   1127, -0.771428585, -0.647058845, 0.0333333351
   1128, -0.771428585, -0.588235319, 0.0333333351
   1129, -0.771428585, -0.529411793, 0.0333333351
   1130, -0.771428585, -0.470588237, 0.0333333351
   1131, -0.771428585, -0.411764711, 0.0333333351
   1132, -0.771428585, -0.352941185, 0.0333333351
   1133, -0.771428585, -0.294117659, 0.0333333351
   1134, -0.771428585, -0.235294119, 0.0333333351
   1135, -0.771428585, -0.176470593, 0.0333333351
   1136, -0.771428585, -0.117647059, 0.0333333351
   1137, -0.771428585, -0.0588235296, 0.0333333351
   1138, -0.771428585,           0., 0.0333333351
   1139, -0.771428585, 0.0588235296, 0.0333333351
   1140, -0.771428585,  0.117647059, 0.0333333351
   1141, -0.771428585,  0.176470593, 0.0333333351
   1142, -0.771428585,  0.235294119, 0.0333333351
   1143, -0.771428585,  0.294117659, 0.0333333351
   1144, -0.771428585,  0.352941185, 0.0333333351
   1145, -0.771428585,  0.411764711, 0.0333333351
   1146, -0.771428585,  0.470588237, 0.0333333351
   1147, -0.771428585,  0.529411793, 0.0333333351
   1148, -0.771428585,  0.588235319, 0.0333333351
   1149, -0.771428585,  0.647058845, 0.0333333351
   1150, -0.771428585,   0.70588237, 0.0333333351
   1151, -0.771428585,  0.764705896, 0.0333333351
   1152, -0.771428585,  0.823529422, 0.0333333351
   1153, -0.771428585,  0.882352948, 0.0333333351
   1154, -0.771428585,  0.941176474, 0.0333333351
   1155, -0.771428585,           1., 0.0333333351
   1156, -0.771428585,          -1., 0.0166666675
   1157, -0.771428585, -0.941176474, 0.0166666675
   1158, -0.771428585, -0.882352948, 0.0166666675
   1159, -0.771428585, -0.823529422, 0.0166666675
   1160, -0.771428585, -0.764705896, 0.0166666675
   1161, -0.771428585,  -0.70588237, 0.0166666675
   1162, -0.771428585, -0.647058845, 0.0166666675
   1163, -0.771428585, -0.588235319, 0.0166666675
   1164, -0.771428585, -0.529411793, 0.0166666675
   1165, -0.771428585, -0.470588237, 0.0166666675
   1166, -0.771428585, -0.411764711, 0.0166666675
   1167, -0.771428585, -0.352941185, 0.0166666675
   1168, -0.771428585, -0.294117659, 0.0166666675
   1169, -0.771428585, -0.235294119, 0.0166666675
   1170, -0.771428585, -0.176470593, 0.0166666675
   1171, -0.771428585, -0.117647059, 0.0166666675
   1172, -0.771428585, -0.0588235296, 0.0166666675
   1173, -0.771428585,           0., 0.0166666675
   1174, -0.771428585, 0.0588235296, 0.0166666675
   1175, -0.771428585,  0.117647059, 0.0166666675
   1176, -0.771428585,  0.176470593, 0.0166666675
   1177, -0.771428585,  0.235294119, 0.0166666675
   1178, -0.771428585,  0.294117659, 0.0166666675
   1179, -0.771428585,  0.352941185, 0.0166666675
   1180, -0.771428585,  0.411764711, 0.0166666675
   1181, -0.771428585,  0.470588237, 0.0166666675
   1182, -0.771428585,  0.529411793, 0.0166666675
   1183, -0.771428585,  0.588235319, 0.0166666675
   1184, -0.771428585,  0.647058845, 0.0166666675
   1185, -0.771428585,   0.70588237, 0.0166666675
   1186, -0.771428585,  0.764705896, 0.0166666675
   1187, -0.771428585,  0.823529422, 0.0166666675
   1188, -0.771428585,  0.882352948, 0.0166666675
   1189, -0.771428585,  0.941176474, 0.0166666675
   1190, -0.771428585,           1., 0.0166666675
   1191, -0.771428585,          -1.,           0.
   1192, -0.771428585, -0.941176474,           0.
   1193, -0.771428585, -0.882352948,           0.
   1194, -0.771428585, -0.823529422,           0.
   1195, -0.771428585, -0.764705896,           0.
   1196, -0.771428585,  -0.70588237,           0.
   1197, -0.771428585, -0.647058845,           0.
   1198, -0.771428585, -0.588235319,           0.
   1199, -0.771428585, -0.529411793,           0.
   1200, -0.771428585, -0.470588237,           0.
   1201, -0.771428585, -0.411764711,           0.
   1202, -0.771428585, -0.352941185,           0.
   1203, -0.771428585, -0.294117659,           0.
   1204, -0.771428585, -0.235294119,           0.
   1205, -0.771428585, -0.176470593,           0.
   1206, -0.771428585, -0.117647059,           0.
   1207, -0.771428585, -0.0588235296,           0.
   1208, -0.771428585,           0.,           0.
   1209, -0.771428585, 0.0588235296,           0.
   1210, -0.771428585,  0.117647059,           0.
   1211, -0.771428585,  0.176470593,           0.
   1212, -0.771428585,  0.235294119,           0.
   1213, -0.771428585,  0.294117659,           0.
   1214, -0.771428585,  0.352941185,           0.
   1215, -0.771428585,  0.411764711,           0.
   1216, -0.771428585,  0.470588237,           0.
   1217, -0.771428585,  0.529411793,           0.
   1218, -0.771428585,  0.588235319,           0.
   1219, -0.771428585,  0.647058845,           0.
   1220, -0.771428585,   0.70588237,           0.
   1221, -0.771428585,  0.764705896,           0.
   1222, -0.771428585,  0.823529422,           0.
   1223, -0.771428585,  0.882352948,           0.
   1224, -0.771428585,  0.941176474,           0.
   1225, -0.771428585,           1.,           0.
   1226, -0.714285731,          -1.,  0.100000001
   1227, -0.714285731, -0.941176474,  0.100000001
   1228, -0.714285731, -0.882352948,  0.100000001
   1229, -0.714285731, -0.823529422,  0.100000001
   1230, -0.714285731, -0.764705896,  0.100000001
   1231, -0.714285731,  -0.70588237,  0.100000001
   1232, -0.714285731, -0.647058845,  0.100000001
   1233, -0.714285731, -0.588235319,  0.100000001
   1234, -0.714285731, -0.529411793,  0.100000001
   1235, -0.714285731, -0.470588237,  0.100000001
   1236, -0.714285731, -0.411764711,  0.100000001
   1237, -0.714285731, -0.352941185,  0.100000001
   1238, -0.714285731, -0.294117659,  0.100000001
   1239, -0.714285731, -0.235294119,  0.100000001
   1240, -0.714285731, -0.176470593,  0.100000001
   1241, -0.714285731, -0.117647059,  0.100000001
   1242, -0.714285731, -0.0588235296,  0.100000001
   1243, -0.714285731,           0.,  0.100000001
   1244, -0.714285731, 0.0588235296,  0.100000001
   1245, -0.714285731,  0.117647059,  0.100000001
   1246, -0.714285731,  0.176470593,  0.100000001
   1247, -0.714285731,  0.235294119,  0.100000001
   1248, -0.714285731,  0.294117659,  0.100000001
   1249, -0.714285731,  0.352941185,  0.100000001
   1250, -0.714285731,  0.411764711,  0.100000001
   1251, -0.714285731,  0.470588237,  0.100000001
   1252, -0.714285731,  0.529411793,  0.100000001
   1253, -0.714285731,  0.588235319,  0.100000001
   1254, -0.714285731,  0.647058845,  0.100000001
   1255, -0.714285731,   0.70588237,  0.100000001
   1256, -0.714285731,  0.764705896,  0.100000001
   1257, -0.714285731,  0.823529422,  0.100000001
   1258, -0.714285731,  0.882352948,  0.100000001
   1259, -0.714285731,  0.941176474,  0.100000001
   1260, -0.714285731,           1.,  0.100000001
   1261, -0.714285731,          -1., 0.0833333358
   1262, -0.714285731, -0.941176474, 0.0833333358
   1263, -0.714285731, -0.882352948, 0.0833333358
   1264, -0.714285731, -0.823529422, 0.0833333358
   1265, -0.714285731, -0.764705896, 0.0833333358
   1266, -0.714285731,  -0.70588237, 0.0833333358
   1267, -0.714285731, -0.647058845, 0.0833333358
   1268, -0.714285731, -0.588235319, 0.0833333358
   1269, -0.714285731, -0.529411793, 0.0833333358
   1270, -0.714285731, -0.470588237, 0.0833333358
   1271, -0.714285731, -0.411764711, 0.0833333358
   1272, -0.714285731, -0.352941185, 0.0833333358
   1273, -0.714285731, -0.294117659, 0.0833333358
   1274, -0.714285731, -0.235294119, 0.0833333358
   1275, -0.714285731, -0.176470593, 0.0833333358
   1276, -0.714285731, -0.117647059, 0.0833333358
   1277, -0.714285731, -0.0588235296, 0.0833333358
   1278, -0.714285731,           0., 0.0833333358
   1279, -0.714285731, 0.0588235296, 0.0833333358
   1280, -0.714285731,  0.117647059, 0.0833333358
   1281, -0.714285731,  0.176470593, 0.0833333358
   1282, -0.714285731,  0.235294119, 0.0833333358
   1283, -0.714285731,  0.294117659, 0.0833333358
   1284, -0.714285731,  0.352941185, 0.0833333358
   1285, -0.714285731,  0.411764711, 0.0833333358
   1286, -0.714285731,  0.470588237, 0.0833333358
   1287, -0.714285731,  0.529411793, 0.0833333358
   1288, -0.714285731,  0.588235319, 0.0833333358
   1289, -0.714285731,  0.647058845, 0.0833333358
   1290, -0.714285731,   0.70588237, 0.0833333358
   1291, -0.714285731,  0.764705896, 0.0833333358
   1292, -0.714285731,  0.823529422, 0.0833333358
   1293, -0.714285731,  0.882352948, 0.0833333358
   1294, -0.714285731,  0.941176474, 0.0833333358
   1295, -0.714285731,           1., 0.0833333358
   1296, -0.714285731,          -1., 0.0666666701
   1297, -0.714285731, -0.941176474, 0.0666666701
   1298, -0.714285731, -0.882352948, 0.0666666701
   1299, -0.714285731, -0.823529422, 0.0666666701
   1300, -0.714285731, -0.764705896, 0.0666666701
   1301, -0.714285731,  -0.70588237, 0.0666666701
   1302, -0.714285731, -0.647058845, 0.0666666701
   1303, -0.714285731, -0.588235319, 0.0666666701
   1304, -0.714285731, -0.529411793, 0.0666666701
   1305, -0.714285731, -0.470588237, 0.0666666701
   1306, -0.714285731, -0.411764711, 0.0666666701
   1307, -0.714285731, -0.352941185, 0.0666666701
   1308, -0.714285731, -0.294117659, 0.0666666701
   1309, -0.714285731, -0.235294119, 0.0666666701
   1310, -0.714285731, -0.176470593, 0.0666666701
   1311, -0.714285731, -0.117647059, 0.0666666701
   1312, -0.714285731, -0.0588235296, 0.0666666701
   1313, -0.714285731,           0., 0.0666666701
   1314, -0.714285731, 0.0588235296, 0.0666666701
   1315, -0.714285731,  0.117647059, 0.0666666701
   1316, -0.714285731,  0.176470593, 0.0666666701
   1317, -0.714285731,  0.235294119, 0.0666666701
   1318, -0.714285731,  0.294117659, 0.0666666701
   1319, -0.714285731,  0.352941185, 0.0666666701
   1320, -0.714285731,  0.411764711, 0.0666666701
   1321, -0.714285731,  0.470588237, 0.0666666701
   1322, -0.714285731,  0.529411793, 0.0666666701
   1323, -0.714285731,  0.588235319, 0.0666666701
   1324, -0.714285731,  0.647058845, 0.0666666701
   1325, -0.714285731,   0.70588237, 0.0666666701
   1326, -0.714285731,  0.764705896, 0.0666666701
   1327, -0.714285731,  0.823529422, 0.0666666701
   1328, -0.714285731,  0.882352948, 0.0666666701
   1329, -0.714285731,  0.941176474, 0.0666666701
   1330, -0.714285731,           1., 0.0666666701
   1331, -0.714285731,          -1., 0.0500000007
   1332, -0.714285731, -0.941176474, 0.0500000007
   1333, -0.714285731, -0.882352948, 0.0500000007
   1334, -0.714285731, -0.823529422, 0.0500000007
   1335, -0.714285731, -0.764705896, 0.0500000007
   1336, -0.714285731,  -0.70588237, 0.0500000007
   1337, -0.714285731, -0.647058845, 0.0500000007
   1338, -0.714285731, -0.588235319, 0.0500000007
   1339, -0.714285731, -0.529411793, 0.0500000007
   1340, -0.714285731, -0.470588237, 0.0500000007
   1341, -0.714285731, -0.411764711, 0.0500000007
   1342, -0.714285731, -0.352941185, 0.0500000007
   1343, -0.714285731, -0.294117659, 0.0500000007
   1344, -0.714285731, -0.235294119, 0.0500000007
   1345, -0.714285731, -0.176470593, 0.0500000007
   1346, -0.714285731, -0.117647059, 0.0500000007
   1347, -0.714285731, -0.0588235296, 0.0500000007
   1348, -0.714285731,           0., 0.0500000007
   1349, -0.714285731, 0.0588235296, 0.0500000007
   1350, -0.714285731,  0.117647059, 0.0500000007
   1351, -0.714285731,  0.176470593, 0.0500000007
   1352, -0.714285731,  0.235294119, 0.0500000007
   1353, -0.714285731,  0.294117659, 0.0500000007
   1354, -0.714285731,  0.352941185, 0.0500000007
   1355, -0.714285731,  0.411764711, 0.0500000007
   1356, -0.714285731,  0.470588237, 0.0500000007
   1357, -0.714285731,  0.529411793, 0.0500000007
   1358, -0.714285731,  0.588235319, 0.0500000007
   1359, -0.714285731,  0.647058845, 0.0500000007
   1360, -0.714285731,   0.70588237, 0.0500000007
   1361, -0.714285731,  0.764705896, 0.0500000007
   1362, -0.714285731,  0.823529422, 0.0500000007
   1363, -0.714285731,  0.882352948, 0.0500000007
   1364, -0.714285731,  0.941176474, 0.0500000007
   1365, -0.714285731,           1., 0.0500000007
   1366, -0.714285731,          -1., 0.0333333351
   1367, -0.714285731, -0.941176474, 0.0333333351
   1368, -0.714285731, -0.882352948, 0.0333333351
   1369, -0.714285731, -0.823529422, 0.0333333351
   1370, -0.714285731, -0.764705896, 0.0333333351
   1371, -0.714285731,  -0.70588237, 0.0333333351
   1372, -0.714285731, -0.647058845, 0.0333333351
   1373, -0.714285731, -0.588235319, 0.0333333351
   1374, -0.714285731, -0.529411793, 0.0333333351
   1375, -0.714285731, -0.470588237, 0.0333333351
   1376, -0.714285731, -0.411764711, 0.0333333351
   1377, -0.714285731, -0.352941185, 0.0333333351
   1378, -0.714285731, -0.294117659, 0.0333333351
   1379, -0.714285731, -0.235294119, 0.0333333351
   1380, -0.714285731, -0.176470593, 0.0333333351
   1381, -0.714285731, -0.117647059, 0.0333333351
   1382, -0.714285731, -0.0588235296, 0.0333333351
   1383, -0.714285731,           0., 0.0333333351
   1384, -0.714285731, 0.0588235296, 0.0333333351
   1385, -0.714285731,  0.117647059, 0.0333333351
   1386, -0.714285731,  0.176470593, 0.0333333351
   1387, -0.714285731,  0.235294119, 0.0333333351
   1388, -0.714285731,  0.294117659, 0.0333333351
   1389, -0.714285731,  0.352941185, 0.0333333351
   1390, -0.714285731,  0.411764711, 0.0333333351
   1391, -0.714285731,  0.470588237, 0.0333333351
   1392, -0.714285731,  0.529411793, 0.0333333351
   1393, -0.714285731,  0.588235319, 0.0333333351
   1394, -0.714285731,  0.647058845, 0.0333333351
   1395, -0.714285731,   0.70588237, 0.0333333351
   1396, -0.714285731,  0.764705896, 0.0333333351
   1397, -0.714285731,  0.823529422, 0.0333333351
   1398, -0.714285731,  0.882352948, 0.0333333351
   1399, -0.714285731,  0.941176474, 0.0333333351
   1400, -0.714285731,           1., 0.0333333351
   1401, -0.714285731,          -1., 0.0166666675
   1402, -0.714285731, -0.941176474, 0.0166666675
   1403, -0.714285731, -0.882352948, 0.0166666675
   1404, -0.714285731, -0.823529422, 0.0166666675
   1405, -0.714285731, -0.764705896, 0.0166666675
   1406, -0.714285731,  -0.70588237, 0.0166666675
   1407, -0.714285731, -0.647058845, 0.0166666675
   1408, -0.714285731, -0.588235319, 0.0166666675
   1409, -0.714285731, -0.529411793, 0.0166666675
   1410, -0.714285731, -0.470588237, 0.0166666675
   1411, -0.714285731, -0.411764711, 0.0166666675
   1412, -0.714285731, -0.352941185, 0.0166666675
   1413, -0.714285731, -0.294117659, 0.0166666675
   1414, -0.714285731, -0.235294119, 0.0166666675
   1415, -0.714285731, -0.176470593, 0.0166666675
   1416, -0.714285731, -0.117647059, 0.0166666675
   1417, -0.714285731, -0.0588235296, 0.0166666675
   1418, -0.714285731,           0., 0.0166666675
   1419, -0.714285731, 0.0588235296, 0.0166666675
   1420, -0.714285731,  0.117647059, 0.0166666675
   1421, -0.714285731,  0.176470593, 0.0166666675
   1422, -0.714285731,  0.235294119, 0.0166666675
   1423, -0.714285731,  0.294117659, 0.0166666675
   1424, -0.714285731,  0.352941185, 0.0166666675
   1425, -0.714285731,  0.411764711, 0.0166666675
   1426, -0.714285731,  0.470588237, 0.0166666675
   1427, -0.714285731,  0.529411793, 0.0166666675
   1428, -0.714285731,  0.588235319, 0.0166666675
   1429, -0.714285731,  0.647058845, 0.0166666675
   1430, -0.714285731,   0.70588237, 0.0166666675
   1431, -0.714285731,  0.764705896, 0.0166666675
   1432, -0.714285731,  0.823529422, 0.0166666675
   1433, -0.714285731,  0.882352948, 0.0166666675
   1434, -0.714285731,  0.941176474, 0.0166666675
   1435, -0.714285731,           1., 0.0166666675
   1436, -0.714285731,          -1.,           0.
   1437, -0.714285731, -0.941176474,           0.
   1438, -0.714285731, -0.882352948,           0.
   1439, -0.714285731, -0.823529422,           0.
   1440, -0.714285731, -0.764705896,           0.
   1441, -0.714285731,  -0.70588237,           0.
   1442, -0.714285731, -0.647058845,           0.
   1443, -0.714285731, -0.588235319,           0.
   1444, -0.714285731, -0.529411793,           0.
   1445, -0.714285731, -0.470588237,           0.
   1446, -0.714285731, -0.411764711,           0.
   1447, -0.714285731, -0.352941185,           0.
   1448, -0.714285731, -0.294117659,           0.
   1449, -0.714285731, -0.235294119,           0.
   1450, -0.714285731, -0.176470593,           0.
   1451, -0.714285731, -0.117647059,           0.
   1452, -0.714285731, -0.0588235296,           0.
   1453, -0.714285731,           0.,           0.
   1454, -0.714285731, 0.0588235296,           0.
   1455, -0.714285731,  0.117647059,           0.
   1456, -0.714285731,  0.176470593,           0.
   1457, -0.714285731,  0.235294119,           0.
   1458, -0.714285731,  0.294117659,           0.
   1459, -0.714285731,  0.352941185,           0.
   1460, -0.714285731,  0.411764711,           0.
   1461, -0.714285731,  0.470588237,           0.
   1462, -0.714285731,  0.529411793,           0.
   1463, -0.714285731,  0.588235319,           0.
   1464, -0.714285731,  0.647058845,           0.
   1465, -0.714285731,   0.70588237,           0.
   1466, -0.714285731,  0.764705896,           0.
   1467, -0.714285731,  0.823529422,           0.
   1468, -0.714285731,  0.882352948,           0.
   1469, -0.714285731,  0.941176474,           0.
   1470, -0.714285731,           1.,           0.
   1471, -0.657142878,          -1.,  0.100000001
   1472, -0.657142878, -0.941176474,  0.100000001
   1473, -0.657142878, -0.882352948,  0.100000001
   1474, -0.657142878, -0.823529422,  0.100000001
   1475, -0.657142878, -0.764705896,  0.100000001
   1476, -0.657142878,  -0.70588237,  0.100000001
   1477, -0.657142878, -0.647058845,  0.100000001
   1478, -0.657142878, -0.588235319,  0.100000001
   1479, -0.657142878, -0.529411793,  0.100000001
   1480, -0.657142878, -0.470588237,  0.100000001
   1481, -0.657142878, -0.411764711,  0.100000001
   1482, -0.657142878, -0.352941185,  0.100000001
   1483, -0.657142878, -0.294117659,  0.100000001
   1484, -0.657142878, -0.235294119,  0.100000001
   1485, -0.657142878, -0.176470593,  0.100000001
   1486, -0.657142878, -0.117647059,  0.100000001
   1487, -0.657142878, -0.0588235296,  0.100000001
   1488, -0.657142878,           0.,  0.100000001
   1489, -0.657142878, 0.0588235296,  0.100000001
   1490, -0.657142878,  0.117647059,  0.100000001
   1491, -0.657142878,  0.176470593,  0.100000001
   1492, -0.657142878,  0.235294119,  0.100000001
   1493, -0.657142878,  0.294117659,  0.100000001
   1494, -0.657142878,  0.352941185,  0.100000001
   1495, -0.657142878,  0.411764711,  0.100000001
   1496, -0.657142878,  0.470588237,  0.100000001
   1497, -0.657142878,  0.529411793,  0.100000001
   1498, -0.657142878,  0.588235319,  0.100000001
   1499, -0.657142878,  0.647058845,  0.100000001
   1500, -0.657142878,   0.70588237,  0.100000001
   1501, -0.657142878,  0.764705896,  0.100000001
   1502, -0.657142878,  0.823529422,  0.100000001
   1503, -0.657142878,  0.882352948,  0.100000001
   1504, -0.657142878,  0.941176474,  0.100000001
   1505, -0.657142878,           1.,  0.100000001
   1506, -0.657142878,          -1., 0.0833333358
   1507, -0.657142878, -0.941176474, 0.0833333358
   1508, -0.657142878, -0.882352948, 0.0833333358
   1509, -0.657142878, -0.823529422, 0.0833333358
   1510, -0.657142878, -0.764705896, 0.0833333358
   1511, -0.657142878,  -0.70588237, 0.0833333358
   1512, -0.657142878, -0.647058845, 0.0833333358
   1513, -0.657142878, -0.588235319, 0.0833333358
   1514, -0.657142878, -0.529411793, 0.0833333358
   1515, -0.657142878, -0.470588237, 0.0833333358
   1516, -0.657142878, -0.411764711, 0.0833333358
   1517, -0.657142878, -0.352941185, 0.0833333358
   1518, -0.657142878, -0.294117659, 0.0833333358
   1519, -0.657142878, -0.235294119, 0.0833333358
   1520, -0.657142878, -0.176470593, 0.0833333358
   1521, -0.657142878, -0.117647059, 0.0833333358
   1522, -0.657142878, -0.0588235296, 0.0833333358
   1523, -0.657142878,           0., 0.0833333358
   1524, -0.657142878, 0.0588235296, 0.0833333358
   1525, -0.657142878,  0.117647059, 0.0833333358
   1526, -0.657142878,  0.176470593, 0.0833333358
   1527, -0.657142878,  0.235294119, 0.0833333358
   1528, -0.657142878,  0.294117659, 0.0833333358
   1529, -0.657142878,  0.352941185, 0.0833333358
   1530, -0.657142878,  0.411764711, 0.0833333358
   1531, -0.657142878,  0.470588237, 0.0833333358
   1532, -0.657142878,  0.529411793, 0.0833333358
   1533, -0.657142878,  0.588235319, 0.0833333358
   1534, -0.657142878,  0.647058845, 0.0833333358
   1535, -0.657142878,   0.70588237, 0.0833333358
   1536, -0.657142878,  0.764705896, 0.0833333358
   1537, -0.657142878,  0.823529422, 0.0833333358
   1538, -0.657142878,  0.882352948, 0.0833333358
   1539, -0.657142878,  0.941176474, 0.0833333358
   1540, -0.657142878,           1., 0.0833333358
   1541, -0.657142878,          -1., 0.0666666701
   1542, -0.657142878, -0.941176474, 0.0666666701
   1543, -0.657142878, -0.882352948, 0.0666666701
   1544, -0.657142878, -0.823529422, 0.0666666701
   1545, -0.657142878, -0.764705896, 0.0666666701
   1546, -0.657142878,  -0.70588237, 0.0666666701
   1547, -0.657142878, -0.647058845, 0.0666666701
   1548, -0.657142878, -0.588235319, 0.0666666701
   1549, -0.657142878, -0.529411793, 0.0666666701
   1550, -0.657142878, -0.470588237, 0.0666666701
   1551, -0.657142878, -0.411764711, 0.0666666701
   1552, -0.657142878, -0.352941185, 0.0666666701
   1553, -0.657142878, -0.294117659, 0.0666666701
   1554, -0.657142878, -0.235294119, 0.0666666701
   1555, -0.657142878, -0.176470593, 0.0666666701
   1556, -0.657142878, -0.117647059, 0.0666666701
   1557, -0.657142878, -0.0588235296, 0.0666666701
   1558, -0.657142878,           0., 0.0666666701
   1559, -0.657142878, 0.0588235296, 0.0666666701
   1560, -0.657142878,  0.117647059, 0.0666666701
   1561, -0.657142878,  0.176470593, 0.0666666701
   1562, -0.657142878,  0.235294119, 0.0666666701
   1563, -0.657142878,  0.294117659, 0.0666666701
   1564, -0.657142878,  0.352941185, 0.0666666701
   1565, -0.657142878,  0.411764711, 0.0666666701
   1566, -0.657142878,  0.470588237, 0.0666666701
   1567, -0.657142878,  0.529411793, 0.0666666701
   1568, -0.657142878,  0.588235319, 0.0666666701
   1569, -0.657142878,  0.647058845, 0.0666666701
   1570, -0.657142878,   0.70588237, 0.0666666701
   1571, -0.657142878,  0.764705896, 0.0666666701
   1572, -0.657142878,  0.823529422, 0.0666666701
   1573, -0.657142878,  0.882352948, 0.0666666701
   1574, -0.657142878,  0.941176474, 0.0666666701
   1575, -0.657142878,           1., 0.0666666701
   1576, -0.657142878,          -1., 0.0500000007
   1577, -0.657142878, -0.941176474, 0.0500000007
   1578, -0.657142878, -0.882352948, 0.0500000007
   1579, -0.657142878, -0.823529422, 0.0500000007
   1580, -0.657142878, -0.764705896, 0.0500000007
   1581, -0.657142878,  -0.70588237, 0.0500000007
   1582, -0.657142878, -0.647058845, 0.0500000007
   1583, -0.657142878, -0.588235319, 0.0500000007
   1584, -0.657142878, -0.529411793, 0.0500000007
   1585, -0.657142878, -0.470588237, 0.0500000007
   1586, -0.657142878, -0.411764711, 0.0500000007
   1587, -0.657142878, -0.352941185, 0.0500000007
   1588, -0.657142878, -0.294117659, 0.0500000007
   1589, -0.657142878, -0.235294119, 0.0500000007
   1590, -0.657142878, -0.176470593, 0.0500000007
   1591, -0.657142878, -0.117647059, 0.0500000007
   1592, -0.657142878, -0.0588235296, 0.0500000007
   1593, -0.657142878,           0., 0.0500000007
   1594, -0.657142878, 0.0588235296, 0.0500000007
   1595, -0.657142878,  0.117647059, 0.0500000007
   1596, -0.657142878,  0.176470593, 0.0500000007
   1597, -0.657142878,  0.235294119, 0.0500000007
   1598, -0.657142878,  0.294117659, 0.0500000007
   1599, -0.657142878,  0.352941185, 0.0500000007
   1600, -0.657142878,  0.411764711, 0.0500000007
   1601, -0.657142878,  0.470588237, 0.0500000007
   1602, -0.657142878,  0.529411793, 0.0500000007
   1603, -0.657142878,  0.588235319, 0.0500000007
   1604, -0.657142878,  0.647058845, 0.0500000007
   1605, -0.657142878,   0.70588237, 0.0500000007
   1606, -0.657142878,  0.764705896, 0.0500000007
   1607, -0.657142878,  0.823529422, 0.0500000007
   1608, -0.657142878,  0.882352948, 0.0500000007
   1609, -0.657142878,  0.941176474, 0.0500000007
   1610, -0.657142878,           1., 0.0500000007
   1611, -0.657142878,          -1., 0.0333333351
   1612, -0.657142878, -0.941176474, 0.0333333351
   1613, -0.657142878, -0.882352948, 0.0333333351
   1614, -0.657142878, -0.823529422, 0.0333333351
   1615, -0.657142878, -0.764705896, 0.0333333351
   1616, -0.657142878,  -0.70588237, 0.0333333351
   1617, -0.657142878, -0.647058845, 0.0333333351
   1618, -0.657142878, -0.588235319, 0.0333333351
   1619, -0.657142878, -0.529411793, 0.0333333351
   1620, -0.657142878, -0.470588237, 0.0333333351
   1621, -0.657142878, -0.411764711, 0.0333333351
   1622, -0.657142878, -0.352941185, 0.0333333351
   1623, -0.657142878, -0.294117659, 0.0333333351
   1624, -0.657142878, -0.235294119, 0.0333333351
   1625, -0.657142878, -0.176470593, 0.0333333351
   1626, -0.657142878, -0.117647059, 0.0333333351
   1627, -0.657142878, -0.0588235296, 0.0333333351
   1628, -0.657142878,           0., 0.0333333351
   1629, -0.657142878, 0.0588235296, 0.0333333351
   1630, -0.657142878,  0.117647059, 0.0333333351
   1631, -0.657142878,  0.176470593, 0.0333333351
   1632, -0.657142878,  0.235294119, 0.0333333351
   1633, -0.657142878,  0.294117659, 0.0333333351
   1634, -0.657142878,  0.352941185, 0.0333333351
   1635, -0.657142878,  0.411764711, 0.0333333351
   1636, -0.657142878,  0.470588237, 0.0333333351
   1637, -0.657142878,  0.529411793, 0.0333333351
   1638, -0.657142878,  0.588235319, 0.0333333351
   1639, -0.657142878,  0.647058845, 0.0333333351
   1640, -0.657142878,   0.70588237, 0.0333333351
   1641, -0.657142878,  0.764705896, 0.0333333351
   1642, -0.657142878,  0.823529422, 0.0333333351
   1643, -0.657142878,  0.882352948, 0.0333333351
   1644, -0.657142878,  0.941176474, 0.0333333351
   1645, -0.657142878,           1., 0.0333333351
   1646, -0.657142878,          -1., 0.0166666675
   1647, -0.657142878, -0.941176474, 0.0166666675
   1648, -0.657142878, -0.882352948, 0.0166666675
   1649, -0.657142878, -0.823529422, 0.0166666675
   1650, -0.657142878, -0.764705896, 0.0166666675
   1651, -0.657142878,  -0.70588237, 0.0166666675
   1652, -0.657142878, -0.647058845, 0.0166666675
   1653, -0.657142878, -0.588235319, 0.0166666675
   1654, -0.657142878, -0.529411793, 0.0166666675
   1655, -0.657142878, -0.470588237, 0.0166666675
   1656, -0.657142878, -0.411764711, 0.0166666675
   1657, -0.657142878, -0.352941185, 0.0166666675
   1658, -0.657142878, -0.294117659, 0.0166666675
   1659, -0.657142878, -0.235294119, 0.0166666675
   1660, -0.657142878, -0.176470593, 0.0166666675
   1661, -0.657142878, -0.117647059, 0.0166666675
   1662, -0.657142878, -0.0588235296, 0.0166666675
   1663, -0.657142878,           0., 0.0166666675
   1664, -0.657142878, 0.0588235296, 0.0166666675
   1665, -0.657142878,  0.117647059, 0.0166666675
   1666, -0.657142878,  0.176470593, 0.0166666675
   1667, -0.657142878,  0.235294119, 0.0166666675
   1668, -0.657142878,  0.294117659, 0.0166666675
   1669, -0.657142878,  0.352941185, 0.0166666675
   1670, -0.657142878,  0.411764711, 0.0166666675
   1671, -0.657142878,  0.470588237, 0.0166666675
   1672, -0.657142878,  0.529411793, 0.0166666675
   1673, -0.657142878,  0.588235319, 0.0166666675
   1674, -0.657142878,  0.647058845, 0.0166666675
   1675, -0.657142878,   0.70588237, 0.0166666675
   1676, -0.657142878,  0.764705896, 0.0166666675
   1677, -0.657142878,  0.823529422, 0.0166666675
   1678, -0.657142878,  0.882352948, 0.0166666675
   1679, -0.657142878,  0.941176474, 0.0166666675
   1680, -0.657142878,           1., 0.0166666675
   1681, -0.657142878,          -1.,           0.
   1682, -0.657142878, -0.941176474,           0.
   1683, -0.657142878, -0.882352948,           0.
   1684, -0.657142878, -0.823529422,           0.
   1685, -0.657142878, -0.764705896,           0.
   1686, -0.657142878,  -0.70588237,           0.
   1687, -0.657142878, -0.647058845,           0.
   1688, -0.657142878, -0.588235319,           0.
   1689, -0.657142878, -0.529411793,           0.
   1690, -0.657142878, -0.470588237,           0.
   1691, -0.657142878, -0.411764711,           0.
   1692, -0.657142878, -0.352941185,           0.
   1693, -0.657142878, -0.294117659,           0.
   1694, -0.657142878, -0.235294119,           0.
   1695, -0.657142878, -0.176470593,           0.
   1696, -0.657142878, -0.117647059,           0.
   1697, -0.657142878, -0.0588235296,           0.
   1698, -0.657142878,           0.,           0.
   1699, -0.657142878, 0.0588235296,           0.
   1700, -0.657142878,  0.117647059,           0.
   1701, -0.657142878,  0.176470593,           0.
   1702, -0.657142878,  0.235294119,           0.
   1703, -0.657142878,  0.294117659,           0.
   1704, -0.657142878,  0.352941185,           0.
   1705, -0.657142878,  0.411764711,           0.
   1706, -0.657142878,  0.470588237,           0.
   1707, -0.657142878,  0.529411793,           0.
   1708, -0.657142878,  0.588235319,           0.
   1709, -0.657142878,  0.647058845,           0.
   1710, -0.657142878,   0.70588237,           0.
   1711, -0.657142878,  0.764705896,           0.
   1712, -0.657142878,  0.823529422,           0.
   1713, -0.657142878,  0.882352948,           0.
   1714, -0.657142878,  0.941176474,           0.
   1715, -0.657142878,           1.,           0.
   1716, -0.600000024,          -1.,  0.100000001
   1717, -0.600000024, -0.941176474,  0.100000001
   1718, -0.600000024, -0.882352948,  0.100000001
   1719, -0.600000024, -0.823529422,  0.100000001
   1720, -0.600000024, -0.764705896,  0.100000001
   1721, -0.600000024,  -0.70588237,  0.100000001
   1722, -0.600000024, -0.647058845,  0.100000001
   1723, -0.600000024, -0.588235319,  0.100000001
   1724, -0.600000024, -0.529411793,  0.100000001
   1725, -0.600000024, -0.470588237,  0.100000001
   1726, -0.600000024, -0.411764711,  0.100000001
   1727, -0.600000024, -0.352941185,  0.100000001
   1728, -0.600000024, -0.294117659,  0.100000001
   1729, -0.600000024, -0.235294119,  0.100000001
   1730, -0.600000024, -0.176470593,  0.100000001
   1731, -0.600000024, -0.117647059,  0.100000001
   1732, -0.600000024, -0.0588235296,  0.100000001
   1733, -0.600000024,           0.,  0.100000001
   1734, -0.600000024, 0.0588235296,  0.100000001
   1735, -0.600000024,  0.117647059,  0.100000001
   1736, -0.600000024,  0.176470593,  0.100000001
   1737, -0.600000024,  0.235294119,  0.100000001
   1738, -0.600000024,  0.294117659,  0.100000001
   1739, -0.600000024,  0.352941185,  0.100000001
   1740, -0.600000024,  0.411764711,  0.100000001
   1741, -0.600000024,  0.470588237,  0.100000001
   1742, -0.600000024,  0.529411793,  0.100000001
   1743, -0.600000024,  0.588235319,  0.100000001
   1744, -0.600000024,  0.647058845,  0.100000001
   1745, -0.600000024,   0.70588237,  0.100000001
   1746, -0.600000024,  0.764705896,  0.100000001
   1747, -0.600000024,  0.823529422,  0.100000001
   1748, -0.600000024,  0.882352948,  0.100000001
   1749, -0.600000024,  0.941176474,  0.100000001
   1750, -0.600000024,           1.,  0.100000001
   1751, -0.600000024,          -1., 0.0833333358
   1752, -0.600000024, -0.941176474, 0.0833333358
   1753, -0.600000024, -0.882352948, 0.0833333358
   1754, -0.600000024, -0.823529422, 0.0833333358
   1755, -0.600000024, -0.764705896, 0.0833333358
   1756, -0.600000024,  -0.70588237, 0.0833333358
   1757, -0.600000024, -0.647058845, 0.0833333358
   1758, -0.600000024, -0.588235319, 0.0833333358
   1759, -0.600000024, -0.529411793, 0.0833333358
   1760, -0.600000024, -0.470588237, 0.0833333358
   1761, -0.600000024, -0.411764711, 0.0833333358
   1762, -0.600000024, -0.352941185, 0.0833333358
   1763, -0.600000024, -0.294117659, 0.0833333358
   1764, -0.600000024, -0.235294119, 0.0833333358
   1765, -0.600000024, -0.176470593, 0.0833333358
   1766, -0.600000024, -0.117647059, 0.0833333358
   1767, -0.600000024, -0.0588235296, 0.0833333358
   1768, -0.600000024,           0., 0.0833333358
   1769, -0.600000024, 0.0588235296, 0.0833333358
   1770, -0.600000024,  0.117647059, 0.0833333358
   1771, -0.600000024,  0.176470593, 0.0833333358
   1772, -0.600000024,  0.235294119, 0.0833333358
   1773, -0.600000024,  0.294117659, 0.0833333358
   1774, -0.600000024,  0.352941185, 0.0833333358
   1775, -0.600000024,  0.411764711, 0.0833333358
   1776, -0.600000024,  0.470588237, 0.0833333358
   1777, -0.600000024,  0.529411793, 0.0833333358
   1778, -0.600000024,  0.588235319, 0.0833333358
   1779, -0.600000024,  0.647058845, 0.0833333358
   1780, -0.600000024,   0.70588237, 0.0833333358
   1781, -0.600000024,  0.764705896, 0.0833333358
   1782, -0.600000024,  0.823529422, 0.0833333358
   1783, -0.600000024,  0.882352948, 0.0833333358
   1784, -0.600000024,  0.941176474, 0.0833333358
   1785, -0.600000024,           1., 0.0833333358
   1786, -0.600000024,          -1., 0.0666666701
   1787, -0.600000024, -0.941176474, 0.0666666701
   1788, -0.600000024, -0.882352948, 0.0666666701
   1789, -0.600000024, -0.823529422, 0.0666666701
   1790, -0.600000024, -0.764705896, 0.0666666701
   1791, -0.600000024,  -0.70588237, 0.0666666701
   1792, -0.600000024, -0.647058845, 0.0666666701
   1793, -0.600000024, -0.588235319, 0.0666666701
   1794, -0.600000024, -0.529411793, 0.0666666701
   1795, -0.600000024, -0.470588237, 0.0666666701
   1796, -0.600000024, -0.411764711, 0.0666666701
   1797, -0.600000024, -0.352941185, 0.0666666701
   1798, -0.600000024, -0.294117659, 0.0666666701
   1799, -0.600000024, -0.235294119, 0.0666666701
   1800, -0.600000024, -0.176470593, 0.0666666701
   1801, -0.600000024, -0.117647059, 0.0666666701
   1802, -0.600000024, -0.0588235296, 0.0666666701
   1803, -0.600000024,           0., 0.0666666701
   1804, -0.600000024, 0.0588235296, 0.0666666701
   1805, -0.600000024,  0.117647059, 0.0666666701
   1806, -0.600000024,  0.176470593, 0.0666666701
   1807, -0.600000024,  0.235294119, 0.0666666701
   1808, -0.600000024,  0.294117659, 0.0666666701
   1809, -0.600000024,  0.352941185, 0.0666666701
   1810, -0.600000024,  0.411764711, 0.0666666701
   1811, -0.600000024,  0.470588237, 0.0666666701
   1812, -0.600000024,  0.529411793, 0.0666666701
   1813, -0.600000024,  0.588235319, 0.0666666701
   1814, -0.600000024,  0.647058845, 0.0666666701
   1815, -0.600000024,   0.70588237, 0.0666666701
   1816, -0.600000024,  0.764705896, 0.0666666701
   1817, -0.600000024,  0.823529422, 0.0666666701
   1818, -0.600000024,  0.882352948, 0.0666666701
   1819, -0.600000024,  0.941176474, 0.0666666701
   1820, -0.600000024,           1., 0.0666666701
   1821, -0.600000024,          -1., 0.0500000007
   1822, -0.600000024, -0.941176474, 0.0500000007
   1823, -0.600000024, -0.882352948, 0.0500000007
   1824, -0.600000024, -0.823529422, 0.0500000007
   1825, -0.600000024, -0.764705896, 0.0500000007
   1826, -0.600000024,  -0.70588237, 0.0500000007
   1827, -0.600000024, -0.647058845, 0.0500000007
   1828, -0.600000024, -0.588235319, 0.0500000007
   1829, -0.600000024, -0.529411793, 0.0500000007
   1830, -0.600000024, -0.470588237, 0.0500000007
   1831, -0.600000024, -0.411764711, 0.0500000007
   1832, -0.600000024, -0.352941185, 0.0500000007
   1833, -0.600000024, -0.294117659, 0.0500000007
   1834, -0.600000024, -0.235294119, 0.0500000007
   1835, -0.600000024, -0.176470593, 0.0500000007
   1836, -0.600000024, -0.117647059, 0.0500000007
   1837, -0.600000024, -0.0588235296, 0.0500000007
   1838, -0.600000024,           0., 0.0500000007
   1839, -0.600000024, 0.0588235296, 0.0500000007
   1840, -0.600000024,  0.117647059, 0.0500000007
   1841, -0.600000024,  0.176470593, 0.0500000007
   1842, -0.600000024,  0.235294119, 0.0500000007
   1843, -0.600000024,  0.294117659, 0.0500000007
   1844, -0.600000024,  0.352941185, 0.0500000007
   1845, -0.600000024,  0.411764711, 0.0500000007
   1846, -0.600000024,  0.470588237, 0.0500000007
   1847, -0.600000024,  0.529411793, 0.0500000007
   1848, -0.600000024,  0.588235319, 0.0500000007
   1849, -0.600000024,  0.647058845, 0.0500000007
   1850, -0.600000024,   0.70588237, 0.0500000007
   1851, -0.600000024,  0.764705896, 0.0500000007
   1852, -0.600000024,  0.823529422, 0.0500000007
   1853, -0.600000024,  0.882352948, 0.0500000007
   1854, -0.600000024,  0.941176474, 0.0500000007
   1855, -0.600000024,           1., 0.0500000007
   1856, -0.600000024,          -1., 0.0333333351
   1857, -0.600000024, -0.941176474, 0.0333333351
   1858, -0.600000024, -0.882352948, 0.0333333351
   1859, -0.600000024, -0.823529422, 0.0333333351
   1860, -0.600000024, -0.764705896, 0.0333333351
   1861, -0.600000024,  -0.70588237, 0.0333333351
   1862, -0.600000024, -0.647058845, 0.0333333351
   1863, -0.600000024, -0.588235319, 0.0333333351
   1864, -0.600000024, -0.529411793, 0.0333333351
   1865, -0.600000024, -0.470588237, 0.0333333351
   1866, -0.600000024, -0.411764711, 0.0333333351
   1867, -0.600000024, -0.352941185, 0.0333333351
   1868, -0.600000024, -0.294117659, 0.0333333351
   1869, -0.600000024, -0.235294119, 0.0333333351
   1870, -0.600000024, -0.176470593, 0.0333333351
   1871, -0.600000024, -0.117647059, 0.0333333351
   1872, -0.600000024, -0.0588235296, 0.0333333351
   1873, -0.600000024,           0., 0.0333333351
   1874, -0.600000024, 0.0588235296, 0.0333333351
   1875, -0.600000024,  0.117647059, 0.0333333351
   1876, -0.600000024,  0.176470593, 0.0333333351
   1877, -0.600000024,  0.235294119, 0.0333333351
   1878, -0.600000024,  0.294117659, 0.0333333351
   1879, -0.600000024,  0.352941185, 0.0333333351
   1880, -0.600000024,  0.411764711, 0.0333333351
   1881, -0.600000024,  0.470588237, 0.0333333351
   1882, -0.600000024,  0.529411793, 0.0333333351
   1883, -0.600000024,  0.588235319, 0.0333333351
   1884, -0.600000024,  0.647058845, 0.0333333351
   1885, -0.600000024,   0.70588237, 0.0333333351
   1886, -0.600000024,  0.764705896, 0.0333333351
   1887, -0.600000024,  0.823529422, 0.0333333351
   1888, -0.600000024,  0.882352948, 0.0333333351
   1889, -0.600000024,  0.941176474, 0.0333333351
   1890, -0.600000024,           1., 0.0333333351
   1891, -0.600000024,          -1., 0.0166666675
   1892, -0.600000024, -0.941176474, 0.0166666675
   1893, -0.600000024, -0.882352948, 0.0166666675
   1894, -0.600000024, -0.823529422, 0.0166666675
   1895, -0.600000024, -0.764705896, 0.0166666675
   1896, -0.600000024,  -0.70588237, 0.0166666675
   1897, -0.600000024, -0.647058845, 0.0166666675
   1898, -0.600000024, -0.588235319, 0.0166666675
   1899, -0.600000024, -0.529411793, 0.0166666675
   1900, -0.600000024, -0.470588237, 0.0166666675
   1901, -0.600000024, -0.411764711, 0.0166666675
   1902, -0.600000024, -0.352941185, 0.0166666675
   1903, -0.600000024, -0.294117659, 0.0166666675
   1904, -0.600000024, -0.235294119, 0.0166666675
   1905, -0.600000024, -0.176470593, 0.0166666675
   1906, -0.600000024, -0.117647059, 0.0166666675
   1907, -0.600000024, -0.0588235296, 0.0166666675
   1908, -0.600000024,           0., 0.0166666675
   1909, -0.600000024, 0.0588235296, 0.0166666675
   1910, -0.600000024,  0.117647059, 0.0166666675
   1911, -0.600000024,  0.176470593, 0.0166666675
   1912, -0.600000024,  0.235294119, 0.0166666675
   1913, -0.600000024,  0.294117659, 0.0166666675
   1914, -0.600000024,  0.352941185, 0.0166666675
   1915, -0.600000024,  0.411764711, 0.0166666675
   1916, -0.600000024,  0.470588237, 0.0166666675
   1917, -0.600000024,  0.529411793, 0.0166666675
   1918, -0.600000024,  0.588235319, 0.0166666675
   1919, -0.600000024,  0.647058845, 0.0166666675
   1920, -0.600000024,   0.70588237, 0.0166666675
   1921, -0.600000024,  0.764705896, 0.0166666675
   1922, -0.600000024,  0.823529422, 0.0166666675
   1923, -0.600000024,  0.882352948, 0.0166666675
   1924, -0.600000024,  0.941176474, 0.0166666675
   1925, -0.600000024,           1., 0.0166666675
   1926, -0.600000024,          -1.,           0.
   1927, -0.600000024, -0.941176474,           0.
   1928, -0.600000024, -0.882352948,           0.
   1929, -0.600000024, -0.823529422,           0.
   1930, -0.600000024, -0.764705896,           0.
   1931, -0.600000024,  -0.70588237,           0.
   1932, -0.600000024, -0.647058845,           0.
   1933, -0.600000024, -0.588235319,           0.
   1934, -0.600000024, -0.529411793,           0.
   1935, -0.600000024, -0.470588237,           0.
   1936, -0.600000024, -0.411764711,           0.
   1937, -0.600000024, -0.352941185,           0.
   1938, -0.600000024, -0.294117659,           0.
   1939, -0.600000024, -0.235294119,           0.
   1940, -0.600000024, -0.176470593,           0.
   1941, -0.600000024, -0.117647059,           0.
   1942, -0.600000024, -0.0588235296,           0.
   1943, -0.600000024,           0.,           0.
   1944, -0.600000024, 0.0588235296,           0.
   1945, -0.600000024,  0.117647059,           0.
   1946, -0.600000024,  0.176470593,           0.
   1947, -0.600000024,  0.235294119,           0.
   1948, -0.600000024,  0.294117659,           0.
   1949, -0.600000024,  0.352941185,           0.
   1950, -0.600000024,  0.411764711,           0.
   1951, -0.600000024,  0.470588237,           0.
   1952, -0.600000024,  0.529411793,           0.
   1953, -0.600000024,  0.588235319,           0.
   1954, -0.600000024,  0.647058845,           0.
   1955, -0.600000024,   0.70588237,           0.
   1956, -0.600000024,  0.764705896,           0.
   1957, -0.600000024,  0.823529422,           0.
   1958, -0.600000024,  0.882352948,           0.
   1959, -0.600000024,  0.941176474,           0.
   1960, -0.600000024,           1.,           0.
   1961,  -0.54285717,          -1.,  0.100000001
   1962,  -0.54285717, -0.941176474,  0.100000001
   1963,  -0.54285717, -0.882352948,  0.100000001
   1964,  -0.54285717, -0.823529422,  0.100000001
   1965,  -0.54285717, -0.764705896,  0.100000001
   1966,  -0.54285717,  -0.70588237,  0.100000001
   1967,  -0.54285717, -0.647058845,  0.100000001
   1968,  -0.54285717, -0.588235319,  0.100000001
   1969,  -0.54285717, -0.529411793,  0.100000001
   1970,  -0.54285717, -0.470588237,  0.100000001
   1971,  -0.54285717, -0.411764711,  0.100000001
   1972,  -0.54285717, -0.352941185,  0.100000001
   1973,  -0.54285717, -0.294117659,  0.100000001
   1974,  -0.54285717, -0.235294119,  0.100000001
   1975,  -0.54285717, -0.176470593,  0.100000001
   1976,  -0.54285717, -0.117647059,  0.100000001
   1977,  -0.54285717, -0.0588235296,  0.100000001
   1978,  -0.54285717,           0.,  0.100000001
   1979,  -0.54285717, 0.0588235296,  0.100000001
   1980,  -0.54285717,  0.117647059,  0.100000001
   1981,  -0.54285717,  0.176470593,  0.100000001
   1982,  -0.54285717,  0.235294119,  0.100000001
   1983,  -0.54285717,  0.294117659,  0.100000001
   1984,  -0.54285717,  0.352941185,  0.100000001
   1985,  -0.54285717,  0.411764711,  0.100000001
   1986,  -0.54285717,  0.470588237,  0.100000001
   1987,  -0.54285717,  0.529411793,  0.100000001
   1988,  -0.54285717,  0.588235319,  0.100000001
   1989,  -0.54285717,  0.647058845,  0.100000001
   1990,  -0.54285717,   0.70588237,  0.100000001
   1991,  -0.54285717,  0.764705896,  0.100000001
   1992,  -0.54285717,  0.823529422,  0.100000001
   1993,  -0.54285717,  0.882352948,  0.100000001
   1994,  -0.54285717,  0.941176474,  0.100000001
   1995,  -0.54285717,           1.,  0.100000001
   1996,  -0.54285717,          -1., 0.0833333358
   1997,  -0.54285717, -0.941176474, 0.0833333358
   1998,  -0.54285717, -0.882352948, 0.0833333358
   1999,  -0.54285717, -0.823529422, 0.0833333358
   2000,  -0.54285717, -0.764705896, 0.0833333358
   2001,  -0.54285717,  -0.70588237, 0.0833333358
   2002,  -0.54285717, -0.647058845, 0.0833333358
   2003,  -0.54285717, -0.588235319, 0.0833333358
   2004,  -0.54285717, -0.529411793, 0.0833333358
   2005,  -0.54285717, -0.470588237, 0.0833333358
   2006,  -0.54285717, -0.411764711, 0.0833333358
   2007,  -0.54285717, -0.352941185, 0.0833333358
   2008,  -0.54285717, -0.294117659, 0.0833333358
   2009,  -0.54285717, -0.235294119, 0.0833333358
   2010,  -0.54285717, -0.176470593, 0.0833333358
   2011,  -0.54285717, -0.117647059, 0.0833333358
   2012,  -0.54285717, -0.0588235296, 0.0833333358
   2013,  -0.54285717,           0., 0.0833333358
   2014,  -0.54285717, 0.0588235296, 0.0833333358
   2015,  -0.54285717,  0.117647059, 0.0833333358
   2016,  -0.54285717,  0.176470593, 0.0833333358
   2017,  -0.54285717,  0.235294119, 0.0833333358
   2018,  -0.54285717,  0.294117659, 0.0833333358
   2019,  -0.54285717,  0.352941185, 0.0833333358
   2020,  -0.54285717,  0.411764711, 0.0833333358
   2021,  -0.54285717,  0.470588237, 0.0833333358
   2022,  -0.54285717,  0.529411793, 0.0833333358
   2023,  -0.54285717,  0.588235319, 0.0833333358
   2024,  -0.54285717,  0.647058845, 0.0833333358
   2025,  -0.54285717,   0.70588237, 0.0833333358
   2026,  -0.54285717,  0.764705896, 0.0833333358
   2027,  -0.54285717,  0.823529422, 0.0833333358
   2028,  -0.54285717,  0.882352948, 0.0833333358
   2029,  -0.54285717,  0.941176474, 0.0833333358
   2030,  -0.54285717,           1., 0.0833333358
   2031,  -0.54285717,          -1., 0.0666666701
   2032,  -0.54285717, -0.941176474, 0.0666666701
   2033,  -0.54285717, -0.882352948, 0.0666666701
   2034,  -0.54285717, -0.823529422, 0.0666666701
   2035,  -0.54285717, -0.764705896, 0.0666666701
   2036,  -0.54285717,  -0.70588237, 0.0666666701
   2037,  -0.54285717, -0.647058845, 0.0666666701
   2038,  -0.54285717, -0.588235319, 0.0666666701
   2039,  -0.54285717, -0.529411793, 0.0666666701
   2040,  -0.54285717, -0.470588237, 0.0666666701
   2041,  -0.54285717, -0.411764711, 0.0666666701
   2042,  -0.54285717, -0.352941185, 0.0666666701
   2043,  -0.54285717, -0.294117659, 0.0666666701
   2044,  -0.54285717, -0.235294119, 0.0666666701
   2045,  -0.54285717, -0.176470593, 0.0666666701
   2046,  -0.54285717, -0.117647059, 0.0666666701
   2047,  -0.54285717, -0.0588235296, 0.0666666701
   2048,  -0.54285717,           0., 0.0666666701
   2049,  -0.54285717, 0.0588235296, 0.0666666701
   2050,  -0.54285717,  0.117647059, 0.0666666701
   2051,  -0.54285717,  0.176470593, 0.0666666701
   2052,  -0.54285717,  0.235294119, 0.0666666701
   2053,  -0.54285717,  0.294117659, 0.0666666701
   2054,  -0.54285717,  0.352941185, 0.0666666701
   2055,  -0.54285717,  0.411764711, 0.0666666701
   2056,  -0.54285717,  0.470588237, 0.0666666701
   2057,  -0.54285717,  0.529411793, 0.0666666701
   2058,  -0.54285717,  0.588235319, 0.0666666701
   2059,  -0.54285717,  0.647058845, 0.0666666701
   2060,  -0.54285717,   0.70588237, 0.0666666701
   2061,  -0.54285717,  0.764705896, 0.0666666701
   2062,  -0.54285717,  0.823529422, 0.0666666701
   2063,  -0.54285717,  0.882352948, 0.0666666701
   2064,  -0.54285717,  0.941176474, 0.0666666701
   2065,  -0.54285717,           1., 0.0666666701
   2066,  -0.54285717,          -1., 0.0500000007
   2067,  -0.54285717, -0.941176474, 0.0500000007
   2068,  -0.54285717, -0.882352948, 0.0500000007
   2069,  -0.54285717, -0.823529422, 0.0500000007
   2070,  -0.54285717, -0.764705896, 0.0500000007
   2071,  -0.54285717,  -0.70588237, 0.0500000007
   2072,  -0.54285717, -0.647058845, 0.0500000007
   2073,  -0.54285717, -0.588235319, 0.0500000007
   2074,  -0.54285717, -0.529411793, 0.0500000007
   2075,  -0.54285717, -0.470588237, 0.0500000007
   2076,  -0.54285717, -0.411764711, 0.0500000007
   2077,  -0.54285717, -0.352941185, 0.0500000007
   2078,  -0.54285717, -0.294117659, 0.0500000007
   2079,  -0.54285717, -0.235294119, 0.0500000007
   2080,  -0.54285717, -0.176470593, 0.0500000007
   2081,  -0.54285717, -0.117647059, 0.0500000007
   2082,  -0.54285717, -0.0588235296, 0.0500000007
   2083,  -0.54285717,           0., 0.0500000007
   2084,  -0.54285717, 0.0588235296, 0.0500000007
   2085,  -0.54285717,  0.117647059, 0.0500000007
   2086,  -0.54285717,  0.176470593, 0.0500000007
   2087,  -0.54285717,  0.235294119, 0.0500000007
   2088,  -0.54285717,  0.294117659, 0.0500000007
   2089,  -0.54285717,  0.352941185, 0.0500000007
   2090,  -0.54285717,  0.411764711, 0.0500000007
   2091,  -0.54285717,  0.470588237, 0.0500000007
   2092,  -0.54285717,  0.529411793, 0.0500000007
   2093,  -0.54285717,  0.588235319, 0.0500000007
   2094,  -0.54285717,  0.647058845, 0.0500000007
   2095,  -0.54285717,   0.70588237, 0.0500000007
   2096,  -0.54285717,  0.764705896, 0.0500000007
   2097,  -0.54285717,  0.823529422, 0.0500000007
   2098,  -0.54285717,  0.882352948, 0.0500000007
   2099,  -0.54285717,  0.941176474, 0.0500000007
   2100,  -0.54285717,           1., 0.0500000007
   2101,  -0.54285717,          -1., 0.0333333351
   2102,  -0.54285717, -0.941176474, 0.0333333351
   2103,  -0.54285717, -0.882352948, 0.0333333351
   2104,  -0.54285717, -0.823529422, 0.0333333351
   2105,  -0.54285717, -0.764705896, 0.0333333351
   2106,  -0.54285717,  -0.70588237, 0.0333333351
   2107,  -0.54285717, -0.647058845, 0.0333333351
   2108,  -0.54285717, -0.588235319, 0.0333333351
   2109,  -0.54285717, -0.529411793, 0.0333333351
   2110,  -0.54285717, -0.470588237, 0.0333333351
   2111,  -0.54285717, -0.411764711, 0.0333333351
   2112,  -0.54285717, -0.352941185, 0.0333333351
   2113,  -0.54285717, -0.294117659, 0.0333333351
   2114,  -0.54285717, -0.235294119, 0.0333333351
   2115,  -0.54285717, -0.176470593, 0.0333333351
   2116,  -0.54285717, -0.117647059, 0.0333333351
   2117,  -0.54285717, -0.0588235296, 0.0333333351
   2118,  -0.54285717,           0., 0.0333333351
   2119,  -0.54285717, 0.0588235296, 0.0333333351
   2120,  -0.54285717,  0.117647059, 0.0333333351
   2121,  -0.54285717,  0.176470593, 0.0333333351
   2122,  -0.54285717,  0.235294119, 0.0333333351
   2123,  -0.54285717,  0.294117659, 0.0333333351
   2124,  -0.54285717,  0.352941185, 0.0333333351
   2125,  -0.54285717,  0.411764711, 0.0333333351
   2126,  -0.54285717,  0.470588237, 0.0333333351
   2127,  -0.54285717,  0.529411793, 0.0333333351
   2128,  -0.54285717,  0.588235319, 0.0333333351
   2129,  -0.54285717,  0.647058845, 0.0333333351
   2130,  -0.54285717,   0.70588237, 0.0333333351
   2131,  -0.54285717,  0.764705896, 0.0333333351
   2132,  -0.54285717,  0.823529422, 0.0333333351
   2133,  -0.54285717,  0.882352948, 0.0333333351
   2134,  -0.54285717,  0.941176474, 0.0333333351
   2135,  -0.54285717,           1., 0.0333333351
   2136,  -0.54285717,          -1., 0.0166666675
   2137,  -0.54285717, -0.941176474, 0.0166666675
   2138,  -0.54285717, -0.882352948, 0.0166666675
   2139,  -0.54285717, -0.823529422, 0.0166666675
   2140,  -0.54285717, -0.764705896, 0.0166666675
   2141,  -0.54285717,  -0.70588237, 0.0166666675
   2142,  -0.54285717, -0.647058845, 0.0166666675
   2143,  -0.54285717, -0.588235319, 0.0166666675
   2144,  -0.54285717, -0.529411793, 0.0166666675
   2145,  -0.54285717, -0.470588237, 0.0166666675
   2146,  -0.54285717, -0.411764711, 0.0166666675
   2147,  -0.54285717, -0.352941185, 0.0166666675
   2148,  -0.54285717, -0.294117659, 0.0166666675
   2149,  -0.54285717, -0.235294119, 0.0166666675
   2150,  -0.54285717, -0.176470593, 0.0166666675
   2151,  -0.54285717, -0.117647059, 0.0166666675
   2152,  -0.54285717, -0.0588235296, 0.0166666675
   2153,  -0.54285717,           0., 0.0166666675
   2154,  -0.54285717, 0.0588235296, 0.0166666675
   2155,  -0.54285717,  0.117647059, 0.0166666675
   2156,  -0.54285717,  0.176470593, 0.0166666675
   2157,  -0.54285717,  0.235294119, 0.0166666675
   2158,  -0.54285717,  0.294117659, 0.0166666675
   2159,  -0.54285717,  0.352941185, 0.0166666675
   2160,  -0.54285717,  0.411764711, 0.0166666675
   2161,  -0.54285717,  0.470588237, 0.0166666675
   2162,  -0.54285717,  0.529411793, 0.0166666675
   2163,  -0.54285717,  0.588235319, 0.0166666675
   2164,  -0.54285717,  0.647058845, 0.0166666675
   2165,  -0.54285717,   0.70588237, 0.0166666675
   2166,  -0.54285717,  0.764705896, 0.0166666675
   2167,  -0.54285717,  0.823529422, 0.0166666675
   2168,  -0.54285717,  0.882352948, 0.0166666675
   2169,  -0.54285717,  0.941176474, 0.0166666675
   2170,  -0.54285717,           1., 0.0166666675
   2171,  -0.54285717,          -1.,           0.
   2172,  -0.54285717, -0.941176474,           0.
   2173,  -0.54285717, -0.882352948,           0.
   2174,  -0.54285717, -0.823529422,           0.
   2175,  -0.54285717, -0.764705896,           0.
   2176,  -0.54285717,  -0.70588237,           0.
   2177,  -0.54285717, -0.647058845,           0.
   2178,  -0.54285717, -0.588235319,           0.
   2179,  -0.54285717, -0.529411793,           0.
   2180,  -0.54285717, -0.470588237,           0.
   2181,  -0.54285717, -0.411764711,           0.
   2182,  -0.54285717, -0.352941185,           0.
   2183,  -0.54285717, -0.294117659,           0.
   2184,  -0.54285717, -0.235294119,           0.
   2185,  -0.54285717, -0.176470593,           0.
   2186,  -0.54285717, -0.117647059,           0.
   2187,  -0.54285717, -0.0588235296,           0.
   2188,  -0.54285717,           0.,           0.
   2189,  -0.54285717, 0.0588235296,           0.
   2190,  -0.54285717,  0.117647059,           0.
   2191,  -0.54285717,  0.176470593,           0.
   2192,  -0.54285717,  0.235294119,           0.
   2193,  -0.54285717,  0.294117659,           0.
   2194,  -0.54285717,  0.352941185,           0.
   2195,  -0.54285717,  0.411764711,           0.
   2196,  -0.54285717,  0.470588237,           0.
   2197,  -0.54285717,  0.529411793,           0.
   2198,  -0.54285717,  0.588235319,           0.
   2199,  -0.54285717,  0.647058845,           0.
   2200,  -0.54285717,   0.70588237,           0.
   2201,  -0.54285717,  0.764705896,           0.
   2202,  -0.54285717,  0.823529422,           0.
   2203,  -0.54285717,  0.882352948,           0.
   2204,  -0.54285717,  0.941176474,           0.
   2205,  -0.54285717,           1.,           0.
   2206, -0.485714287,          -1.,  0.100000001
   2207, -0.485714287, -0.941176474,  0.100000001
   2208, -0.485714287, -0.882352948,  0.100000001
   2209, -0.485714287, -0.823529422,  0.100000001
   2210, -0.485714287, -0.764705896,  0.100000001
   2211, -0.485714287,  -0.70588237,  0.100000001
   2212, -0.485714287, -0.647058845,  0.100000001
   2213, -0.485714287, -0.588235319,  0.100000001
   2214, -0.485714287, -0.529411793,  0.100000001
   2215, -0.485714287, -0.470588237,  0.100000001
   2216, -0.485714287, -0.411764711,  0.100000001
   2217, -0.485714287, -0.352941185,  0.100000001
   2218, -0.485714287, -0.294117659,  0.100000001
   2219, -0.485714287, -0.235294119,  0.100000001
   2220, -0.485714287, -0.176470593,  0.100000001
   2221, -0.485714287, -0.117647059,  0.100000001
   2222, -0.485714287, -0.0588235296,  0.100000001
   2223, -0.485714287,           0.,  0.100000001
   2224, -0.485714287, 0.0588235296,  0.100000001
   2225, -0.485714287,  0.117647059,  0.100000001
   2226, -0.485714287,  0.176470593,  0.100000001
   2227, -0.485714287,  0.235294119,  0.100000001
   2228, -0.485714287,  0.294117659,  0.100000001
   2229, -0.485714287,  0.352941185,  0.100000001
   2230, -0.485714287,  0.411764711,  0.100000001
   2231, -0.485714287,  0.470588237,  0.100000001
   2232, -0.485714287,  0.529411793,  0.100000001
   2233, -0.485714287,  0.588235319,  0.100000001
   2234, -0.485714287,  0.647058845,  0.100000001
   2235, -0.485714287,   0.70588237,  0.100000001
   2236, -0.485714287,  0.764705896,  0.100000001
   2237, -0.485714287,  0.823529422,  0.100000001
   2238, -0.485714287,  0.882352948,  0.100000001
   2239, -0.485714287,  0.941176474,  0.100000001
   2240, -0.485714287,           1.,  0.100000001
   2241, -0.485714287,          -1., 0.0833333358
   2242, -0.485714287, -0.941176474, 0.0833333358
   2243, -0.485714287, -0.882352948, 0.0833333358
   2244, -0.485714287, -0.823529422, 0.0833333358
   2245, -0.485714287, -0.764705896, 0.0833333358
   2246, -0.485714287,  -0.70588237, 0.0833333358
   2247, -0.485714287, -0.647058845, 0.0833333358
   2248, -0.485714287, -0.588235319, 0.0833333358
   2249, -0.485714287, -0.529411793, 0.0833333358
   2250, -0.485714287, -0.470588237, 0.0833333358
   2251, -0.485714287, -0.411764711, 0.0833333358
   2252, -0.485714287, -0.352941185, 0.0833333358
   2253, -0.485714287, -0.294117659, 0.0833333358
   2254, -0.485714287, -0.235294119, 0.0833333358
   2255, -0.485714287, -0.176470593, 0.0833333358
   2256, -0.485714287, -0.117647059, 0.0833333358
   2257, -0.485714287, -0.0588235296, 0.0833333358
   2258, -0.485714287,           0., 0.0833333358
   2259, -0.485714287, 0.0588235296, 0.0833333358
   2260, -0.485714287,  0.117647059, 0.0833333358
   2261, -0.485714287,  0.176470593, 0.0833333358
   2262, -0.485714287,  0.235294119, 0.0833333358
   2263, -0.485714287,  0.294117659, 0.0833333358
   2264, -0.485714287,  0.352941185, 0.0833333358
   2265, -0.485714287,  0.411764711, 0.0833333358
   2266, -0.485714287,  0.470588237, 0.0833333358
   2267, -0.485714287,  0.529411793, 0.0833333358
   2268, -0.485714287,  0.588235319, 0.0833333358
   2269, -0.485714287,  0.647058845, 0.0833333358
   2270, -0.485714287,   0.70588237, 0.0833333358
   2271, -0.485714287,  0.764705896, 0.0833333358
   2272, -0.485714287,  0.823529422, 0.0833333358
   2273, -0.485714287,  0.882352948, 0.0833333358
   2274, -0.485714287,  0.941176474, 0.0833333358
   2275, -0.485714287,           1., 0.0833333358
   2276, -0.485714287,          -1., 0.0666666701
   2277, -0.485714287, -0.941176474, 0.0666666701
   2278, -0.485714287, -0.882352948, 0.0666666701
   2279, -0.485714287, -0.823529422, 0.0666666701
   2280, -0.485714287, -0.764705896, 0.0666666701
   2281, -0.485714287,  -0.70588237, 0.0666666701
   2282, -0.485714287, -0.647058845, 0.0666666701
   2283, -0.485714287, -0.588235319, 0.0666666701
   2284, -0.485714287, -0.529411793, 0.0666666701
   2285, -0.485714287, -0.470588237, 0.0666666701
   2286, -0.485714287, -0.411764711, 0.0666666701
   2287, -0.485714287, -0.352941185, 0.0666666701
   2288, -0.485714287, -0.294117659, 0.0666666701
   2289, -0.485714287, -0.235294119, 0.0666666701
   2290, -0.485714287, -0.176470593, 0.0666666701
   2291, -0.485714287, -0.117647059, 0.0666666701
   2292, -0.485714287, -0.0588235296, 0.0666666701
   2293, -0.485714287,           0., 0.0666666701
   2294, -0.485714287, 0.0588235296, 0.0666666701
   2295, -0.485714287,  0.117647059, 0.0666666701
   2296, -0.485714287,  0.176470593, 0.0666666701
   2297, -0.485714287,  0.235294119, 0.0666666701
   2298, -0.485714287,  0.294117659, 0.0666666701
   2299, -0.485714287,  0.352941185, 0.0666666701
   2300, -0.485714287,  0.411764711, 0.0666666701
   2301, -0.485714287,  0.470588237, 0.0666666701
   2302, -0.485714287,  0.529411793, 0.0666666701
   2303, -0.485714287,  0.588235319, 0.0666666701
   2304, -0.485714287,  0.647058845, 0.0666666701
   2305, -0.485714287,   0.70588237, 0.0666666701
   2306, -0.485714287,  0.764705896, 0.0666666701
   2307, -0.485714287,  0.823529422, 0.0666666701
   2308, -0.485714287,  0.882352948, 0.0666666701
   2309, -0.485714287,  0.941176474, 0.0666666701
   2310, -0.485714287,           1., 0.0666666701
   2311, -0.485714287,          -1., 0.0500000007
   2312, -0.485714287, -0.941176474, 0.0500000007
   2313, -0.485714287, -0.882352948, 0.0500000007
   2314, -0.485714287, -0.823529422, 0.0500000007
   2315, -0.485714287, -0.764705896, 0.0500000007
   2316, -0.485714287,  -0.70588237, 0.0500000007
   2317, -0.485714287, -0.647058845, 0.0500000007
   2318, -0.485714287, -0.588235319, 0.0500000007
   2319, -0.485714287, -0.529411793, 0.0500000007
   2320, -0.485714287, -0.470588237, 0.0500000007
   2321, -0.485714287, -0.411764711, 0.0500000007
   2322, -0.485714287, -0.352941185, 0.0500000007
   2323, -0.485714287, -0.294117659, 0.0500000007
   2324, -0.485714287, -0.235294119, 0.0500000007
   2325, -0.485714287, -0.176470593, 0.0500000007
   2326, -0.485714287, -0.117647059, 0.0500000007
   2327, -0.485714287, -0.0588235296, 0.0500000007
   2328, -0.485714287,           0., 0.0500000007
   2329, -0.485714287, 0.0588235296, 0.0500000007
   2330, -0.485714287,  0.117647059, 0.0500000007
   2331, -0.485714287,  0.176470593, 0.0500000007
   2332, -0.485714287,  0.235294119, 0.0500000007
   2333, -0.485714287,  0.294117659, 0.0500000007
   2334, -0.485714287,  0.352941185, 0.0500000007
   2335, -0.485714287,  0.411764711, 0.0500000007
   2336, -0.485714287,  0.470588237, 0.0500000007
   2337, -0.485714287,  0.529411793, 0.0500000007
   2338, -0.485714287,  0.588235319, 0.0500000007
   2339, -0.485714287,  0.647058845, 0.0500000007
   2340, -0.485714287,   0.70588237, 0.0500000007
   2341, -0.485714287,  0.764705896, 0.0500000007
   2342, -0.485714287,  0.823529422, 0.0500000007
   2343, -0.485714287,  0.882352948, 0.0500000007
   2344, -0.485714287,  0.941176474, 0.0500000007
   2345, -0.485714287,           1., 0.0500000007
   2346, -0.485714287,          -1., 0.0333333351
   2347, -0.485714287, -0.941176474, 0.0333333351
   2348, -0.485714287, -0.882352948, 0.0333333351
   2349, -0.485714287, -0.823529422, 0.0333333351
   2350, -0.485714287, -0.764705896, 0.0333333351
   2351, -0.485714287,  -0.70588237, 0.0333333351
   2352, -0.485714287, -0.647058845, 0.0333333351
   2353, -0.485714287, -0.588235319, 0.0333333351
   2354, -0.485714287, -0.529411793, 0.0333333351
   2355, -0.485714287, -0.470588237, 0.0333333351
   2356, -0.485714287, -0.411764711, 0.0333333351
   2357, -0.485714287, -0.352941185, 0.0333333351
   2358, -0.485714287, -0.294117659, 0.0333333351
   2359, -0.485714287, -0.235294119, 0.0333333351
   2360, -0.485714287, -0.176470593, 0.0333333351
   2361, -0.485714287, -0.117647059, 0.0333333351
   2362, -0.485714287, -0.0588235296, 0.0333333351
   2363, -0.485714287,           0., 0.0333333351
   2364, -0.485714287, 0.0588235296, 0.0333333351
   2365, -0.485714287,  0.117647059, 0.0333333351
   2366, -0.485714287,  0.176470593, 0.0333333351
   2367, -0.485714287,  0.235294119, 0.0333333351
   2368, -0.485714287,  0.294117659, 0.0333333351
   2369, -0.485714287,  0.352941185, 0.0333333351
   2370, -0.485714287,  0.411764711, 0.0333333351
   2371, -0.485714287,  0.470588237, 0.0333333351
   2372, -0.485714287,  0.529411793, 0.0333333351
   2373, -0.485714287,  0.588235319, 0.0333333351
   2374, -0.485714287,  0.647058845, 0.0333333351
   2375, -0.485714287,   0.70588237, 0.0333333351
   2376, -0.485714287,  0.764705896, 0.0333333351
   2377, -0.485714287,  0.823529422, 0.0333333351
   2378, -0.485714287,  0.882352948, 0.0333333351
   2379, -0.485714287,  0.941176474, 0.0333333351
   2380, -0.485714287,           1., 0.0333333351
   2381, -0.485714287,          -1., 0.0166666675
   2382, -0.485714287, -0.941176474, 0.0166666675
   2383, -0.485714287, -0.882352948, 0.0166666675
   2384, -0.485714287, -0.823529422, 0.0166666675
   2385, -0.485714287, -0.764705896, 0.0166666675
   2386, -0.485714287,  -0.70588237, 0.0166666675
   2387, -0.485714287, -0.647058845, 0.0166666675
   2388, -0.485714287, -0.588235319, 0.0166666675
   2389, -0.485714287, -0.529411793, 0.0166666675
   2390, -0.485714287, -0.470588237, 0.0166666675
   2391, -0.485714287, -0.411764711, 0.0166666675
   2392, -0.485714287, -0.352941185, 0.0166666675
   2393, -0.485714287, -0.294117659, 0.0166666675
   2394, -0.485714287, -0.235294119, 0.0166666675
   2395, -0.485714287, -0.176470593, 0.0166666675
   2396, -0.485714287, -0.117647059, 0.0166666675
   2397, -0.485714287, -0.0588235296, 0.0166666675
   2398, -0.485714287,           0., 0.0166666675
   2399, -0.485714287, 0.0588235296, 0.0166666675
   2400, -0.485714287,  0.117647059, 0.0166666675
   2401, -0.485714287,  0.176470593, 0.0166666675
   2402, -0.485714287,  0.235294119, 0.0166666675
   2403, -0.485714287,  0.294117659, 0.0166666675
   2404, -0.485714287,  0.352941185, 0.0166666675
   2405, -0.485714287,  0.411764711, 0.0166666675
   2406, -0.485714287,  0.470588237, 0.0166666675
   2407, -0.485714287,  0.529411793, 0.0166666675
   2408, -0.485714287,  0.588235319, 0.0166666675
   2409, -0.485714287,  0.647058845, 0.0166666675
   2410, -0.485714287,   0.70588237, 0.0166666675
   2411, -0.485714287,  0.764705896, 0.0166666675
   2412, -0.485714287,  0.823529422, 0.0166666675
   2413, -0.485714287,  0.882352948, 0.0166666675
   2414, -0.485714287,  0.941176474, 0.0166666675
   2415, -0.485714287,           1., 0.0166666675
   2416, -0.485714287,          -1.,           0.
   2417, -0.485714287, -0.941176474,           0.
   2418, -0.485714287, -0.882352948,           0.
   2419, -0.485714287, -0.823529422,           0.
   2420, -0.485714287, -0.764705896,           0.
   2421, -0.485714287,  -0.70588237,           0.
   2422, -0.485714287, -0.647058845,           0.
   2423, -0.485714287, -0.588235319,           0.
   2424, -0.485714287, -0.529411793,           0.
   2425, -0.485714287, -0.470588237,           0.
   2426, -0.485714287, -0.411764711,           0.
   2427, -0.485714287, -0.352941185,           0.
   2428, -0.485714287, -0.294117659,           0.
   2429, -0.485714287, -0.235294119,           0.
   2430, -0.485714287, -0.176470593,           0.
   2431, -0.485714287, -0.117647059,           0.
   2432, -0.485714287, -0.0588235296,           0.
   2433, -0.485714287,           0.,           0.
   2434, -0.485714287, 0.0588235296,           0.
   2435, -0.485714287,  0.117647059,           0.
   2436, -0.485714287,  0.176470593,           0.
   2437, -0.485714287,  0.235294119,           0.
   2438, -0.485714287,  0.294117659,           0.
   2439, -0.485714287,  0.352941185,           0.
   2440, -0.485714287,  0.411764711,           0.
   2441, -0.485714287,  0.470588237,           0.
   2442, -0.485714287,  0.529411793,           0.
   2443, -0.485714287,  0.588235319,           0.
   2444, -0.485714287,  0.647058845,           0.
   2445, -0.485714287,   0.70588237,           0.
   2446, -0.485714287,  0.764705896,           0.
   2447, -0.485714287,  0.823529422,           0.
   2448, -0.485714287,  0.882352948,           0.
   2449, -0.485714287,  0.941176474,           0.
   2450, -0.485714287,           1.,           0.
   2451, -0.428571433,          -1.,  0.100000001
   2452, -0.428571433, -0.941176474,  0.100000001
   2453, -0.428571433, -0.882352948,  0.100000001
   2454, -0.428571433, -0.823529422,  0.100000001
   2455, -0.428571433, -0.764705896,  0.100000001
   2456, -0.428571433,  -0.70588237,  0.100000001
   2457, -0.428571433, -0.647058845,  0.100000001
   2458, -0.428571433, -0.588235319,  0.100000001
   2459, -0.428571433, -0.529411793,  0.100000001
   2460, -0.428571433, -0.470588237,  0.100000001
   2461, -0.428571433, -0.411764711,  0.100000001
   2462, -0.428571433, -0.352941185,  0.100000001
   2463, -0.428571433, -0.294117659,  0.100000001
   2464, -0.428571433, -0.235294119,  0.100000001
   2465, -0.428571433, -0.176470593,  0.100000001
   2466, -0.428571433, -0.117647059,  0.100000001
   2467, -0.428571433, -0.0588235296,  0.100000001
   2468, -0.428571433,           0.,  0.100000001
   2469, -0.428571433, 0.0588235296,  0.100000001
   2470, -0.428571433,  0.117647059,  0.100000001
   2471, -0.428571433,  0.176470593,  0.100000001
   2472, -0.428571433,  0.235294119,  0.100000001
   2473, -0.428571433,  0.294117659,  0.100000001
   2474, -0.428571433,  0.352941185,  0.100000001
   2475, -0.428571433,  0.411764711,  0.100000001
   2476, -0.428571433,  0.470588237,  0.100000001
   2477, -0.428571433,  0.529411793,  0.100000001
   2478, -0.428571433,  0.588235319,  0.100000001
   2479, -0.428571433,  0.647058845,  0.100000001
   2480, -0.428571433,   0.70588237,  0.100000001
   2481, -0.428571433,  0.764705896,  0.100000001
   2482, -0.428571433,  0.823529422,  0.100000001
   2483, -0.428571433,  0.882352948,  0.100000001
   2484, -0.428571433,  0.941176474,  0.100000001
   2485, -0.428571433,           1.,  0.100000001
   2486, -0.428571433,          -1., 0.0833333358
   2487, -0.428571433, -0.941176474, 0.0833333358
   2488, -0.428571433, -0.882352948, 0.0833333358
   2489, -0.428571433, -0.823529422, 0.0833333358
   2490, -0.428571433, -0.764705896, 0.0833333358
   2491, -0.428571433,  -0.70588237, 0.0833333358
   2492, -0.428571433, -0.647058845, 0.0833333358
   2493, -0.428571433, -0.588235319, 0.0833333358
   2494, -0.428571433, -0.529411793, 0.0833333358
   2495, -0.428571433, -0.470588237, 0.0833333358
   2496, -0.428571433, -0.411764711, 0.0833333358
   2497, -0.428571433, -0.352941185, 0.0833333358
   2498, -0.428571433, -0.294117659, 0.0833333358
   2499, -0.428571433, -0.235294119, 0.0833333358
   2500, -0.428571433, -0.176470593, 0.0833333358
   2501, -0.428571433, -0.117647059, 0.0833333358
   2502, -0.428571433, -0.0588235296, 0.0833333358
   2503, -0.428571433,           0., 0.0833333358
   2504, -0.428571433, 0.0588235296, 0.0833333358
   2505, -0.428571433,  0.117647059, 0.0833333358
   2506, -0.428571433,  0.176470593, 0.0833333358
   2507, -0.428571433,  0.235294119, 0.0833333358
   2508, -0.428571433,  0.294117659, 0.0833333358
   2509, -0.428571433,  0.352941185, 0.0833333358
   2510, -0.428571433,  0.411764711, 0.0833333358
   2511, -0.428571433,  0.470588237, 0.0833333358
   2512, -0.428571433,  0.529411793, 0.0833333358
   2513, -0.428571433,  0.588235319, 0.0833333358
   2514, -0.428571433,  0.647058845, 0.0833333358
   2515, -0.428571433,   0.70588237, 0.0833333358
   2516, -0.428571433,  0.764705896, 0.0833333358
   2517, -0.428571433,  0.823529422, 0.0833333358
   2518, -0.428571433,  0.882352948, 0.0833333358
   2519, -0.428571433,  0.941176474, 0.0833333358
   2520, -0.428571433,           1., 0.0833333358
   2521, -0.428571433,          -1., 0.0666666701
   2522, -0.428571433, -0.941176474, 0.0666666701
   2523, -0.428571433, -0.882352948, 0.0666666701
   2524, -0.428571433, -0.823529422, 0.0666666701
   2525, -0.428571433, -0.764705896, 0.0666666701
   2526, -0.428571433,  -0.70588237, 0.0666666701
   2527, -0.428571433, -0.647058845, 0.0666666701
   2528, -0.428571433, -0.588235319, 0.0666666701
   2529, -0.428571433, -0.529411793, 0.0666666701
   2530, -0.428571433, -0.470588237, 0.0666666701
   2531, -0.428571433, -0.411764711, 0.0666666701
   2532, -0.428571433, -0.352941185, 0.0666666701
   2533, -0.428571433, -0.294117659, 0.0666666701
   2534, -0.428571433, -0.235294119, 0.0666666701
   2535, -0.428571433, -0.176470593, 0.0666666701
   2536, -0.428571433, -0.117647059, 0.0666666701
   2537, -0.428571433, -0.0588235296, 0.0666666701
   2538, -0.428571433,           0., 0.0666666701
   2539, -0.428571433, 0.0588235296, 0.0666666701
   2540, -0.428571433,  0.117647059, 0.0666666701
   2541, -0.428571433,  0.176470593, 0.0666666701
   2542, -0.428571433,  0.235294119, 0.0666666701
   2543, -0.428571433,  0.294117659, 0.0666666701
   2544, -0.428571433,  0.352941185, 0.0666666701
   2545, -0.428571433,  0.411764711, 0.0666666701
   2546, -0.428571433,  0.470588237, 0.0666666701
   2547, -0.428571433,  0.529411793, 0.0666666701
   2548, -0.428571433,  0.588235319, 0.0666666701
   2549, -0.428571433,  0.647058845, 0.0666666701
   2550, -0.428571433,   0.70588237, 0.0666666701
   2551, -0.428571433,  0.764705896, 0.0666666701
   2552, -0.428571433,  0.823529422, 0.0666666701
   2553, -0.428571433,  0.882352948, 0.0666666701
   2554, -0.428571433,  0.941176474, 0.0666666701
   2555, -0.428571433,           1., 0.0666666701
   2556, -0.428571433,          -1., 0.0500000007
   2557, -0.428571433, -0.941176474, 0.0500000007
   2558, -0.428571433, -0.882352948, 0.0500000007
   2559, -0.428571433, -0.823529422, 0.0500000007
   2560, -0.428571433, -0.764705896, 0.0500000007
   2561, -0.428571433,  -0.70588237, 0.0500000007
   2562, -0.428571433, -0.647058845, 0.0500000007
   2563, -0.428571433, -0.588235319, 0.0500000007
   2564, -0.428571433, -0.529411793, 0.0500000007
   2565, -0.428571433, -0.470588237, 0.0500000007
   2566, -0.428571433, -0.411764711, 0.0500000007
   2567, -0.428571433, -0.352941185, 0.0500000007
   2568, -0.428571433, -0.294117659, 0.0500000007
   2569, -0.428571433, -0.235294119, 0.0500000007
   2570, -0.428571433, -0.176470593, 0.0500000007
   2571, -0.428571433, -0.117647059, 0.0500000007
   2572, -0.428571433, -0.0588235296, 0.0500000007
   2573, -0.428571433,           0., 0.0500000007
   2574, -0.428571433, 0.0588235296, 0.0500000007
   2575, -0.428571433,  0.117647059, 0.0500000007
   2576, -0.428571433,  0.176470593, 0.0500000007
   2577, -0.428571433,  0.235294119, 0.0500000007
   2578, -0.428571433,  0.294117659, 0.0500000007
   2579, -0.428571433,  0.352941185, 0.0500000007
   2580, -0.428571433,  0.411764711, 0.0500000007
   2581, -0.428571433,  0.470588237, 0.0500000007
   2582, -0.428571433,  0.529411793, 0.0500000007
   2583, -0.428571433,  0.588235319, 0.0500000007
   2584, -0.428571433,  0.647058845, 0.0500000007
   2585, -0.428571433,   0.70588237, 0.0500000007
   2586, -0.428571433,  0.764705896, 0.0500000007
   2587, -0.428571433,  0.823529422, 0.0500000007
   2588, -0.428571433,  0.882352948, 0.0500000007
   2589, -0.428571433,  0.941176474, 0.0500000007
   2590, -0.428571433,           1., 0.0500000007
   2591, -0.428571433,          -1., 0.0333333351
   2592, -0.428571433, -0.941176474, 0.0333333351
   2593, -0.428571433, -0.882352948, 0.0333333351
   2594, -0.428571433, -0.823529422, 0.0333333351
   2595, -0.428571433, -0.764705896, 0.0333333351
   2596, -0.428571433,  -0.70588237, 0.0333333351
   2597, -0.428571433, -0.647058845, 0.0333333351
   2598, -0.428571433, -0.588235319, 0.0333333351
   2599, -0.428571433, -0.529411793, 0.0333333351
   2600, -0.428571433, -0.470588237, 0.0333333351
   2601, -0.428571433, -0.411764711, 0.0333333351
   2602, -0.428571433, -0.352941185, 0.0333333351
   2603, -0.428571433, -0.294117659, 0.0333333351
   2604, -0.428571433, -0.235294119, 0.0333333351
   2605, -0.428571433, -0.176470593, 0.0333333351
   2606, -0.428571433, -0.117647059, 0.0333333351
   2607, -0.428571433, -0.0588235296, 0.0333333351
   2608, -0.428571433,           0., 0.0333333351
   2609, -0.428571433, 0.0588235296, 0.0333333351
   2610, -0.428571433,  0.117647059, 0.0333333351
   2611, -0.428571433,  0.176470593, 0.0333333351
   2612, -0.428571433,  0.235294119, 0.0333333351
   2613, -0.428571433,  0.294117659, 0.0333333351
   2614, -0.428571433,  0.352941185, 0.0333333351
   2615, -0.428571433,  0.411764711, 0.0333333351
   2616, -0.428571433,  0.470588237, 0.0333333351
   2617, -0.428571433,  0.529411793, 0.0333333351
   2618, -0.428571433,  0.588235319, 0.0333333351
   2619, -0.428571433,  0.647058845, 0.0333333351
   2620, -0.428571433,   0.70588237, 0.0333333351
   2621, -0.428571433,  0.764705896, 0.0333333351
   2622, -0.428571433,  0.823529422, 0.0333333351
   2623, -0.428571433,  0.882352948, 0.0333333351
   2624, -0.428571433,  0.941176474, 0.0333333351
   2625, -0.428571433,           1., 0.0333333351
   2626, -0.428571433,          -1., 0.0166666675
   2627, -0.428571433, -0.941176474, 0.0166666675
   2628, -0.428571433, -0.882352948, 0.0166666675
   2629, -0.428571433, -0.823529422, 0.0166666675
   2630, -0.428571433, -0.764705896, 0.0166666675
   2631, -0.428571433,  -0.70588237, 0.0166666675
   2632, -0.428571433, -0.647058845, 0.0166666675
   2633, -0.428571433, -0.588235319, 0.0166666675
   2634, -0.428571433, -0.529411793, 0.0166666675
   2635, -0.428571433, -0.470588237, 0.0166666675
   2636, -0.428571433, -0.411764711, 0.0166666675
   2637, -0.428571433, -0.352941185, 0.0166666675
   2638, -0.428571433, -0.294117659, 0.0166666675
   2639, -0.428571433, -0.235294119, 0.0166666675
   2640, -0.428571433, -0.176470593, 0.0166666675
   2641, -0.428571433, -0.117647059, 0.0166666675
   2642, -0.428571433, -0.0588235296, 0.0166666675
   2643, -0.428571433,           0., 0.0166666675
   2644, -0.428571433, 0.0588235296, 0.0166666675
   2645, -0.428571433,  0.117647059, 0.0166666675
   2646, -0.428571433,  0.176470593, 0.0166666675
   2647, -0.428571433,  0.235294119, 0.0166666675
   2648, -0.428571433,  0.294117659, 0.0166666675
   2649, -0.428571433,  0.352941185, 0.0166666675
   2650, -0.428571433,  0.411764711, 0.0166666675
   2651, -0.428571433,  0.470588237, 0.0166666675
   2652, -0.428571433,  0.529411793, 0.0166666675
   2653, -0.428571433,  0.588235319, 0.0166666675
   2654, -0.428571433,  0.647058845, 0.0166666675
   2655, -0.428571433,   0.70588237, 0.0166666675
   2656, -0.428571433,  0.764705896, 0.0166666675
   2657, -0.428571433,  0.823529422, 0.0166666675
   2658, -0.428571433,  0.882352948, 0.0166666675
   2659, -0.428571433,  0.941176474, 0.0166666675
   2660, -0.428571433,           1., 0.0166666675
   2661, -0.428571433,          -1.,           0.
   2662, -0.428571433, -0.941176474,           0.
   2663, -0.428571433, -0.882352948,           0.
   2664, -0.428571433, -0.823529422,           0.
   2665, -0.428571433, -0.764705896,           0.
   2666, -0.428571433,  -0.70588237,           0.
   2667, -0.428571433, -0.647058845,           0.
   2668, -0.428571433, -0.588235319,           0.
   2669, -0.428571433, -0.529411793,           0.
   2670, -0.428571433, -0.470588237,           0.
   2671, -0.428571433, -0.411764711,           0.
   2672, -0.428571433, -0.352941185,           0.
   2673, -0.428571433, -0.294117659,           0.
   2674, -0.428571433, -0.235294119,           0.
   2675, -0.428571433, -0.176470593,           0.
   2676, -0.428571433, -0.117647059,           0.
   2677, -0.428571433, -0.0588235296,           0.
   2678, -0.428571433,           0.,           0.
   2679, -0.428571433, 0.0588235296,           0.
   2680, -0.428571433,  0.117647059,           0.
   2681, -0.428571433,  0.176470593,           0.
   2682, -0.428571433,  0.235294119,           0.
   2683, -0.428571433,  0.294117659,           0.
   2684, -0.428571433,  0.352941185,           0.
   2685, -0.428571433,  0.411764711,           0.
   2686, -0.428571433,  0.470588237,           0.
   2687, -0.428571433,  0.529411793,           0.
   2688, -0.428571433,  0.588235319,           0.
   2689, -0.428571433,  0.647058845,           0.
   2690, -0.428571433,   0.70588237,           0.
   2691, -0.428571433,  0.764705896,           0.
   2692, -0.428571433,  0.823529422,           0.
   2693, -0.428571433,  0.882352948,           0.
   2694, -0.428571433,  0.941176474,           0.
   2695, -0.428571433,           1.,           0.
   2696, -0.371428579,          -1.,  0.100000001
   2697, -0.371428579, -0.941176474,  0.100000001
   2698, -0.371428579, -0.882352948,  0.100000001
   2699, -0.371428579, -0.823529422,  0.100000001
   2700, -0.371428579, -0.764705896,  0.100000001
   2701, -0.371428579,  -0.70588237,  0.100000001
   2702, -0.371428579, -0.647058845,  0.100000001
   2703, -0.371428579, -0.588235319,  0.100000001
   2704, -0.371428579, -0.529411793,  0.100000001
   2705, -0.371428579, -0.470588237,  0.100000001
   2706, -0.371428579, -0.411764711,  0.100000001
   2707, -0.371428579, -0.352941185,  0.100000001
   2708, -0.371428579, -0.294117659,  0.100000001
   2709, -0.371428579, -0.235294119,  0.100000001
   2710, -0.371428579, -0.176470593,  0.100000001
   2711, -0.371428579, -0.117647059,  0.100000001
   2712, -0.371428579, -0.0588235296,  0.100000001
   2713, -0.371428579,           0.,  0.100000001
   2714, -0.371428579, 0.0588235296,  0.100000001
   2715, -0.371428579,  0.117647059,  0.100000001
   2716, -0.371428579,  0.176470593,  0.100000001
   2717, -0.371428579,  0.235294119,  0.100000001
   2718, -0.371428579,  0.294117659,  0.100000001
   2719, -0.371428579,  0.352941185,  0.100000001
   2720, -0.371428579,  0.411764711,  0.100000001
   2721, -0.371428579,  0.470588237,  0.100000001
   2722, -0.371428579,  0.529411793,  0.100000001
   2723, -0.371428579,  0.588235319,  0.100000001
   2724, -0.371428579,  0.647058845,  0.100000001
   2725, -0.371428579,   0.70588237,  0.100000001
   2726, -0.371428579,  0.764705896,  0.100000001
   2727, -0.371428579,  0.823529422,  0.100000001
   2728, -0.371428579,  0.882352948,  0.100000001
   2729, -0.371428579,  0.941176474,  0.100000001
   2730, -0.371428579,           1.,  0.100000001
   2731, -0.371428579,          -1., 0.0833333358
   2732, -0.371428579, -0.941176474, 0.0833333358
   2733, -0.371428579, -0.882352948, 0.0833333358
   2734, -0.371428579, -0.823529422, 0.0833333358
   2735, -0.371428579, -0.764705896, 0.0833333358
   2736, -0.371428579,  -0.70588237, 0.0833333358
   2737, -0.371428579, -0.647058845, 0.0833333358
   2738, -0.371428579, -0.588235319, 0.0833333358
   2739, -0.371428579, -0.529411793, 0.0833333358
   2740, -0.371428579, -0.470588237, 0.0833333358
   2741, -0.371428579, -0.411764711, 0.0833333358
   2742, -0.371428579, -0.352941185, 0.0833333358
   2743, -0.371428579, -0.294117659, 0.0833333358
   2744, -0.371428579, -0.235294119, 0.0833333358
   2745, -0.371428579, -0.176470593, 0.0833333358
   2746, -0.371428579, -0.117647059, 0.0833333358
   2747, -0.371428579, -0.0588235296, 0.0833333358
   2748, -0.371428579,           0., 0.0833333358
   2749, -0.371428579, 0.0588235296, 0.0833333358
   2750, -0.371428579,  0.117647059, 0.0833333358
   2751, -0.371428579,  0.176470593, 0.0833333358
   2752, -0.371428579,  0.235294119, 0.0833333358
   2753, -0.371428579,  0.294117659, 0.0833333358
   2754, -0.371428579,  0.352941185, 0.0833333358
   2755, -0.371428579,  0.411764711, 0.0833333358
   2756, -0.371428579,  0.470588237, 0.0833333358
   2757, -0.371428579,  0.529411793, 0.0833333358
   2758, -0.371428579,  0.588235319, 0.0833333358
   2759, -0.371428579,  0.647058845, 0.0833333358
   2760, -0.371428579,   0.70588237, 0.0833333358
   2761, -0.371428579,  0.764705896, 0.0833333358
   2762, -0.371428579,  0.823529422, 0.0833333358
   2763, -0.371428579,  0.882352948, 0.0833333358
   2764, -0.371428579,  0.941176474, 0.0833333358
   2765, -0.371428579,           1., 0.0833333358
   2766, -0.371428579,          -1., 0.0666666701
   2767, -0.371428579, -0.941176474, 0.0666666701
   2768, -0.371428579, -0.882352948, 0.0666666701
   2769, -0.371428579, -0.823529422, 0.0666666701
   2770, -0.371428579, -0.764705896, 0.0666666701
   2771, -0.371428579,  -0.70588237, 0.0666666701
   2772, -0.371428579, -0.647058845, 0.0666666701
   2773, -0.371428579, -0.588235319, 0.0666666701
   2774, -0.371428579, -0.529411793, 0.0666666701
   2775, -0.371428579, -0.470588237, 0.0666666701
   2776, -0.371428579, -0.411764711, 0.0666666701
   2777, -0.371428579, -0.352941185, 0.0666666701
   2778, -0.371428579, -0.294117659, 0.0666666701
   2779, -0.371428579, -0.235294119, 0.0666666701
   2780, -0.371428579, -0.176470593, 0.0666666701
   2781, -0.371428579, -0.117647059, 0.0666666701
   2782, -0.371428579, -0.0588235296, 0.0666666701
   2783, -0.371428579,           0., 0.0666666701
   2784, -0.371428579, 0.0588235296, 0.0666666701
   2785, -0.371428579,  0.117647059, 0.0666666701
   2786, -0.371428579,  0.176470593, 0.0666666701
   2787, -0.371428579,  0.235294119, 0.0666666701
   2788, -0.371428579,  0.294117659, 0.0666666701
   2789, -0.371428579,  0.352941185, 0.0666666701
   2790, -0.371428579,  0.411764711, 0.0666666701
   2791, -0.371428579,  0.470588237, 0.0666666701
   2792, -0.371428579,  0.529411793, 0.0666666701
   2793, -0.371428579,  0.588235319, 0.0666666701
   2794, -0.371428579,  0.647058845, 0.0666666701
   2795, -0.371428579,   0.70588237, 0.0666666701
   2796, -0.371428579,  0.764705896, 0.0666666701
   2797, -0.371428579,  0.823529422, 0.0666666701
   2798, -0.371428579,  0.882352948, 0.0666666701
   2799, -0.371428579,  0.941176474, 0.0666666701
   2800, -0.371428579,           1., 0.0666666701
   2801, -0.371428579,          -1., 0.0500000007
   2802, -0.371428579, -0.941176474, 0.0500000007
   2803, -0.371428579, -0.882352948, 0.0500000007
   2804, -0.371428579, -0.823529422, 0.0500000007
   2805, -0.371428579, -0.764705896, 0.0500000007
   2806, -0.371428579,  -0.70588237, 0.0500000007
   2807, -0.371428579, -0.647058845, 0.0500000007
   2808, -0.371428579, -0.588235319, 0.0500000007
   2809, -0.371428579, -0.529411793, 0.0500000007
   2810, -0.371428579, -0.470588237, 0.0500000007
   2811, -0.371428579, -0.411764711, 0.0500000007
   2812, -0.371428579, -0.352941185, 0.0500000007
   2813, -0.371428579, -0.294117659, 0.0500000007
   2814, -0.371428579, -0.235294119, 0.0500000007
   2815, -0.371428579, -0.176470593, 0.0500000007
   2816, -0.371428579, -0.117647059, 0.0500000007
   2817, -0.371428579, -0.0588235296, 0.0500000007
   2818, -0.371428579,           0., 0.0500000007
   2819, -0.371428579, 0.0588235296, 0.0500000007
   2820, -0.371428579,  0.117647059, 0.0500000007
   2821, -0.371428579,  0.176470593, 0.0500000007
   2822, -0.371428579,  0.235294119, 0.0500000007
   2823, -0.371428579,  0.294117659, 0.0500000007
   2824, -0.371428579,  0.352941185, 0.0500000007
   2825, -0.371428579,  0.411764711, 0.0500000007
   2826, -0.371428579,  0.470588237, 0.0500000007
   2827, -0.371428579,  0.529411793, 0.0500000007
   2828, -0.371428579,  0.588235319, 0.0500000007
   2829, -0.371428579,  0.647058845, 0.0500000007
   2830, -0.371428579,   0.70588237, 0.0500000007
   2831, -0.371428579,  0.764705896, 0.0500000007
   2832, -0.371428579,  0.823529422, 0.0500000007
   2833, -0.371428579,  0.882352948, 0.0500000007
   2834, -0.371428579,  0.941176474, 0.0500000007
   2835, -0.371428579,           1., 0.0500000007
   2836, -0.371428579,          -1., 0.0333333351
   2837, -0.371428579, -0.941176474, 0.0333333351
   2838, -0.371428579, -0.882352948, 0.0333333351
   2839, -0.371428579, -0.823529422, 0.0333333351
   2840, -0.371428579, -0.764705896, 0.0333333351
   2841, -0.371428579,  -0.70588237, 0.0333333351
   2842, -0.371428579, -0.647058845, 0.0333333351
   2843, -0.371428579, -0.588235319, 0.0333333351
   2844, -0.371428579, -0.529411793, 0.0333333351
   2845, -0.371428579, -0.470588237, 0.0333333351
   2846, -0.371428579, -0.411764711, 0.0333333351
   2847, -0.371428579, -0.352941185, 0.0333333351
   2848, -0.371428579, -0.294117659, 0.0333333351
   2849, -0.371428579, -0.235294119, 0.0333333351
   2850, -0.371428579, -0.176470593, 0.0333333351
   2851, -0.371428579, -0.117647059, 0.0333333351
   2852, -0.371428579, -0.0588235296, 0.0333333351
   2853, -0.371428579,           0., 0.0333333351
   2854, -0.371428579, 0.0588235296, 0.0333333351
   2855, -0.371428579,  0.117647059, 0.0333333351
   2856, -0.371428579,  0.176470593, 0.0333333351
   2857, -0.371428579,  0.235294119, 0.0333333351
   2858, -0.371428579,  0.294117659, 0.0333333351
   2859, -0.371428579,  0.352941185, 0.0333333351
   2860, -0.371428579,  0.411764711, 0.0333333351
   2861, -0.371428579,  0.470588237, 0.0333333351
   2862, -0.371428579,  0.529411793, 0.0333333351
   2863, -0.371428579,  0.588235319, 0.0333333351
   2864, -0.371428579,  0.647058845, 0.0333333351
   2865, -0.371428579,   0.70588237, 0.0333333351
   2866, -0.371428579,  0.764705896, 0.0333333351
   2867, -0.371428579,  0.823529422, 0.0333333351
   2868, -0.371428579,  0.882352948, 0.0333333351
   2869, -0.371428579,  0.941176474, 0.0333333351
   2870, -0.371428579,           1., 0.0333333351
   2871, -0.371428579,          -1., 0.0166666675
   2872, -0.371428579, -0.941176474, 0.0166666675
   2873, -0.371428579, -0.882352948, 0.0166666675
   2874, -0.371428579, -0.823529422, 0.0166666675
   2875, -0.371428579, -0.764705896, 0.0166666675
   2876, -0.371428579,  -0.70588237, 0.0166666675
   2877, -0.371428579, -0.647058845, 0.0166666675
   2878, -0.371428579, -0.588235319, 0.0166666675
   2879, -0.371428579, -0.529411793, 0.0166666675
   2880, -0.371428579, -0.470588237, 0.0166666675
   2881, -0.371428579, -0.411764711, 0.0166666675
   2882, -0.371428579, -0.352941185, 0.0166666675
   2883, -0.371428579, -0.294117659, 0.0166666675
   2884, -0.371428579, -0.235294119, 0.0166666675
   2885, -0.371428579, -0.176470593, 0.0166666675
   2886, -0.371428579, -0.117647059, 0.0166666675
   2887, -0.371428579, -0.0588235296, 0.0166666675
   2888, -0.371428579,           0., 0.0166666675
   2889, -0.371428579, 0.0588235296, 0.0166666675
   2890, -0.371428579,  0.117647059, 0.0166666675
   2891, -0.371428579,  0.176470593, 0.0166666675
   2892, -0.371428579,  0.235294119, 0.0166666675
   2893, -0.371428579,  0.294117659, 0.0166666675
   2894, -0.371428579,  0.352941185, 0.0166666675
   2895, -0.371428579,  0.411764711, 0.0166666675
   2896, -0.371428579,  0.470588237, 0.0166666675
   2897, -0.371428579,  0.529411793, 0.0166666675
   2898, -0.371428579,  0.588235319, 0.0166666675
   2899, -0.371428579,  0.647058845, 0.0166666675
   2900, -0.371428579,   0.70588237, 0.0166666675
   2901, -0.371428579,  0.764705896, 0.0166666675
   2902, -0.371428579,  0.823529422, 0.0166666675
   2903, -0.371428579,  0.882352948, 0.0166666675
   2904, -0.371428579,  0.941176474, 0.0166666675
   2905, -0.371428579,           1., 0.0166666675
   2906, -0.371428579,          -1.,           0.
   2907, -0.371428579, -0.941176474,           0.
   2908, -0.371428579, -0.882352948,           0.
   2909, -0.371428579, -0.823529422,           0.
   2910, -0.371428579, -0.764705896,           0.
   2911, -0.371428579,  -0.70588237,           0.
   2912, -0.371428579, -0.647058845,           0.
   2913, -0.371428579, -0.588235319,           0.
   2914, -0.371428579, -0.529411793,           0.
   2915, -0.371428579, -0.470588237,           0.
   2916, -0.371428579, -0.411764711,           0.
   2917, -0.371428579, -0.352941185,           0.
   2918, -0.371428579, -0.294117659,           0.
   2919, -0.371428579, -0.235294119,           0.
   2920, -0.371428579, -0.176470593,           0.
   2921, -0.371428579, -0.117647059,           0.
   2922, -0.371428579, -0.0588235296,           0.
   2923, -0.371428579,           0.,           0.
   2924, -0.371428579, 0.0588235296,           0.
   2925, -0.371428579,  0.117647059,           0.
   2926, -0.371428579,  0.176470593,           0.
   2927, -0.371428579,  0.235294119,           0.
   2928, -0.371428579,  0.294117659,           0.
   2929, -0.371428579,  0.352941185,           0.
   2930, -0.371428579,  0.411764711,           0.
   2931, -0.371428579,  0.470588237,           0.
   2932, -0.371428579,  0.529411793,           0.
   2933, -0.371428579,  0.588235319,           0.
   2934, -0.371428579,  0.647058845,           0.
   2935, -0.371428579,   0.70588237,           0.
   2936, -0.371428579,  0.764705896,           0.
   2937, -0.371428579,  0.823529422,           0.
   2938, -0.371428579,  0.882352948,           0.
   2939, -0.371428579,  0.941176474,           0.
   2940, -0.371428579,           1.,           0.
   2941, -0.314285725,          -1.,  0.100000001
   2942, -0.314285725, -0.941176474,  0.100000001
   2943, -0.314285725, -0.882352948,  0.100000001
   2944, -0.314285725, -0.823529422,  0.100000001
   2945, -0.314285725, -0.764705896,  0.100000001
   2946, -0.314285725,  -0.70588237,  0.100000001
   2947, -0.314285725, -0.647058845,  0.100000001
   2948, -0.314285725, -0.588235319,  0.100000001
   2949, -0.314285725, -0.529411793,  0.100000001
   2950, -0.314285725, -0.470588237,  0.100000001
   2951, -0.314285725, -0.411764711,  0.100000001
   2952, -0.314285725, -0.352941185,  0.100000001
   2953, -0.314285725, -0.294117659,  0.100000001
   2954, -0.314285725, -0.235294119,  0.100000001
   2955, -0.314285725, -0.176470593,  0.100000001
   2956, -0.314285725, -0.117647059,  0.100000001
   2957, -0.314285725, -0.0588235296,  0.100000001
   2958, -0.314285725,           0.,  0.100000001
   2959, -0.314285725, 0.0588235296,  0.100000001
   2960, -0.314285725,  0.117647059,  0.100000001
   2961, -0.314285725,  0.176470593,  0.100000001
   2962, -0.314285725,  0.235294119,  0.100000001
   2963, -0.314285725,  0.294117659,  0.100000001
   2964, -0.314285725,  0.352941185,  0.100000001
   2965, -0.314285725,  0.411764711,  0.100000001
   2966, -0.314285725,  0.470588237,  0.100000001
   2967, -0.314285725,  0.529411793,  0.100000001
   2968, -0.314285725,  0.588235319,  0.100000001
   2969, -0.314285725,  0.647058845,  0.100000001
   2970, -0.314285725,   0.70588237,  0.100000001
   2971, -0.314285725,  0.764705896,  0.100000001
   2972, -0.314285725,  0.823529422,  0.100000001
   2973, -0.314285725,  0.882352948,  0.100000001
   2974, -0.314285725,  0.941176474,  0.100000001
   2975, -0.314285725,           1.,  0.100000001
   2976, -0.314285725,          -1., 0.0833333358
   2977, -0.314285725, -0.941176474, 0.0833333358
   2978, -0.314285725, -0.882352948, 0.0833333358
   2979, -0.314285725, -0.823529422, 0.0833333358
   2980, -0.314285725, -0.764705896, 0.0833333358
   2981, -0.314285725,  -0.70588237, 0.0833333358
   2982, -0.314285725, -0.647058845, 0.0833333358
   2983, -0.314285725, -0.588235319, 0.0833333358
   2984, -0.314285725, -0.529411793, 0.0833333358
   2985, -0.314285725, -0.470588237, 0.0833333358
   2986, -0.314285725, -0.411764711, 0.0833333358
   2987, -0.314285725, -0.352941185, 0.0833333358
   2988, -0.314285725, -0.294117659, 0.0833333358
   2989, -0.314285725, -0.235294119, 0.0833333358
   2990, -0.314285725, -0.176470593, 0.0833333358
   2991, -0.314285725, -0.117647059, 0.0833333358
   2992, -0.314285725, -0.0588235296, 0.0833333358
   2993, -0.314285725,           0., 0.0833333358
   2994, -0.314285725, 0.0588235296, 0.0833333358
   2995, -0.314285725,  0.117647059, 0.0833333358
   2996, -0.314285725,  0.176470593, 0.0833333358
   2997, -0.314285725,  0.235294119, 0.0833333358
   2998, -0.314285725,  0.294117659, 0.0833333358
   2999, -0.314285725,  0.352941185, 0.0833333358
   3000, -0.314285725,  0.411764711, 0.0833333358
   3001, -0.314285725,  0.470588237, 0.0833333358
   3002, -0.314285725,  0.529411793, 0.0833333358
   3003, -0.314285725,  0.588235319, 0.0833333358
   3004, -0.314285725,  0.647058845, 0.0833333358
   3005, -0.314285725,   0.70588237, 0.0833333358
   3006, -0.314285725,  0.764705896, 0.0833333358
   3007, -0.314285725,  0.823529422, 0.0833333358
   3008, -0.314285725,  0.882352948, 0.0833333358
   3009, -0.314285725,  0.941176474, 0.0833333358
   3010, -0.314285725,           1., 0.0833333358
   3011, -0.314285725,          -1., 0.0666666701
   3012, -0.314285725, -0.941176474, 0.0666666701
   3013, -0.314285725, -0.882352948, 0.0666666701
   3014, -0.314285725, -0.823529422, 0.0666666701
   3015, -0.314285725, -0.764705896, 0.0666666701
   3016, -0.314285725,  -0.70588237, 0.0666666701
   3017, -0.314285725, -0.647058845, 0.0666666701
   3018, -0.314285725, -0.588235319, 0.0666666701
   3019, -0.314285725, -0.529411793, 0.0666666701
   3020, -0.314285725, -0.470588237, 0.0666666701
   3021, -0.314285725, -0.411764711, 0.0666666701
   3022, -0.314285725, -0.352941185, 0.0666666701
   3023, -0.314285725, -0.294117659, 0.0666666701
   3024, -0.314285725, -0.235294119, 0.0666666701
   3025, -0.314285725, -0.176470593, 0.0666666701
   3026, -0.314285725, -0.117647059, 0.0666666701
   3027, -0.314285725, -0.0588235296, 0.0666666701
   3028, -0.314285725,           0., 0.0666666701
   3029, -0.314285725, 0.0588235296, 0.0666666701
   3030, -0.314285725,  0.117647059, 0.0666666701
   3031, -0.314285725,  0.176470593, 0.0666666701
   3032, -0.314285725,  0.235294119, 0.0666666701
   3033, -0.314285725,  0.294117659, 0.0666666701
   3034, -0.314285725,  0.352941185, 0.0666666701
   3035, -0.314285725,  0.411764711, 0.0666666701
   3036, -0.314285725,  0.470588237, 0.0666666701
   3037, -0.314285725,  0.529411793, 0.0666666701
   3038, -0.314285725,  0.588235319, 0.0666666701
   3039, -0.314285725,  0.647058845, 0.0666666701
   3040, -0.314285725,   0.70588237, 0.0666666701
   3041, -0.314285725,  0.764705896, 0.0666666701
   3042, -0.314285725,  0.823529422, 0.0666666701
   3043, -0.314285725,  0.882352948, 0.0666666701
   3044, -0.314285725,  0.941176474, 0.0666666701
   3045, -0.314285725,           1., 0.0666666701
   3046, -0.314285725,          -1., 0.0500000007
   3047, -0.314285725, -0.941176474, 0.0500000007
   3048, -0.314285725, -0.882352948, 0.0500000007
   3049, -0.314285725, -0.823529422, 0.0500000007
   3050, -0.314285725, -0.764705896, 0.0500000007
   3051, -0.314285725,  -0.70588237, 0.0500000007
   3052, -0.314285725, -0.647058845, 0.0500000007
   3053, -0.314285725, -0.588235319, 0.0500000007
   3054, -0.314285725, -0.529411793, 0.0500000007
   3055, -0.314285725, -0.470588237, 0.0500000007
   3056, -0.314285725, -0.411764711, 0.0500000007
   3057, -0.314285725, -0.352941185, 0.0500000007
   3058, -0.314285725, -0.294117659, 0.0500000007
   3059, -0.314285725, -0.235294119, 0.0500000007
   3060, -0.314285725, -0.176470593, 0.0500000007
   3061, -0.314285725, -0.117647059, 0.0500000007
   3062, -0.314285725, -0.0588235296, 0.0500000007
   3063, -0.314285725,           0., 0.0500000007
   3064, -0.314285725, 0.0588235296, 0.0500000007
   3065, -0.314285725,  0.117647059, 0.0500000007
   3066, -0.314285725,  0.176470593, 0.0500000007
   3067, -0.314285725,  0.235294119, 0.0500000007
   3068, -0.314285725,  0.294117659, 0.0500000007
   3069, -0.314285725,  0.352941185, 0.0500000007
   3070, -0.314285725,  0.411764711, 0.0500000007
   3071, -0.314285725,  0.470588237, 0.0500000007
   3072, -0.314285725,  0.529411793, 0.0500000007
   3073, -0.314285725,  0.588235319, 0.0500000007
   3074, -0.314285725,  0.647058845, 0.0500000007
   3075, -0.314285725,   0.70588237, 0.0500000007
   3076, -0.314285725,  0.764705896, 0.0500000007
   3077, -0.314285725,  0.823529422, 0.0500000007
   3078, -0.314285725,  0.882352948, 0.0500000007
   3079, -0.314285725,  0.941176474, 0.0500000007
   3080, -0.314285725,           1., 0.0500000007
   3081, -0.314285725,          -1., 0.0333333351
   3082, -0.314285725, -0.941176474, 0.0333333351
   3083, -0.314285725, -0.882352948, 0.0333333351
   3084, -0.314285725, -0.823529422, 0.0333333351
   3085, -0.314285725, -0.764705896, 0.0333333351
   3086, -0.314285725,  -0.70588237, 0.0333333351
   3087, -0.314285725, -0.647058845, 0.0333333351
   3088, -0.314285725, -0.588235319, 0.0333333351
   3089, -0.314285725, -0.529411793, 0.0333333351
   3090, -0.314285725, -0.470588237, 0.0333333351
   3091, -0.314285725, -0.411764711, 0.0333333351
   3092, -0.314285725, -0.352941185, 0.0333333351
   3093, -0.314285725, -0.294117659, 0.0333333351
   3094, -0.314285725, -0.235294119, 0.0333333351
   3095, -0.314285725, -0.176470593, 0.0333333351
   3096, -0.314285725, -0.117647059, 0.0333333351
   3097, -0.314285725, -0.0588235296, 0.0333333351
   3098, -0.314285725,           0., 0.0333333351
   3099, -0.314285725, 0.0588235296, 0.0333333351
   3100, -0.314285725,  0.117647059, 0.0333333351
   3101, -0.314285725,  0.176470593, 0.0333333351
   3102, -0.314285725,  0.235294119, 0.0333333351
   3103, -0.314285725,  0.294117659, 0.0333333351
   3104, -0.314285725,  0.352941185, 0.0333333351
   3105, -0.314285725,  0.411764711, 0.0333333351
   3106, -0.314285725,  0.470588237, 0.0333333351
   3107, -0.314285725,  0.529411793, 0.0333333351
   3108, -0.314285725,  0.588235319, 0.0333333351
   3109, -0.314285725,  0.647058845, 0.0333333351
   3110, -0.314285725,   0.70588237, 0.0333333351
   3111, -0.314285725,  0.764705896, 0.0333333351
   3112, -0.314285725,  0.823529422, 0.0333333351
   3113, -0.314285725,  0.882352948, 0.0333333351
   3114, -0.314285725,  0.941176474, 0.0333333351
   3115, -0.314285725,           1., 0.0333333351
   3116, -0.314285725,          -1., 0.0166666675
   3117, -0.314285725, -0.941176474, 0.0166666675
   3118, -0.314285725, -0.882352948, 0.0166666675
   3119, -0.314285725, -0.823529422, 0.0166666675
   3120, -0.314285725, -0.764705896, 0.0166666675
   3121, -0.314285725,  -0.70588237, 0.0166666675
   3122, -0.314285725, -0.647058845, 0.0166666675
   3123, -0.314285725, -0.588235319, 0.0166666675
   3124, -0.314285725, -0.529411793, 0.0166666675
   3125, -0.314285725, -0.470588237, 0.0166666675
   3126, -0.314285725, -0.411764711, 0.0166666675
   3127, -0.314285725, -0.352941185, 0.0166666675
   3128, -0.314285725, -0.294117659, 0.0166666675
   3129, -0.314285725, -0.235294119, 0.0166666675
   3130, -0.314285725, -0.176470593, 0.0166666675
   3131, -0.314285725, -0.117647059, 0.0166666675
   3132, -0.314285725, -0.0588235296, 0.0166666675
   3133, -0.314285725,           0., 0.0166666675
   3134, -0.314285725, 0.0588235296, 0.0166666675
   3135, -0.314285725,  0.117647059, 0.0166666675
   3136, -0.314285725,  0.176470593, 0.0166666675
   3137, -0.314285725,  0.235294119, 0.0166666675
   3138, -0.314285725,  0.294117659, 0.0166666675
   3139, -0.314285725,  0.352941185, 0.0166666675
   3140, -0.314285725,  0.411764711, 0.0166666675
   3141, -0.314285725,  0.470588237, 0.0166666675
   3142, -0.314285725,  0.529411793, 0.0166666675
   3143, -0.314285725,  0.588235319, 0.0166666675
   3144, -0.314285725,  0.647058845, 0.0166666675
   3145, -0.314285725,   0.70588237, 0.0166666675
   3146, -0.314285725,  0.764705896, 0.0166666675
   3147, -0.314285725,  0.823529422, 0.0166666675
   3148, -0.314285725,  0.882352948, 0.0166666675
   3149, -0.314285725,  0.941176474, 0.0166666675
   3150, -0.314285725,           1., 0.0166666675
   3151, -0.314285725,          -1.,           0.
   3152, -0.314285725, -0.941176474,           0.
   3153, -0.314285725, -0.882352948,           0.
   3154, -0.314285725, -0.823529422,           0.
   3155, -0.314285725, -0.764705896,           0.
   3156, -0.314285725,  -0.70588237,           0.
   3157, -0.314285725, -0.647058845,           0.
   3158, -0.314285725, -0.588235319,           0.
   3159, -0.314285725, -0.529411793,           0.
   3160, -0.314285725, -0.470588237,           0.
   3161, -0.314285725, -0.411764711,           0.
   3162, -0.314285725, -0.352941185,           0.
   3163, -0.314285725, -0.294117659,           0.
   3164, -0.314285725, -0.235294119,           0.
   3165, -0.314285725, -0.176470593,           0.
   3166, -0.314285725, -0.117647059,           0.
   3167, -0.314285725, -0.0588235296,           0.
   3168, -0.314285725,           0.,           0.
   3169, -0.314285725, 0.0588235296,           0.
   3170, -0.314285725,  0.117647059,           0.
   3171, -0.314285725,  0.176470593,           0.
   3172, -0.314285725,  0.235294119,           0.
   3173, -0.314285725,  0.294117659,           0.
   3174, -0.314285725,  0.352941185,           0.
   3175, -0.314285725,  0.411764711,           0.
   3176, -0.314285725,  0.470588237,           0.
   3177, -0.314285725,  0.529411793,           0.
   3178, -0.314285725,  0.588235319,           0.
   3179, -0.314285725,  0.647058845,           0.
   3180, -0.314285725,   0.70588237,           0.
   3181, -0.314285725,  0.764705896,           0.
   3182, -0.314285725,  0.823529422,           0.
   3183, -0.314285725,  0.882352948,           0.
   3184, -0.314285725,  0.941176474,           0.
   3185, -0.314285725,           1.,           0.
   3186, -0.257142872,          -1.,  0.100000001
   3187, -0.257142872, -0.941176474,  0.100000001
   3188, -0.257142872, -0.882352948,  0.100000001
   3189, -0.257142872, -0.823529422,  0.100000001
   3190, -0.257142872, -0.764705896,  0.100000001
   3191, -0.257142872,  -0.70588237,  0.100000001
   3192, -0.257142872, -0.647058845,  0.100000001
   3193, -0.257142872, -0.588235319,  0.100000001
   3194, -0.257142872, -0.529411793,  0.100000001
   3195, -0.257142872, -0.470588237,  0.100000001
   3196, -0.257142872, -0.411764711,  0.100000001
   3197, -0.257142872, -0.352941185,  0.100000001
   3198, -0.257142872, -0.294117659,  0.100000001
   3199, -0.257142872, -0.235294119,  0.100000001
   3200, -0.257142872, -0.176470593,  0.100000001
   3201, -0.257142872, -0.117647059,  0.100000001
   3202, -0.257142872, -0.0588235296,  0.100000001
   3203, -0.257142872,           0.,  0.100000001
   3204, -0.257142872, 0.0588235296,  0.100000001
   3205, -0.257142872,  0.117647059,  0.100000001
   3206, -0.257142872,  0.176470593,  0.100000001
   3207, -0.257142872,  0.235294119,  0.100000001
   3208, -0.257142872,  0.294117659,  0.100000001
   3209, -0.257142872,  0.352941185,  0.100000001
   3210, -0.257142872,  0.411764711,  0.100000001
   3211, -0.257142872,  0.470588237,  0.100000001
   3212, -0.257142872,  0.529411793,  0.100000001
   3213, -0.257142872,  0.588235319,  0.100000001
   3214, -0.257142872,  0.647058845,  0.100000001
   3215, -0.257142872,   0.70588237,  0.100000001
   3216, -0.257142872,  0.764705896,  0.100000001
   3217, -0.257142872,  0.823529422,  0.100000001
   3218, -0.257142872,  0.882352948,  0.100000001
   3219, -0.257142872,  0.941176474,  0.100000001
   3220, -0.257142872,           1.,  0.100000001
   3221, -0.257142872,          -1., 0.0833333358
   3222, -0.257142872, -0.941176474, 0.0833333358
   3223, -0.257142872, -0.882352948, 0.0833333358
   3224, -0.257142872, -0.823529422, 0.0833333358
   3225, -0.257142872, -0.764705896, 0.0833333358
   3226, -0.257142872,  -0.70588237, 0.0833333358
   3227, -0.257142872, -0.647058845, 0.0833333358
   3228, -0.257142872, -0.588235319, 0.0833333358
   3229, -0.257142872, -0.529411793, 0.0833333358
   3230, -0.257142872, -0.470588237, 0.0833333358
   3231, -0.257142872, -0.411764711, 0.0833333358
   3232, -0.257142872, -0.352941185, 0.0833333358
   3233, -0.257142872, -0.294117659, 0.0833333358
   3234, -0.257142872, -0.235294119, 0.0833333358
   3235, -0.257142872, -0.176470593, 0.0833333358
   3236, -0.257142872, -0.117647059, 0.0833333358
   3237, -0.257142872, -0.0588235296, 0.0833333358
   3238, -0.257142872,           0., 0.0833333358
   3239, -0.257142872, 0.0588235296, 0.0833333358
   3240, -0.257142872,  0.117647059, 0.0833333358
   3241, -0.257142872,  0.176470593, 0.0833333358
   3242, -0.257142872,  0.235294119, 0.0833333358
   3243, -0.257142872,  0.294117659, 0.0833333358
   3244, -0.257142872,  0.352941185, 0.0833333358
   3245, -0.257142872,  0.411764711, 0.0833333358
   3246, -0.257142872,  0.470588237, 0.0833333358
   3247, -0.257142872,  0.529411793, 0.0833333358
   3248, -0.257142872,  0.588235319, 0.0833333358
   3249, -0.257142872,  0.647058845, 0.0833333358
   3250, -0.257142872,   0.70588237, 0.0833333358
   3251, -0.257142872,  0.764705896, 0.0833333358
   3252, -0.257142872,  0.823529422, 0.0833333358
   3253, -0.257142872,  0.882352948, 0.0833333358
   3254, -0.257142872,  0.941176474, 0.0833333358
   3255, -0.257142872,           1., 0.0833333358
   3256, -0.257142872,          -1., 0.0666666701
   3257, -0.257142872, -0.941176474, 0.0666666701
   3258, -0.257142872, -0.882352948, 0.0666666701
   3259, -0.257142872, -0.823529422, 0.0666666701
   3260, -0.257142872, -0.764705896, 0.0666666701
   3261, -0.257142872,  -0.70588237, 0.0666666701
   3262, -0.257142872, -0.647058845, 0.0666666701
   3263, -0.257142872, -0.588235319, 0.0666666701
   3264, -0.257142872, -0.529411793, 0.0666666701
   3265, -0.257142872, -0.470588237, 0.0666666701
   3266, -0.257142872, -0.411764711, 0.0666666701
   3267, -0.257142872, -0.352941185, 0.0666666701
   3268, -0.257142872, -0.294117659, 0.0666666701
   3269, -0.257142872, -0.235294119, 0.0666666701
   3270, -0.257142872, -0.176470593, 0.0666666701
   3271, -0.257142872, -0.117647059, 0.0666666701
   3272, -0.257142872, -0.0588235296, 0.0666666701
   3273, -0.257142872,           0., 0.0666666701
   3274, -0.257142872, 0.0588235296, 0.0666666701
   3275, -0.257142872,  0.117647059, 0.0666666701
   3276, -0.257142872,  0.176470593, 0.0666666701
   3277, -0.257142872,  0.235294119, 0.0666666701
   3278, -0.257142872,  0.294117659, 0.0666666701
   3279, -0.257142872,  0.352941185, 0.0666666701
   3280, -0.257142872,  0.411764711, 0.0666666701
   3281, -0.257142872,  0.470588237, 0.0666666701
   3282, -0.257142872,  0.529411793, 0.0666666701
   3283, -0.257142872,  0.588235319, 0.0666666701
   3284, -0.257142872,  0.647058845, 0.0666666701
   3285, -0.257142872,   0.70588237, 0.0666666701
   3286, -0.257142872,  0.764705896, 0.0666666701
   3287, -0.257142872,  0.823529422, 0.0666666701
   3288, -0.257142872,  0.882352948, 0.0666666701
   3289, -0.257142872,  0.941176474, 0.0666666701
   3290, -0.257142872,           1., 0.0666666701
   3291, -0.257142872,          -1., 0.0500000007
   3292, -0.257142872, -0.941176474, 0.0500000007
   3293, -0.257142872, -0.882352948, 0.0500000007
   3294, -0.257142872, -0.823529422, 0.0500000007
   3295, -0.257142872, -0.764705896, 0.0500000007
   3296, -0.257142872,  -0.70588237, 0.0500000007
   3297, -0.257142872, -0.647058845, 0.0500000007
   3298, -0.257142872, -0.588235319, 0.0500000007
   3299, -0.257142872, -0.529411793, 0.0500000007
   3300, -0.257142872, -0.470588237, 0.0500000007
   3301, -0.257142872, -0.411764711, 0.0500000007
   3302, -0.257142872, -0.352941185, 0.0500000007
   3303, -0.257142872, -0.294117659, 0.0500000007
   3304, -0.257142872, -0.235294119, 0.0500000007
   3305, -0.257142872, -0.176470593, 0.0500000007
   3306, -0.257142872, -0.117647059, 0.0500000007
   3307, -0.257142872, -0.0588235296, 0.0500000007
   3308, -0.257142872,           0., 0.0500000007
   3309, -0.257142872, 0.0588235296, 0.0500000007
   3310, -0.257142872,  0.117647059, 0.0500000007
   3311, -0.257142872,  0.176470593, 0.0500000007
   3312, -0.257142872,  0.235294119, 0.0500000007
   3313, -0.257142872,  0.294117659, 0.0500000007
   3314, -0.257142872,  0.352941185, 0.0500000007
   3315, -0.257142872,  0.411764711, 0.0500000007
   3316, -0.257142872,  0.470588237, 0.0500000007
   3317, -0.257142872,  0.529411793, 0.0500000007
   3318, -0.257142872,  0.588235319, 0.0500000007
   3319, -0.257142872,  0.647058845, 0.0500000007
   3320, -0.257142872,   0.70588237, 0.0500000007
   3321, -0.257142872,  0.764705896, 0.0500000007
   3322, -0.257142872,  0.823529422, 0.0500000007
   3323, -0.257142872,  0.882352948, 0.0500000007
   3324, -0.257142872,  0.941176474, 0.0500000007
   3325, -0.257142872,           1., 0.0500000007
   3326, -0.257142872,          -1., 0.0333333351
   3327, -0.257142872, -0.941176474, 0.0333333351
   3328, -0.257142872, -0.882352948, 0.0333333351
   3329, -0.257142872, -0.823529422, 0.0333333351
   3330, -0.257142872, -0.764705896, 0.0333333351
   3331, -0.257142872,  -0.70588237, 0.0333333351
   3332, -0.257142872, -0.647058845, 0.0333333351
   3333, -0.257142872, -0.588235319, 0.0333333351
   3334, -0.257142872, -0.529411793, 0.0333333351
   3335, -0.257142872, -0.470588237, 0.0333333351
   3336, -0.257142872, -0.411764711, 0.0333333351
   3337, -0.257142872, -0.352941185, 0.0333333351
   3338, -0.257142872, -0.294117659, 0.0333333351
   3339, -0.257142872, -0.235294119, 0.0333333351
   3340, -0.257142872, -0.176470593, 0.0333333351
   3341, -0.257142872, -0.117647059, 0.0333333351
   3342, -0.257142872, -0.0588235296, 0.0333333351
   3343, -0.257142872,           0., 0.0333333351
   3344, -0.257142872, 0.0588235296, 0.0333333351
   3345, -0.257142872,  0.117647059, 0.0333333351
   3346, -0.257142872,  0.176470593, 0.0333333351
   3347, -0.257142872,  0.235294119, 0.0333333351
   3348, -0.257142872,  0.294117659, 0.0333333351
   3349, -0.257142872,  0.352941185, 0.0333333351
   3350, -0.257142872,  0.411764711, 0.0333333351
   3351, -0.257142872,  0.470588237, 0.0333333351
   3352, -0.257142872,  0.529411793, 0.0333333351
   3353, -0.257142872,  0.588235319, 0.0333333351
   3354, -0.257142872,  0.647058845, 0.0333333351
   3355, -0.257142872,   0.70588237, 0.0333333351
   3356, -0.257142872,  0.764705896, 0.0333333351
   3357, -0.257142872,  0.823529422, 0.0333333351
   3358, -0.257142872,  0.882352948, 0.0333333351
   3359, -0.257142872,  0.941176474, 0.0333333351
   3360, -0.257142872,           1., 0.0333333351
   3361, -0.257142872,          -1., 0.0166666675
   3362, -0.257142872, -0.941176474, 0.0166666675
   3363, -0.257142872, -0.882352948, 0.0166666675
   3364, -0.257142872, -0.823529422, 0.0166666675
   3365, -0.257142872, -0.764705896, 0.0166666675
   3366, -0.257142872,  -0.70588237, 0.0166666675
   3367, -0.257142872, -0.647058845, 0.0166666675
   3368, -0.257142872, -0.588235319, 0.0166666675
   3369, -0.257142872, -0.529411793, 0.0166666675
   3370, -0.257142872, -0.470588237, 0.0166666675
   3371, -0.257142872, -0.411764711, 0.0166666675
   3372, -0.257142872, -0.352941185, 0.0166666675
   3373, -0.257142872, -0.294117659, 0.0166666675
   3374, -0.257142872, -0.235294119, 0.0166666675
   3375, -0.257142872, -0.176470593, 0.0166666675
   3376, -0.257142872, -0.117647059, 0.0166666675
   3377, -0.257142872, -0.0588235296, 0.0166666675
   3378, -0.257142872,           0., 0.0166666675
   3379, -0.257142872, 0.0588235296, 0.0166666675
   3380, -0.257142872,  0.117647059, 0.0166666675
   3381, -0.257142872,  0.176470593, 0.0166666675
   3382, -0.257142872,  0.235294119, 0.0166666675
   3383, -0.257142872,  0.294117659, 0.0166666675
   3384, -0.257142872,  0.352941185, 0.0166666675
   3385, -0.257142872,  0.411764711, 0.0166666675
   3386, -0.257142872,  0.470588237, 0.0166666675
   3387, -0.257142872,  0.529411793, 0.0166666675
   3388, -0.257142872,  0.588235319, 0.0166666675
   3389, -0.257142872,  0.647058845, 0.0166666675
   3390, -0.257142872,   0.70588237, 0.0166666675
   3391, -0.257142872,  0.764705896, 0.0166666675
   3392, -0.257142872,  0.823529422, 0.0166666675
   3393, -0.257142872,  0.882352948, 0.0166666675
   3394, -0.257142872,  0.941176474, 0.0166666675
   3395, -0.257142872,           1., 0.0166666675
   3396, -0.257142872,          -1.,           0.
   3397, -0.257142872, -0.941176474,           0.
   3398, -0.257142872, -0.882352948,           0.
   3399, -0.257142872, -0.823529422,           0.
   3400, -0.257142872, -0.764705896,           0.
   3401, -0.257142872,  -0.70588237,           0.
   3402, -0.257142872, -0.647058845,           0.
   3403, -0.257142872, -0.588235319,           0.
   3404, -0.257142872, -0.529411793,           0.
   3405, -0.257142872, -0.470588237,           0.
   3406, -0.257142872, -0.411764711,           0.
   3407, -0.257142872, -0.352941185,           0.
   3408, -0.257142872, -0.294117659,           0.
   3409, -0.257142872, -0.235294119,           0.
   3410, -0.257142872, -0.176470593,           0.
   3411, -0.257142872, -0.117647059,           0.
   3412, -0.257142872, -0.0588235296,           0.
   3413, -0.257142872,           0.,           0.
   3414, -0.257142872, 0.0588235296,           0.
   3415, -0.257142872,  0.117647059,           0.
   3416, -0.257142872,  0.176470593,           0.
   3417, -0.257142872,  0.235294119,           0.
   3418, -0.257142872,  0.294117659,           0.
   3419, -0.257142872,  0.352941185,           0.
   3420, -0.257142872,  0.411764711,           0.
   3421, -0.257142872,  0.470588237,           0.
   3422, -0.257142872,  0.529411793,           0.
   3423, -0.257142872,  0.588235319,           0.
   3424, -0.257142872,  0.647058845,           0.
   3425, -0.257142872,   0.70588237,           0.
   3426, -0.257142872,  0.764705896,           0.
   3427, -0.257142872,  0.823529422,           0.
   3428, -0.257142872,  0.882352948,           0.
   3429, -0.257142872,  0.941176474,           0.
   3430, -0.257142872,           1.,           0.
   3431, -0.200000003,          -1.,  0.100000001
   3432, -0.200000003, -0.941176474,  0.100000001
   3433, -0.200000003, -0.882352948,  0.100000001
   3434, -0.200000003, -0.823529422,  0.100000001
   3435, -0.200000003, -0.764705896,  0.100000001
   3436, -0.200000003,  -0.70588237,  0.100000001
   3437, -0.200000003, -0.647058845,  0.100000001
   3438, -0.200000003, -0.588235319,  0.100000001
   3439, -0.200000003, -0.529411793,  0.100000001
   3440, -0.200000003, -0.470588237,  0.100000001
   3441, -0.200000003, -0.411764711,  0.100000001
   3442, -0.200000003, -0.352941185,  0.100000001
   3443, -0.200000003, -0.294117659,  0.100000001
   3444, -0.200000003, -0.235294119,  0.100000001
   3445, -0.200000003, -0.176470593,  0.100000001
   3446, -0.200000003, -0.117647059,  0.100000001
   3447, -0.200000003, -0.0588235296,  0.100000001
   3448, -0.200000003,           0.,  0.100000001
   3449, -0.200000003, 0.0588235296,  0.100000001
   3450, -0.200000003,  0.117647059,  0.100000001
   3451, -0.200000003,  0.176470593,  0.100000001
   3452, -0.200000003,  0.235294119,  0.100000001
   3453, -0.200000003,  0.294117659,  0.100000001
   3454, -0.200000003,  0.352941185,  0.100000001
   3455, -0.200000003,  0.411764711,  0.100000001
   3456, -0.200000003,  0.470588237,  0.100000001
   3457, -0.200000003,  0.529411793,  0.100000001
   3458, -0.200000003,  0.588235319,  0.100000001
   3459, -0.200000003,  0.647058845,  0.100000001
   3460, -0.200000003,   0.70588237,  0.100000001
   3461, -0.200000003,  0.764705896,  0.100000001
   3462, -0.200000003,  0.823529422,  0.100000001
   3463, -0.200000003,  0.882352948,  0.100000001
   3464, -0.200000003,  0.941176474,  0.100000001
   3465, -0.200000003,           1.,  0.100000001
   3466, -0.200000003,          -1., 0.0833333358
   3467, -0.200000003, -0.941176474, 0.0833333358
   3468, -0.200000003, -0.882352948, 0.0833333358
   3469, -0.200000003, -0.823529422, 0.0833333358
   3470, -0.200000003, -0.764705896, 0.0833333358
   3471, -0.200000003,  -0.70588237, 0.0833333358
   3472, -0.200000003, -0.647058845, 0.0833333358
   3473, -0.200000003, -0.588235319, 0.0833333358
   3474, -0.200000003, -0.529411793, 0.0833333358
   3475, -0.200000003, -0.470588237, 0.0833333358
   3476, -0.200000003, -0.411764711, 0.0833333358
   3477, -0.200000003, -0.352941185, 0.0833333358
   3478, -0.200000003, -0.294117659, 0.0833333358
   3479, -0.200000003, -0.235294119, 0.0833333358
   3480, -0.200000003, -0.176470593, 0.0833333358
   3481, -0.200000003, -0.117647059, 0.0833333358
   3482, -0.200000003, -0.0588235296, 0.0833333358
   3483, -0.200000003,           0., 0.0833333358
   3484, -0.200000003, 0.0588235296, 0.0833333358
   3485, -0.200000003,  0.117647059, 0.0833333358
   3486, -0.200000003,  0.176470593, 0.0833333358
   3487, -0.200000003,  0.235294119, 0.0833333358
   3488, -0.200000003,  0.294117659, 0.0833333358
   3489, -0.200000003,  0.352941185, 0.0833333358
   3490, -0.200000003,  0.411764711, 0.0833333358
   3491, -0.200000003,  0.470588237, 0.0833333358
   3492, -0.200000003,  0.529411793, 0.0833333358
   3493, -0.200000003,  0.588235319, 0.0833333358
   3494, -0.200000003,  0.647058845, 0.0833333358
   3495, -0.200000003,   0.70588237, 0.0833333358
   3496, -0.200000003,  0.764705896, 0.0833333358
   3497, -0.200000003,  0.823529422, 0.0833333358
   3498, -0.200000003,  0.882352948, 0.0833333358
   3499, -0.200000003,  0.941176474, 0.0833333358
   3500, -0.200000003,           1., 0.0833333358
   3501, -0.200000003,          -1., 0.0666666701
   3502, -0.200000003, -0.941176474, 0.0666666701
   3503, -0.200000003, -0.882352948, 0.0666666701
   3504, -0.200000003, -0.823529422, 0.0666666701
   3505, -0.200000003, -0.764705896, 0.0666666701
   3506, -0.200000003,  -0.70588237, 0.0666666701
   3507, -0.200000003, -0.647058845, 0.0666666701
   3508, -0.200000003, -0.588235319, 0.0666666701
   3509, -0.200000003, -0.529411793, 0.0666666701
   3510, -0.200000003, -0.470588237, 0.0666666701
   3511, -0.200000003, -0.411764711, 0.0666666701
   3512, -0.200000003, -0.352941185, 0.0666666701
   3513, -0.200000003, -0.294117659, 0.0666666701
   3514, -0.200000003, -0.235294119, 0.0666666701
   3515, -0.200000003, -0.176470593, 0.0666666701
   3516, -0.200000003, -0.117647059, 0.0666666701
   3517, -0.200000003, -0.0588235296, 0.0666666701
   3518, -0.200000003,           0., 0.0666666701
   3519, -0.200000003, 0.0588235296, 0.0666666701
   3520, -0.200000003,  0.117647059, 0.0666666701
   3521, -0.200000003,  0.176470593, 0.0666666701
   3522, -0.200000003,  0.235294119, 0.0666666701
   3523, -0.200000003,  0.294117659, 0.0666666701
   3524, -0.200000003,  0.352941185, 0.0666666701
   3525, -0.200000003,  0.411764711, 0.0666666701
   3526, -0.200000003,  0.470588237, 0.0666666701
   3527, -0.200000003,  0.529411793, 0.0666666701
   3528, -0.200000003,  0.588235319, 0.0666666701
   3529, -0.200000003,  0.647058845, 0.0666666701
   3530, -0.200000003,   0.70588237, 0.0666666701
   3531, -0.200000003,  0.764705896, 0.0666666701
   3532, -0.200000003,  0.823529422, 0.0666666701
   3533, -0.200000003,  0.882352948, 0.0666666701
   3534, -0.200000003,  0.941176474, 0.0666666701
   3535, -0.200000003,           1., 0.0666666701
   3536, -0.200000003,          -1., 0.0500000007
   3537, -0.200000003, -0.941176474, 0.0500000007
   3538, -0.200000003, -0.882352948, 0.0500000007
   3539, -0.200000003, -0.823529422, 0.0500000007
   3540, -0.200000003, -0.764705896, 0.0500000007
   3541, -0.200000003,  -0.70588237, 0.0500000007
   3542, -0.200000003, -0.647058845, 0.0500000007
   3543, -0.200000003, -0.588235319, 0.0500000007
   3544, -0.200000003, -0.529411793, 0.0500000007
   3545, -0.200000003, -0.470588237, 0.0500000007
   3546, -0.200000003, -0.411764711, 0.0500000007
   3547, -0.200000003, -0.352941185, 0.0500000007
   3548, -0.200000003, -0.294117659, 0.0500000007
   3549, -0.200000003, -0.235294119, 0.0500000007
   3550, -0.200000003, -0.176470593, 0.0500000007
   3551, -0.200000003, -0.117647059, 0.0500000007
   3552, -0.200000003, -0.0588235296, 0.0500000007
   3553, -0.200000003,           0., 0.0500000007
   3554, -0.200000003, 0.0588235296, 0.0500000007
   3555, -0.200000003,  0.117647059, 0.0500000007
   3556, -0.200000003,  0.176470593, 0.0500000007
   3557, -0.200000003,  0.235294119, 0.0500000007
   3558, -0.200000003,  0.294117659, 0.0500000007
   3559, -0.200000003,  0.352941185, 0.0500000007
   3560, -0.200000003,  0.411764711, 0.0500000007
   3561, -0.200000003,  0.470588237, 0.0500000007
   3562, -0.200000003,  0.529411793, 0.0500000007
   3563, -0.200000003,  0.588235319, 0.0500000007
   3564, -0.200000003,  0.647058845, 0.0500000007
   3565, -0.200000003,   0.70588237, 0.0500000007
   3566, -0.200000003,  0.764705896, 0.0500000007
   3567, -0.200000003,  0.823529422, 0.0500000007
   3568, -0.200000003,  0.882352948, 0.0500000007
   3569, -0.200000003,  0.941176474, 0.0500000007
   3570, -0.200000003,           1., 0.0500000007
   3571, -0.200000003,          -1., 0.0333333351
   3572, -0.200000003, -0.941176474, 0.0333333351
   3573, -0.200000003, -0.882352948, 0.0333333351
   3574, -0.200000003, -0.823529422, 0.0333333351
   3575, -0.200000003, -0.764705896, 0.0333333351
   3576, -0.200000003,  -0.70588237, 0.0333333351
   3577, -0.200000003, -0.647058845, 0.0333333351
   3578, -0.200000003, -0.588235319, 0.0333333351
   3579, -0.200000003, -0.529411793, 0.0333333351
   3580, -0.200000003, -0.470588237, 0.0333333351
   3581, -0.200000003, -0.411764711, 0.0333333351
   3582, -0.200000003, -0.352941185, 0.0333333351
   3583, -0.200000003, -0.294117659, 0.0333333351
   3584, -0.200000003, -0.235294119, 0.0333333351
   3585, -0.200000003, -0.176470593, 0.0333333351
   3586, -0.200000003, -0.117647059, 0.0333333351
   3587, -0.200000003, -0.0588235296, 0.0333333351
   3588, -0.200000003,           0., 0.0333333351
   3589, -0.200000003, 0.0588235296, 0.0333333351
   3590, -0.200000003,  0.117647059, 0.0333333351
   3591, -0.200000003,  0.176470593, 0.0333333351
   3592, -0.200000003,  0.235294119, 0.0333333351
   3593, -0.200000003,  0.294117659, 0.0333333351
   3594, -0.200000003,  0.352941185, 0.0333333351
   3595, -0.200000003,  0.411764711, 0.0333333351
   3596, -0.200000003,  0.470588237, 0.0333333351
   3597, -0.200000003,  0.529411793, 0.0333333351
   3598, -0.200000003,  0.588235319, 0.0333333351
   3599, -0.200000003,  0.647058845, 0.0333333351
   3600, -0.200000003,   0.70588237, 0.0333333351
   3601, -0.200000003,  0.764705896, 0.0333333351
   3602, -0.200000003,  0.823529422, 0.0333333351
   3603, -0.200000003,  0.882352948, 0.0333333351
   3604, -0.200000003,  0.941176474, 0.0333333351
   3605, -0.200000003,           1., 0.0333333351
   3606, -0.200000003,          -1., 0.0166666675
   3607, -0.200000003, -0.941176474, 0.0166666675
   3608, -0.200000003, -0.882352948, 0.0166666675
   3609, -0.200000003, -0.823529422, 0.0166666675
   3610, -0.200000003, -0.764705896, 0.0166666675
   3611, -0.200000003,  -0.70588237, 0.0166666675
   3612, -0.200000003, -0.647058845, 0.0166666675
   3613, -0.200000003, -0.588235319, 0.0166666675
   3614, -0.200000003, -0.529411793, 0.0166666675
   3615, -0.200000003, -0.470588237, 0.0166666675
   3616, -0.200000003, -0.411764711, 0.0166666675
   3617, -0.200000003, -0.352941185, 0.0166666675
   3618, -0.200000003, -0.294117659, 0.0166666675
   3619, -0.200000003, -0.235294119, 0.0166666675
   3620, -0.200000003, -0.176470593, 0.0166666675
   3621, -0.200000003, -0.117647059, 0.0166666675
   3622, -0.200000003, -0.0588235296, 0.0166666675
   3623, -0.200000003,           0., 0.0166666675
   3624, -0.200000003, 0.0588235296, 0.0166666675
   3625, -0.200000003,  0.117647059, 0.0166666675
   3626, -0.200000003,  0.176470593, 0.0166666675
   3627, -0.200000003,  0.235294119, 0.0166666675
   3628, -0.200000003,  0.294117659, 0.0166666675
   3629, -0.200000003,  0.352941185, 0.0166666675
   3630, -0.200000003,  0.411764711, 0.0166666675
   3631, -0.200000003,  0.470588237, 0.0166666675
   3632, -0.200000003,  0.529411793, 0.0166666675
   3633, -0.200000003,  0.588235319, 0.0166666675
   3634, -0.200000003,  0.647058845, 0.0166666675
   3635, -0.200000003,   0.70588237, 0.0166666675
   3636, -0.200000003,  0.764705896, 0.0166666675
   3637, -0.200000003,  0.823529422, 0.0166666675
   3638, -0.200000003,  0.882352948, 0.0166666675
   3639, -0.200000003,  0.941176474, 0.0166666675
   3640, -0.200000003,           1., 0.0166666675
   3641, -0.200000003,          -1.,           0.
   3642, -0.200000003, -0.941176474,           0.
   3643, -0.200000003, -0.882352948,           0.
   3644, -0.200000003, -0.823529422,           0.
   3645, -0.200000003, -0.764705896,           0.
   3646, -0.200000003,  -0.70588237,           0.
   3647, -0.200000003, -0.647058845,           0.
   3648, -0.200000003, -0.588235319,           0.
   3649, -0.200000003, -0.529411793,           0.
   3650, -0.200000003, -0.470588237,           0.
   3651, -0.200000003, -0.411764711,           0.
   3652, -0.200000003, -0.352941185,           0.
   3653, -0.200000003, -0.294117659,           0.
   3654, -0.200000003, -0.235294119,           0.
   3655, -0.200000003, -0.176470593,           0.
   3656, -0.200000003, -0.117647059,           0.
   3657, -0.200000003, -0.0588235296,           0.
   3658, -0.200000003,           0.,           0.
   3659, -0.200000003, 0.0588235296,           0.
   3660, -0.200000003,  0.117647059,           0.
   3661, -0.200000003,  0.176470593,           0.
   3662, -0.200000003,  0.235294119,           0.
   3663, -0.200000003,  0.294117659,           0.
   3664, -0.200000003,  0.352941185,           0.
   3665, -0.200000003,  0.411764711,           0.
   3666, -0.200000003,  0.470588237,           0.
   3667, -0.200000003,  0.529411793,           0.
   3668, -0.200000003,  0.588235319,           0.
   3669, -0.200000003,  0.647058845,           0.
   3670, -0.200000003,   0.70588237,           0.
   3671, -0.200000003,  0.764705896,           0.
   3672, -0.200000003,  0.823529422,           0.
   3673, -0.200000003,  0.882352948,           0.
   3674, -0.200000003,  0.941176474,           0.
   3675, -0.200000003,           1.,           0.
   3676, -0.142857149,          -1.,  0.100000001
   3677, -0.142857149, -0.941176474,  0.100000001
   3678, -0.142857149, -0.882352948,  0.100000001
   3679, -0.142857149, -0.823529422,  0.100000001
   3680, -0.142857149, -0.764705896,  0.100000001
   3681, -0.142857149,  -0.70588237,  0.100000001
   3682, -0.142857149, -0.647058845,  0.100000001
   3683, -0.142857149, -0.588235319,  0.100000001
   3684, -0.142857149, -0.529411793,  0.100000001
   3685, -0.142857149, -0.470588237,  0.100000001
   3686, -0.142857149, -0.411764711,  0.100000001
   3687, -0.142857149, -0.352941185,  0.100000001
   3688, -0.142857149, -0.294117659,  0.100000001
   3689, -0.142857149, -0.235294119,  0.100000001
   3690, -0.142857149, -0.176470593,  0.100000001
   3691, -0.142857149, -0.117647059,  0.100000001
   3692, -0.142857149, -0.0588235296,  0.100000001
   3693, -0.142857149,           0.,  0.100000001
   3694, -0.142857149, 0.0588235296,  0.100000001
   3695, -0.142857149,  0.117647059,  0.100000001
   3696, -0.142857149,  0.176470593,  0.100000001
   3697, -0.142857149,  0.235294119,  0.100000001
   3698, -0.142857149,  0.294117659,  0.100000001
   3699, -0.142857149,  0.352941185,  0.100000001
   3700, -0.142857149,  0.411764711,  0.100000001
   3701, -0.142857149,  0.470588237,  0.100000001
   3702, -0.142857149,  0.529411793,  0.100000001
   3703, -0.142857149,  0.588235319,  0.100000001
   3704, -0.142857149,  0.647058845,  0.100000001
   3705, -0.142857149,   0.70588237,  0.100000001
   3706, -0.142857149,  0.764705896,  0.100000001
   3707, -0.142857149,  0.823529422,  0.100000001
   3708, -0.142857149,  0.882352948,  0.100000001
   3709, -0.142857149,  0.941176474,  0.100000001
   3710, -0.142857149,           1.,  0.100000001
   3711, -0.142857149,          -1., 0.0833333358
   3712, -0.142857149, -0.941176474, 0.0833333358
   3713, -0.142857149, -0.882352948, 0.0833333358
   3714, -0.142857149, -0.823529422, 0.0833333358
   3715, -0.142857149, -0.764705896, 0.0833333358
   3716, -0.142857149,  -0.70588237, 0.0833333358
   3717, -0.142857149, -0.647058845, 0.0833333358
   3718, -0.142857149, -0.588235319, 0.0833333358
   3719, -0.142857149, -0.529411793, 0.0833333358
   3720, -0.142857149, -0.470588237, 0.0833333358
   3721, -0.142857149, -0.411764711, 0.0833333358
   3722, -0.142857149, -0.352941185, 0.0833333358
   3723, -0.142857149, -0.294117659, 0.0833333358
   3724, -0.142857149, -0.235294119, 0.0833333358
   3725, -0.142857149, -0.176470593, 0.0833333358
   3726, -0.142857149, -0.117647059, 0.0833333358
   3727, -0.142857149, -0.0588235296, 0.0833333358
   3728, -0.142857149,           0., 0.0833333358
   3729, -0.142857149, 0.0588235296, 0.0833333358
   3730, -0.142857149,  0.117647059, 0.0833333358
   3731, -0.142857149,  0.176470593, 0.0833333358
   3732, -0.142857149,  0.235294119, 0.0833333358
   3733, -0.142857149,  0.294117659, 0.0833333358
   3734, -0.142857149,  0.352941185, 0.0833333358
   3735, -0.142857149,  0.411764711, 0.0833333358
   3736, -0.142857149,  0.470588237, 0.0833333358
   3737, -0.142857149,  0.529411793, 0.0833333358
   3738, -0.142857149,  0.588235319, 0.0833333358
   3739, -0.142857149,  0.647058845, 0.0833333358
   3740, -0.142857149,   0.70588237, 0.0833333358
   3741, -0.142857149,  0.764705896, 0.0833333358
   3742, -0.142857149,  0.823529422, 0.0833333358
   3743, -0.142857149,  0.882352948, 0.0833333358
   3744, -0.142857149,  0.941176474, 0.0833333358
   3745, -0.142857149,           1., 0.0833333358
   3746, -0.142857149,          -1., 0.0666666701
   3747, -0.142857149, -0.941176474, 0.0666666701
   3748, -0.142857149, -0.882352948, 0.0666666701
   3749, -0.142857149, -0.823529422, 0.0666666701
   3750, -0.142857149, -0.764705896, 0.0666666701
   3751, -0.142857149,  -0.70588237, 0.0666666701
   3752, -0.142857149, -0.647058845, 0.0666666701
   3753, -0.142857149, -0.588235319, 0.0666666701
   3754, -0.142857149, -0.529411793, 0.0666666701
   3755, -0.142857149, -0.470588237, 0.0666666701
   3756, -0.142857149, -0.411764711, 0.0666666701
   3757, -0.142857149, -0.352941185, 0.0666666701
   3758, -0.142857149, -0.294117659, 0.0666666701
   3759, -0.142857149, -0.235294119, 0.0666666701
   3760, -0.142857149, -0.176470593, 0.0666666701
   3761, -0.142857149, -0.117647059, 0.0666666701
   3762, -0.142857149, -0.0588235296, 0.0666666701
   3763, -0.142857149,           0., 0.0666666701
   3764, -0.142857149, 0.0588235296, 0.0666666701
   3765, -0.142857149,  0.117647059, 0.0666666701
   3766, -0.142857149,  0.176470593, 0.0666666701
   3767, -0.142857149,  0.235294119, 0.0666666701
   3768, -0.142857149,  0.294117659, 0.0666666701
   3769, -0.142857149,  0.352941185, 0.0666666701
   3770, -0.142857149,  0.411764711, 0.0666666701
   3771, -0.142857149,  0.470588237, 0.0666666701
   3772, -0.142857149,  0.529411793, 0.0666666701
   3773, -0.142857149,  0.588235319, 0.0666666701
   3774, -0.142857149,  0.647058845, 0.0666666701
   3775, -0.142857149,   0.70588237, 0.0666666701
   3776, -0.142857149,  0.764705896, 0.0666666701
   3777, -0.142857149,  0.823529422, 0.0666666701
   3778, -0.142857149,  0.882352948, 0.0666666701
   3779, -0.142857149,  0.941176474, 0.0666666701
   3780, -0.142857149,           1., 0.0666666701
   3781, -0.142857149,          -1., 0.0500000007
   3782, -0.142857149, -0.941176474, 0.0500000007
   3783, -0.142857149, -0.882352948, 0.0500000007
   3784, -0.142857149, -0.823529422, 0.0500000007
   3785, -0.142857149, -0.764705896, 0.0500000007
   3786, -0.142857149,  -0.70588237, 0.0500000007
   3787, -0.142857149, -0.647058845, 0.0500000007
   3788, -0.142857149, -0.588235319, 0.0500000007
   3789, -0.142857149, -0.529411793, 0.0500000007
   3790, -0.142857149, -0.470588237, 0.0500000007
   3791, -0.142857149, -0.411764711, 0.0500000007
   3792, -0.142857149, -0.352941185, 0.0500000007
   3793, -0.142857149, -0.294117659, 0.0500000007
   3794, -0.142857149, -0.235294119, 0.0500000007
   3795, -0.142857149, -0.176470593, 0.0500000007
   3796, -0.142857149, -0.117647059, 0.0500000007
   3797, -0.142857149, -0.0588235296, 0.0500000007
   3798, -0.142857149,           0., 0.0500000007
   3799, -0.142857149, 0.0588235296, 0.0500000007
   3800, -0.142857149,  0.117647059, 0.0500000007
   3801, -0.142857149,  0.176470593, 0.0500000007
   3802, -0.142857149,  0.235294119, 0.0500000007
   3803, -0.142857149,  0.294117659, 0.0500000007
   3804, -0.142857149,  0.352941185, 0.0500000007
   3805, -0.142857149,  0.411764711, 0.0500000007
   3806, -0.142857149,  0.470588237, 0.0500000007
   3807, -0.142857149,  0.529411793, 0.0500000007
   3808, -0.142857149,  0.588235319, 0.0500000007
   3809, -0.142857149,  0.647058845, 0.0500000007
   3810, -0.142857149,   0.70588237, 0.0500000007
   3811, -0.142857149,  0.764705896, 0.0500000007
   3812, -0.142857149,  0.823529422, 0.0500000007
   3813, -0.142857149,  0.882352948, 0.0500000007
   3814, -0.142857149,  0.941176474, 0.0500000007
   3815, -0.142857149,           1., 0.0500000007
   3816, -0.142857149,          -1., 0.0333333351
   3817, -0.142857149, -0.941176474, 0.0333333351
   3818, -0.142857149, -0.882352948, 0.0333333351
   3819, -0.142857149, -0.823529422, 0.0333333351
   3820, -0.142857149, -0.764705896, 0.0333333351
   3821, -0.142857149,  -0.70588237, 0.0333333351
   3822, -0.142857149, -0.647058845, 0.0333333351
   3823, -0.142857149, -0.588235319, 0.0333333351
   3824, -0.142857149, -0.529411793, 0.0333333351
   3825, -0.142857149, -0.470588237, 0.0333333351
   3826, -0.142857149, -0.411764711, 0.0333333351
   3827, -0.142857149, -0.352941185, 0.0333333351
   3828, -0.142857149, -0.294117659, 0.0333333351
   3829, -0.142857149, -0.235294119, 0.0333333351
   3830, -0.142857149, -0.176470593, 0.0333333351
   3831, -0.142857149, -0.117647059, 0.0333333351
   3832, -0.142857149, -0.0588235296, 0.0333333351
   3833, -0.142857149,           0., 0.0333333351
   3834, -0.142857149, 0.0588235296, 0.0333333351
   3835, -0.142857149,  0.117647059, 0.0333333351
   3836, -0.142857149,  0.176470593, 0.0333333351
   3837, -0.142857149,  0.235294119, 0.0333333351
   3838, -0.142857149,  0.294117659, 0.0333333351
   3839, -0.142857149,  0.352941185, 0.0333333351
   3840, -0.142857149,  0.411764711, 0.0333333351
   3841, -0.142857149,  0.470588237, 0.0333333351
   3842, -0.142857149,  0.529411793, 0.0333333351
   3843, -0.142857149,  0.588235319, 0.0333333351
   3844, -0.142857149,  0.647058845, 0.0333333351
   3845, -0.142857149,   0.70588237, 0.0333333351
   3846, -0.142857149,  0.764705896, 0.0333333351
   3847, -0.142857149,  0.823529422, 0.0333333351
   3848, -0.142857149,  0.882352948, 0.0333333351
   3849, -0.142857149,  0.941176474, 0.0333333351
   3850, -0.142857149,           1., 0.0333333351
   3851, -0.142857149,          -1., 0.0166666675
   3852, -0.142857149, -0.941176474, 0.0166666675
   3853, -0.142857149, -0.882352948, 0.0166666675
   3854, -0.142857149, -0.823529422, 0.0166666675
   3855, -0.142857149, -0.764705896, 0.0166666675
   3856, -0.142857149,  -0.70588237, 0.0166666675
   3857, -0.142857149, -0.647058845, 0.0166666675
   3858, -0.142857149, -0.588235319, 0.0166666675
   3859, -0.142857149, -0.529411793, 0.0166666675
   3860, -0.142857149, -0.470588237, 0.0166666675
   3861, -0.142857149, -0.411764711, 0.0166666675
   3862, -0.142857149, -0.352941185, 0.0166666675
   3863, -0.142857149, -0.294117659, 0.0166666675
   3864, -0.142857149, -0.235294119, 0.0166666675
   3865, -0.142857149, -0.176470593, 0.0166666675
   3866, -0.142857149, -0.117647059, 0.0166666675
   3867, -0.142857149, -0.0588235296, 0.0166666675
   3868, -0.142857149,           0., 0.0166666675
   3869, -0.142857149, 0.0588235296, 0.0166666675
   3870, -0.142857149,  0.117647059, 0.0166666675
   3871, -0.142857149,  0.176470593, 0.0166666675
   3872, -0.142857149,  0.235294119, 0.0166666675
   3873, -0.142857149,  0.294117659, 0.0166666675
   3874, -0.142857149,  0.352941185, 0.0166666675
   3875, -0.142857149,  0.411764711, 0.0166666675
   3876, -0.142857149,  0.470588237, 0.0166666675
   3877, -0.142857149,  0.529411793, 0.0166666675
   3878, -0.142857149,  0.588235319, 0.0166666675
   3879, -0.142857149,  0.647058845, 0.0166666675
   3880, -0.142857149,   0.70588237, 0.0166666675
   3881, -0.142857149,  0.764705896, 0.0166666675
   3882, -0.142857149,  0.823529422, 0.0166666675
   3883, -0.142857149,  0.882352948, 0.0166666675
   3884, -0.142857149,  0.941176474, 0.0166666675
   3885, -0.142857149,           1., 0.0166666675
   3886, -0.142857149,          -1.,           0.
   3887, -0.142857149, -0.941176474,           0.
   3888, -0.142857149, -0.882352948,           0.
   3889, -0.142857149, -0.823529422,           0.
   3890, -0.142857149, -0.764705896,           0.
   3891, -0.142857149,  -0.70588237,           0.
   3892, -0.142857149, -0.647058845,           0.
   3893, -0.142857149, -0.588235319,           0.
   3894, -0.142857149, -0.529411793,           0.
   3895, -0.142857149, -0.470588237,           0.
   3896, -0.142857149, -0.411764711,           0.
   3897, -0.142857149, -0.352941185,           0.
   3898, -0.142857149, -0.294117659,           0.
   3899, -0.142857149, -0.235294119,           0.
   3900, -0.142857149, -0.176470593,           0.
   3901, -0.142857149, -0.117647059,           0.
   3902, -0.142857149, -0.0588235296,           0.
   3903, -0.142857149,           0.,           0.
   3904, -0.142857149, 0.0588235296,           0.
   3905, -0.142857149,  0.117647059,           0.
   3906, -0.142857149,  0.176470593,           0.
   3907, -0.142857149,  0.235294119,           0.
   3908, -0.142857149,  0.294117659,           0.
   3909, -0.142857149,  0.352941185,           0.
   3910, -0.142857149,  0.411764711,           0.
   3911, -0.142857149,  0.470588237,           0.
   3912, -0.142857149,  0.529411793,           0.
   3913, -0.142857149,  0.588235319,           0.
   3914, -0.142857149,  0.647058845,           0.
   3915, -0.142857149,   0.70588237,           0.
   3916, -0.142857149,  0.764705896,           0.
   3917, -0.142857149,  0.823529422,           0.
   3918, -0.142857149,  0.882352948,           0.
   3919, -0.142857149,  0.941176474,           0.
   3920, -0.142857149,           1.,           0.
   3921, -0.0857142881,          -1.,  0.100000001
   3922, -0.0857142881, -0.941176474,  0.100000001
   3923, -0.0857142881, -0.882352948,  0.100000001
   3924, -0.0857142881, -0.823529422,  0.100000001
   3925, -0.0857142881, -0.764705896,  0.100000001
   3926, -0.0857142881,  -0.70588237,  0.100000001
   3927, -0.0857142881, -0.647058845,  0.100000001
   3928, -0.0857142881, -0.588235319,  0.100000001
   3929, -0.0857142881, -0.529411793,  0.100000001
   3930, -0.0857142881, -0.470588237,  0.100000001
   3931, -0.0857142881, -0.411764711,  0.100000001
   3932, -0.0857142881, -0.352941185,  0.100000001
   3933, -0.0857142881, -0.294117659,  0.100000001
   3934, -0.0857142881, -0.235294119,  0.100000001
   3935, -0.0857142881, -0.176470593,  0.100000001
   3936, -0.0857142881, -0.117647059,  0.100000001
   3937, -0.0857142881, -0.0588235296,  0.100000001
   3938, -0.0857142881,           0.,  0.100000001
   3939, -0.0857142881, 0.0588235296,  0.100000001
   3940, -0.0857142881,  0.117647059,  0.100000001
   3941, -0.0857142881,  0.176470593,  0.100000001
   3942, -0.0857142881,  0.235294119,  0.100000001
   3943, -0.0857142881,  0.294117659,  0.100000001
   3944, -0.0857142881,  0.352941185,  0.100000001
   3945, -0.0857142881,  0.411764711,  0.100000001
   3946, -0.0857142881,  0.470588237,  0.100000001
   3947, -0.0857142881,  0.529411793,  0.100000001
   3948, -0.0857142881,  0.588235319,  0.100000001
   3949, -0.0857142881,  0.647058845,  0.100000001
   3950, -0.0857142881,   0.70588237,  0.100000001
   3951, -0.0857142881,  0.764705896,  0.100000001
   3952, -0.0857142881,  0.823529422,  0.100000001
   3953, -0.0857142881,  0.882352948,  0.100000001
   3954, -0.0857142881,  0.941176474,  0.100000001
   3955, -0.0857142881,           1.,  0.100000001
   3956, -0.0857142881,          -1., 0.0833333358
   3957, -0.0857142881, -0.941176474, 0.0833333358
   3958, -0.0857142881, -0.882352948, 0.0833333358
   3959, -0.0857142881, -0.823529422, 0.0833333358
   3960, -0.0857142881, -0.764705896, 0.0833333358
   3961, -0.0857142881,  -0.70588237, 0.0833333358
   3962, -0.0857142881, -0.647058845, 0.0833333358
   3963, -0.0857142881, -0.588235319, 0.0833333358
   3964, -0.0857142881, -0.529411793, 0.0833333358
   3965, -0.0857142881, -0.470588237, 0.0833333358
   3966, -0.0857142881, -0.411764711, 0.0833333358
   3967, -0.0857142881, -0.352941185, 0.0833333358
   3968, -0.0857142881, -0.294117659, 0.0833333358
   3969, -0.0857142881, -0.235294119, 0.0833333358
   3970, -0.0857142881, -0.176470593, 0.0833333358
   3971, -0.0857142881, -0.117647059, 0.0833333358
   3972, -0.0857142881, -0.0588235296, 0.0833333358
   3973, -0.0857142881,           0., 0.0833333358
   3974, -0.0857142881, 0.0588235296, 0.0833333358
   3975, -0.0857142881,  0.117647059, 0.0833333358
   3976, -0.0857142881,  0.176470593, 0.0833333358
   3977, -0.0857142881,  0.235294119, 0.0833333358
   3978, -0.0857142881,  0.294117659, 0.0833333358
   3979, -0.0857142881,  0.352941185, 0.0833333358
   3980, -0.0857142881,  0.411764711, 0.0833333358
   3981, -0.0857142881,  0.470588237, 0.0833333358
   3982, -0.0857142881,  0.529411793, 0.0833333358
   3983, -0.0857142881,  0.588235319, 0.0833333358
   3984, -0.0857142881,  0.647058845, 0.0833333358
   3985, -0.0857142881,   0.70588237, 0.0833333358
   3986, -0.0857142881,  0.764705896, 0.0833333358
   3987, -0.0857142881,  0.823529422, 0.0833333358
   3988, -0.0857142881,  0.882352948, 0.0833333358
   3989, -0.0857142881,  0.941176474, 0.0833333358
   3990, -0.0857142881,           1., 0.0833333358
   3991, -0.0857142881,          -1., 0.0666666701
   3992, -0.0857142881, -0.941176474, 0.0666666701
   3993, -0.0857142881, -0.882352948, 0.0666666701
   3994, -0.0857142881, -0.823529422, 0.0666666701
   3995, -0.0857142881, -0.764705896, 0.0666666701
   3996, -0.0857142881,  -0.70588237, 0.0666666701
   3997, -0.0857142881, -0.647058845, 0.0666666701
   3998, -0.0857142881, -0.588235319, 0.0666666701
   3999, -0.0857142881, -0.529411793, 0.0666666701
   4000, -0.0857142881, -0.470588237, 0.0666666701
   4001, -0.0857142881, -0.411764711, 0.0666666701
   4002, -0.0857142881, -0.352941185, 0.0666666701
   4003, -0.0857142881, -0.294117659, 0.0666666701
   4004, -0.0857142881, -0.235294119, 0.0666666701
   4005, -0.0857142881, -0.176470593, 0.0666666701
   4006, -0.0857142881, -0.117647059, 0.0666666701
   4007, -0.0857142881, -0.0588235296, 0.0666666701
   4008, -0.0857142881,           0., 0.0666666701
   4009, -0.0857142881, 0.0588235296, 0.0666666701
   4010, -0.0857142881,  0.117647059, 0.0666666701
   4011, -0.0857142881,  0.176470593, 0.0666666701
   4012, -0.0857142881,  0.235294119, 0.0666666701
   4013, -0.0857142881,  0.294117659, 0.0666666701
   4014, -0.0857142881,  0.352941185, 0.0666666701
   4015, -0.0857142881,  0.411764711, 0.0666666701
   4016, -0.0857142881,  0.470588237, 0.0666666701
   4017, -0.0857142881,  0.529411793, 0.0666666701
   4018, -0.0857142881,  0.588235319, 0.0666666701
   4019, -0.0857142881,  0.647058845, 0.0666666701
   4020, -0.0857142881,   0.70588237, 0.0666666701
   4021, -0.0857142881,  0.764705896, 0.0666666701
   4022, -0.0857142881,  0.823529422, 0.0666666701
   4023, -0.0857142881,  0.882352948, 0.0666666701
   4024, -0.0857142881,  0.941176474, 0.0666666701
   4025, -0.0857142881,           1., 0.0666666701
   4026, -0.0857142881,          -1., 0.0500000007
   4027, -0.0857142881, -0.941176474, 0.0500000007
   4028, -0.0857142881, -0.882352948, 0.0500000007
   4029, -0.0857142881, -0.823529422, 0.0500000007
   4030, -0.0857142881, -0.764705896, 0.0500000007
   4031, -0.0857142881,  -0.70588237, 0.0500000007
   4032, -0.0857142881, -0.647058845, 0.0500000007
   4033, -0.0857142881, -0.588235319, 0.0500000007
   4034, -0.0857142881, -0.529411793, 0.0500000007
   4035, -0.0857142881, -0.470588237, 0.0500000007
   4036, -0.0857142881, -0.411764711, 0.0500000007
   4037, -0.0857142881, -0.352941185, 0.0500000007
   4038, -0.0857142881, -0.294117659, 0.0500000007
   4039, -0.0857142881, -0.235294119, 0.0500000007
   4040, -0.0857142881, -0.176470593, 0.0500000007
   4041, -0.0857142881, -0.117647059, 0.0500000007
   4042, -0.0857142881, -0.0588235296, 0.0500000007
   4043, -0.0857142881,           0., 0.0500000007
   4044, -0.0857142881, 0.0588235296, 0.0500000007
   4045, -0.0857142881,  0.117647059, 0.0500000007
   4046, -0.0857142881,  0.176470593, 0.0500000007
   4047, -0.0857142881,  0.235294119, 0.0500000007
   4048, -0.0857142881,  0.294117659, 0.0500000007
   4049, -0.0857142881,  0.352941185, 0.0500000007
   4050, -0.0857142881,  0.411764711, 0.0500000007
   4051, -0.0857142881,  0.470588237, 0.0500000007
   4052, -0.0857142881,  0.529411793, 0.0500000007
   4053, -0.0857142881,  0.588235319, 0.0500000007
   4054, -0.0857142881,  0.647058845, 0.0500000007
   4055, -0.0857142881,   0.70588237, 0.0500000007
   4056, -0.0857142881,  0.764705896, 0.0500000007
   4057, -0.0857142881,  0.823529422, 0.0500000007
   4058, -0.0857142881,  0.882352948, 0.0500000007
   4059, -0.0857142881,  0.941176474, 0.0500000007
   4060, -0.0857142881,           1., 0.0500000007
   4061, -0.0857142881,          -1., 0.0333333351
   4062, -0.0857142881, -0.941176474, 0.0333333351
   4063, -0.0857142881, -0.882352948, 0.0333333351
   4064, -0.0857142881, -0.823529422, 0.0333333351
   4065, -0.0857142881, -0.764705896, 0.0333333351
   4066, -0.0857142881,  -0.70588237, 0.0333333351
   4067, -0.0857142881, -0.647058845, 0.0333333351
   4068, -0.0857142881, -0.588235319, 0.0333333351
   4069, -0.0857142881, -0.529411793, 0.0333333351
   4070, -0.0857142881, -0.470588237, 0.0333333351
   4071, -0.0857142881, -0.411764711, 0.0333333351
   4072, -0.0857142881, -0.352941185, 0.0333333351
   4073, -0.0857142881, -0.294117659, 0.0333333351
   4074, -0.0857142881, -0.235294119, 0.0333333351
   4075, -0.0857142881, -0.176470593, 0.0333333351
   4076, -0.0857142881, -0.117647059, 0.0333333351
   4077, -0.0857142881, -0.0588235296, 0.0333333351
   4078, -0.0857142881,           0., 0.0333333351
   4079, -0.0857142881, 0.0588235296, 0.0333333351
   4080, -0.0857142881,  0.117647059, 0.0333333351
   4081, -0.0857142881,  0.176470593, 0.0333333351
   4082, -0.0857142881,  0.235294119, 0.0333333351
   4083, -0.0857142881,  0.294117659, 0.0333333351
   4084, -0.0857142881,  0.352941185, 0.0333333351
   4085, -0.0857142881,  0.411764711, 0.0333333351
   4086, -0.0857142881,  0.470588237, 0.0333333351
   4087, -0.0857142881,  0.529411793, 0.0333333351
   4088, -0.0857142881,  0.588235319, 0.0333333351
   4089, -0.0857142881,  0.647058845, 0.0333333351
   4090, -0.0857142881,   0.70588237, 0.0333333351
   4091, -0.0857142881,  0.764705896, 0.0333333351
   4092, -0.0857142881,  0.823529422, 0.0333333351
   4093, -0.0857142881,  0.882352948, 0.0333333351
   4094, -0.0857142881,  0.941176474, 0.0333333351
   4095, -0.0857142881,           1., 0.0333333351
   4096, -0.0857142881,          -1., 0.0166666675
   4097, -0.0857142881, -0.941176474, 0.0166666675
   4098, -0.0857142881, -0.882352948, 0.0166666675
   4099, -0.0857142881, -0.823529422, 0.0166666675
   4100, -0.0857142881, -0.764705896, 0.0166666675
   4101, -0.0857142881,  -0.70588237, 0.0166666675
   4102, -0.0857142881, -0.647058845, 0.0166666675
   4103, -0.0857142881, -0.588235319, 0.0166666675
   4104, -0.0857142881, -0.529411793, 0.0166666675
   4105, -0.0857142881, -0.470588237, 0.0166666675
   4106, -0.0857142881, -0.411764711, 0.0166666675
   4107, -0.0857142881, -0.352941185, 0.0166666675
   4108, -0.0857142881, -0.294117659, 0.0166666675
   4109, -0.0857142881, -0.235294119, 0.0166666675
   4110, -0.0857142881, -0.176470593, 0.0166666675
   4111, -0.0857142881, -0.117647059, 0.0166666675
   4112, -0.0857142881, -0.0588235296, 0.0166666675
   4113, -0.0857142881,           0., 0.0166666675
   4114, -0.0857142881, 0.0588235296, 0.0166666675
   4115, -0.0857142881,  0.117647059, 0.0166666675
   4116, -0.0857142881,  0.176470593, 0.0166666675
   4117, -0.0857142881,  0.235294119, 0.0166666675
   4118, -0.0857142881,  0.294117659, 0.0166666675
   4119, -0.0857142881,  0.352941185, 0.0166666675
   4120, -0.0857142881,  0.411764711, 0.0166666675
   4121, -0.0857142881,  0.470588237, 0.0166666675
   4122, -0.0857142881,  0.529411793, 0.0166666675
   4123, -0.0857142881,  0.588235319, 0.0166666675
   4124, -0.0857142881,  0.647058845, 0.0166666675
   4125, -0.0857142881,   0.70588237, 0.0166666675
   4126, -0.0857142881,  0.764705896, 0.0166666675
   4127, -0.0857142881,  0.823529422, 0.0166666675
   4128, -0.0857142881,  0.882352948, 0.0166666675
   4129, -0.0857142881,  0.941176474, 0.0166666675
   4130, -0.0857142881,           1., 0.0166666675
   4131, -0.0857142881,          -1.,           0.
   4132, -0.0857142881, -0.941176474,           0.
   4133, -0.0857142881, -0.882352948,           0.
   4134, -0.0857142881, -0.823529422,           0.
   4135, -0.0857142881, -0.764705896,           0.
   4136, -0.0857142881,  -0.70588237,           0.
   4137, -0.0857142881, -0.647058845,           0.
   4138, -0.0857142881, -0.588235319,           0.
   4139, -0.0857142881, -0.529411793,           0.
   4140, -0.0857142881, -0.470588237,           0.
   4141, -0.0857142881, -0.411764711,           0.
   4142, -0.0857142881, -0.352941185,           0.
   4143, -0.0857142881, -0.294117659,           0.
   4144, -0.0857142881, -0.235294119,           0.
   4145, -0.0857142881, -0.176470593,           0.
   4146, -0.0857142881, -0.117647059,           0.
   4147, -0.0857142881, -0.0588235296,           0.
   4148, -0.0857142881,           0.,           0.
   4149, -0.0857142881, 0.0588235296,           0.
   4150, -0.0857142881,  0.117647059,           0.
   4151, -0.0857142881,  0.176470593,           0.
   4152, -0.0857142881,  0.235294119,           0.
   4153, -0.0857142881,  0.294117659,           0.
   4154, -0.0857142881,  0.352941185,           0.
   4155, -0.0857142881,  0.411764711,           0.
   4156, -0.0857142881,  0.470588237,           0.
   4157, -0.0857142881,  0.529411793,           0.
   4158, -0.0857142881,  0.588235319,           0.
   4159, -0.0857142881,  0.647058845,           0.
   4160, -0.0857142881,   0.70588237,           0.
   4161, -0.0857142881,  0.764705896,           0.
   4162, -0.0857142881,  0.823529422,           0.
   4163, -0.0857142881,  0.882352948,           0.
   4164, -0.0857142881,  0.941176474,           0.
   4165, -0.0857142881,           1.,           0.
   4166, -0.0285714287,          -1.,  0.100000001
   4167, -0.0285714287, -0.941176474,  0.100000001
   4168, -0.0285714287, -0.882352948,  0.100000001
   4169, -0.0285714287, -0.823529422,  0.100000001
   4170, -0.0285714287, -0.764705896,  0.100000001
   4171, -0.0285714287,  -0.70588237,  0.100000001
   4172, -0.0285714287, -0.647058845,  0.100000001
   4173, -0.0285714287, -0.588235319,  0.100000001
   4174, -0.0285714287, -0.529411793,  0.100000001
   4175, -0.0285714287, -0.470588237,  0.100000001
   4176, -0.0285714287, -0.411764711,  0.100000001
   4177, -0.0285714287, -0.352941185,  0.100000001
   4178, -0.0285714287, -0.294117659,  0.100000001
   4179, -0.0285714287, -0.235294119,  0.100000001
   4180, -0.0285714287, -0.176470593,  0.100000001
   4181, -0.0285714287, -0.117647059,  0.100000001
   4182, -0.0285714287, -0.0588235296,  0.100000001
   4183, -0.0285714287,           0.,  0.100000001
   4184, -0.0285714287, 0.0588235296,  0.100000001
   4185, -0.0285714287,  0.117647059,  0.100000001
   4186, -0.0285714287,  0.176470593,  0.100000001
   4187, -0.0285714287,  0.235294119,  0.100000001
   4188, -0.0285714287,  0.294117659,  0.100000001
   4189, -0.0285714287,  0.352941185,  0.100000001
   4190, -0.0285714287,  0.411764711,  0.100000001
   4191, -0.0285714287,  0.470588237,  0.100000001
   4192, -0.0285714287,  0.529411793,  0.100000001
   4193, -0.0285714287,  0.588235319,  0.100000001
   4194, -0.0285714287,  0.647058845,  0.100000001
   4195, -0.0285714287,   0.70588237,  0.100000001
   4196, -0.0285714287,  0.764705896,  0.100000001
   4197, -0.0285714287,  0.823529422,  0.100000001
   4198, -0.0285714287,  0.882352948,  0.100000001
   4199, -0.0285714287,  0.941176474,  0.100000001
   4200, -0.0285714287,           1.,  0.100000001
   4201, -0.0285714287,          -1., 0.0833333358
   4202, -0.0285714287, -0.941176474, 0.0833333358
   4203, -0.0285714287, -0.882352948, 0.0833333358
   4204, -0.0285714287, -0.823529422, 0.0833333358
   4205, -0.0285714287, -0.764705896, 0.0833333358
   4206, -0.0285714287,  -0.70588237, 0.0833333358
   4207, -0.0285714287, -0.647058845, 0.0833333358
   4208, -0.0285714287, -0.588235319, 0.0833333358
   4209, -0.0285714287, -0.529411793, 0.0833333358
   4210, -0.0285714287, -0.470588237, 0.0833333358
   4211, -0.0285714287, -0.411764711, 0.0833333358
   4212, -0.0285714287, -0.352941185, 0.0833333358
   4213, -0.0285714287, -0.294117659, 0.0833333358
   4214, -0.0285714287, -0.235294119, 0.0833333358
   4215, -0.0285714287, -0.176470593, 0.0833333358
   4216, -0.0285714287, -0.117647059, 0.0833333358
   4217, -0.0285714287, -0.0588235296, 0.0833333358
   4218, -0.0285714287,           0., 0.0833333358
   4219, -0.0285714287, 0.0588235296, 0.0833333358
   4220, -0.0285714287,  0.117647059, 0.0833333358
   4221, -0.0285714287,  0.176470593, 0.0833333358
   4222, -0.0285714287,  0.235294119, 0.0833333358
   4223, -0.0285714287,  0.294117659, 0.0833333358
   4224, -0.0285714287,  0.352941185, 0.0833333358
   4225, -0.0285714287,  0.411764711, 0.0833333358
   4226, -0.0285714287,  0.470588237, 0.0833333358
   4227, -0.0285714287,  0.529411793, 0.0833333358
   4228, -0.0285714287,  0.588235319, 0.0833333358
   4229, -0.0285714287,  0.647058845, 0.0833333358
   4230, -0.0285714287,   0.70588237, 0.0833333358
   4231, -0.0285714287,  0.764705896, 0.0833333358
   4232, -0.0285714287,  0.823529422, 0.0833333358
   4233, -0.0285714287,  0.882352948, 0.0833333358
   4234, -0.0285714287,  0.941176474, 0.0833333358
   4235, -0.0285714287,           1., 0.0833333358
   4236, -0.0285714287,          -1., 0.0666666701
   4237, -0.0285714287, -0.941176474, 0.0666666701
   4238, -0.0285714287, -0.882352948, 0.0666666701
   4239, -0.0285714287, -0.823529422, 0.0666666701
   4240, -0.0285714287, -0.764705896, 0.0666666701
   4241, -0.0285714287,  -0.70588237, 0.0666666701
   4242, -0.0285714287, -0.647058845, 0.0666666701
   4243, -0.0285714287, -0.588235319, 0.0666666701
   4244, -0.0285714287, -0.529411793, 0.0666666701
   4245, -0.0285714287, -0.470588237, 0.0666666701
   4246, -0.0285714287, -0.411764711, 0.0666666701
   4247, -0.0285714287, -0.352941185, 0.0666666701
   4248, -0.0285714287, -0.294117659, 0.0666666701
   4249, -0.0285714287, -0.235294119, 0.0666666701
   4250, -0.0285714287, -0.176470593, 0.0666666701
   4251, -0.0285714287, -0.117647059, 0.0666666701
   4252, -0.0285714287, -0.0588235296, 0.0666666701
   4253, -0.0285714287,           0., 0.0666666701
   4254, -0.0285714287, 0.0588235296, 0.0666666701
   4255, -0.0285714287,  0.117647059, 0.0666666701
   4256, -0.0285714287,  0.176470593, 0.0666666701
   4257, -0.0285714287,  0.235294119, 0.0666666701
   4258, -0.0285714287,  0.294117659, 0.0666666701
   4259, -0.0285714287,  0.352941185, 0.0666666701
   4260, -0.0285714287,  0.411764711, 0.0666666701
   4261, -0.0285714287,  0.470588237, 0.0666666701
   4262, -0.0285714287,  0.529411793, 0.0666666701
   4263, -0.0285714287,  0.588235319, 0.0666666701
   4264, -0.0285714287,  0.647058845, 0.0666666701
   4265, -0.0285714287,   0.70588237, 0.0666666701
   4266, -0.0285714287,  0.764705896, 0.0666666701
   4267, -0.0285714287,  0.823529422, 0.0666666701
   4268, -0.0285714287,  0.882352948, 0.0666666701
   4269, -0.0285714287,  0.941176474, 0.0666666701
   4270, -0.0285714287,           1., 0.0666666701
   4271, -0.0285714287,          -1., 0.0500000007
   4272, -0.0285714287, -0.941176474, 0.0500000007
   4273, -0.0285714287, -0.882352948, 0.0500000007
   4274, -0.0285714287, -0.823529422, 0.0500000007
   4275, -0.0285714287, -0.764705896, 0.0500000007
   4276, -0.0285714287,  -0.70588237, 0.0500000007
   4277, -0.0285714287, -0.647058845, 0.0500000007
   4278, -0.0285714287, -0.588235319, 0.0500000007
   4279, -0.0285714287, -0.529411793, 0.0500000007
   4280, -0.0285714287, -0.470588237, 0.0500000007
   4281, -0.0285714287, -0.411764711, 0.0500000007
   4282, -0.0285714287, -0.352941185, 0.0500000007
   4283, -0.0285714287, -0.294117659, 0.0500000007
   4284, -0.0285714287, -0.235294119, 0.0500000007
   4285, -0.0285714287, -0.176470593, 0.0500000007
   4286, -0.0285714287, -0.117647059, 0.0500000007
   4287, -0.0285714287, -0.0588235296, 0.0500000007
   4288, -0.0285714287,           0., 0.0500000007
   4289, -0.0285714287, 0.0588235296, 0.0500000007
   4290, -0.0285714287,  0.117647059, 0.0500000007
   4291, -0.0285714287,  0.176470593, 0.0500000007
   4292, -0.0285714287,  0.235294119, 0.0500000007
   4293, -0.0285714287,  0.294117659, 0.0500000007
   4294, -0.0285714287,  0.352941185, 0.0500000007
   4295, -0.0285714287,  0.411764711, 0.0500000007
   4296, -0.0285714287,  0.470588237, 0.0500000007
   4297, -0.0285714287,  0.529411793, 0.0500000007
   4298, -0.0285714287,  0.588235319, 0.0500000007
   4299, -0.0285714287,  0.647058845, 0.0500000007
   4300, -0.0285714287,   0.70588237, 0.0500000007
   4301, -0.0285714287,  0.764705896, 0.0500000007
   4302, -0.0285714287,  0.823529422, 0.0500000007
   4303, -0.0285714287,  0.882352948, 0.0500000007
   4304, -0.0285714287,  0.941176474, 0.0500000007
   4305, -0.0285714287,           1., 0.0500000007
   4306, -0.0285714287,          -1., 0.0333333351
   4307, -0.0285714287, -0.941176474, 0.0333333351
   4308, -0.0285714287, -0.882352948, 0.0333333351
   4309, -0.0285714287, -0.823529422, 0.0333333351
   4310, -0.0285714287, -0.764705896, 0.0333333351
   4311, -0.0285714287,  -0.70588237, 0.0333333351
   4312, -0.0285714287, -0.647058845, 0.0333333351
   4313, -0.0285714287, -0.588235319, 0.0333333351
   4314, -0.0285714287, -0.529411793, 0.0333333351
   4315, -0.0285714287, -0.470588237, 0.0333333351
   4316, -0.0285714287, -0.411764711, 0.0333333351
   4317, -0.0285714287, -0.352941185, 0.0333333351
   4318, -0.0285714287, -0.294117659, 0.0333333351
   4319, -0.0285714287, -0.235294119, 0.0333333351
   4320, -0.0285714287, -0.176470593, 0.0333333351
   4321, -0.0285714287, -0.117647059, 0.0333333351
   4322, -0.0285714287, -0.0588235296, 0.0333333351
   4323, -0.0285714287,           0., 0.0333333351
   4324, -0.0285714287, 0.0588235296, 0.0333333351
   4325, -0.0285714287,  0.117647059, 0.0333333351
   4326, -0.0285714287,  0.176470593, 0.0333333351
   4327, -0.0285714287,  0.235294119, 0.0333333351
   4328, -0.0285714287,  0.294117659, 0.0333333351
   4329, -0.0285714287,  0.352941185, 0.0333333351
   4330, -0.0285714287,  0.411764711, 0.0333333351
   4331, -0.0285714287,  0.470588237, 0.0333333351
   4332, -0.0285714287,  0.529411793, 0.0333333351
   4333, -0.0285714287,  0.588235319, 0.0333333351
   4334, -0.0285714287,  0.647058845, 0.0333333351
   4335, -0.0285714287,   0.70588237, 0.0333333351
   4336, -0.0285714287,  0.764705896, 0.0333333351
   4337, -0.0285714287,  0.823529422, 0.0333333351
   4338, -0.0285714287,  0.882352948, 0.0333333351
   4339, -0.0285714287,  0.941176474, 0.0333333351
   4340, -0.0285714287,           1., 0.0333333351
   4341, -0.0285714287,          -1., 0.0166666675
   4342, -0.0285714287, -0.941176474, 0.0166666675
   4343, -0.0285714287, -0.882352948, 0.0166666675
   4344, -0.0285714287, -0.823529422, 0.0166666675
   4345, -0.0285714287, -0.764705896, 0.0166666675
   4346, -0.0285714287,  -0.70588237, 0.0166666675
   4347, -0.0285714287, -0.647058845, 0.0166666675
   4348, -0.0285714287, -0.588235319, 0.0166666675
   4349, -0.0285714287, -0.529411793, 0.0166666675
   4350, -0.0285714287, -0.470588237, 0.0166666675
   4351, -0.0285714287, -0.411764711, 0.0166666675
   4352, -0.0285714287, -0.352941185, 0.0166666675
   4353, -0.0285714287, -0.294117659, 0.0166666675
   4354, -0.0285714287, -0.235294119, 0.0166666675
   4355, -0.0285714287, -0.176470593, 0.0166666675
   4356, -0.0285714287, -0.117647059, 0.0166666675
   4357, -0.0285714287, -0.0588235296, 0.0166666675
   4358, -0.0285714287,           0., 0.0166666675
   4359, -0.0285714287, 0.0588235296, 0.0166666675
   4360, -0.0285714287,  0.117647059, 0.0166666675
   4361, -0.0285714287,  0.176470593, 0.0166666675
   4362, -0.0285714287,  0.235294119, 0.0166666675
   4363, -0.0285714287,  0.294117659, 0.0166666675
   4364, -0.0285714287,  0.352941185, 0.0166666675
   4365, -0.0285714287,  0.411764711, 0.0166666675
   4366, -0.0285714287,  0.470588237, 0.0166666675
   4367, -0.0285714287,  0.529411793, 0.0166666675
   4368, -0.0285714287,  0.588235319, 0.0166666675
   4369, -0.0285714287,  0.647058845, 0.0166666675
   4370, -0.0285714287,   0.70588237, 0.0166666675
   4371, -0.0285714287,  0.764705896, 0.0166666675
   4372, -0.0285714287,  0.823529422, 0.0166666675
   4373, -0.0285714287,  0.882352948, 0.0166666675
   4374, -0.0285714287,  0.941176474, 0.0166666675
   4375, -0.0285714287,           1., 0.0166666675
   4376, -0.0285714287,          -1.,           0.
   4377, -0.0285714287, -0.941176474,           0.
   4378, -0.0285714287, -0.882352948,           0.
   4379, -0.0285714287, -0.823529422,           0.
   4380, -0.0285714287, -0.764705896,           0.
   4381, -0.0285714287,  -0.70588237,           0.
   4382, -0.0285714287, -0.647058845,           0.
   4383, -0.0285714287, -0.588235319,           0.
   4384, -0.0285714287, -0.529411793,           0.
   4385, -0.0285714287, -0.470588237,           0.
   4386, -0.0285714287, -0.411764711,           0.
   4387, -0.0285714287, -0.352941185,           0.
   4388, -0.0285714287, -0.294117659,           0.
   4389, -0.0285714287, -0.235294119,           0.
   4390, -0.0285714287, -0.176470593,           0.
   4391, -0.0285714287, -0.117647059,           0.
   4392, -0.0285714287, -0.0588235296,           0.
   4393, -0.0285714287,           0.,           0.
   4394, -0.0285714287, 0.0588235296,           0.
   4395, -0.0285714287,  0.117647059,           0.
   4396, -0.0285714287,  0.176470593,           0.
   4397, -0.0285714287,  0.235294119,           0.
   4398, -0.0285714287,  0.294117659,           0.
   4399, -0.0285714287,  0.352941185,           0.
   4400, -0.0285714287,  0.411764711,           0.
   4401, -0.0285714287,  0.470588237,           0.
   4402, -0.0285714287,  0.529411793,           0.
   4403, -0.0285714287,  0.588235319,           0.
   4404, -0.0285714287,  0.647058845,           0.
   4405, -0.0285714287,   0.70588237,           0.
   4406, -0.0285714287,  0.764705896,           0.
   4407, -0.0285714287,  0.823529422,           0.
   4408, -0.0285714287,  0.882352948,           0.
   4409, -0.0285714287,  0.941176474,           0.
   4410, -0.0285714287,           1.,           0.
   4411, 0.0285714287,          -1.,  0.100000001
   4412, 0.0285714287, -0.941176474,  0.100000001
   4413, 0.0285714287, -0.882352948,  0.100000001
   4414, 0.0285714287, -0.823529422,  0.100000001
   4415, 0.0285714287, -0.764705896,  0.100000001
   4416, 0.0285714287,  -0.70588237,  0.100000001
   4417, 0.0285714287, -0.647058845,  0.100000001
   4418, 0.0285714287, -0.588235319,  0.100000001
   4419, 0.0285714287, -0.529411793,  0.100000001
   4420, 0.0285714287, -0.470588237,  0.100000001
   4421, 0.0285714287, -0.411764711,  0.100000001
   4422, 0.0285714287, -0.352941185,  0.100000001
   4423, 0.0285714287, -0.294117659,  0.100000001
   4424, 0.0285714287, -0.235294119,  0.100000001
   4425, 0.0285714287, -0.176470593,  0.100000001
   4426, 0.0285714287, -0.117647059,  0.100000001
   4427, 0.0285714287, -0.0588235296,  0.100000001
   4428, 0.0285714287,           0.,  0.100000001
   4429, 0.0285714287, 0.0588235296,  0.100000001
   4430, 0.0285714287,  0.117647059,  0.100000001
   4431, 0.0285714287,  0.176470593,  0.100000001
   4432, 0.0285714287,  0.235294119,  0.100000001
   4433, 0.0285714287,  0.294117659,  0.100000001
   4434, 0.0285714287,  0.352941185,  0.100000001
   4435, 0.0285714287,  0.411764711,  0.100000001
   4436, 0.0285714287,  0.470588237,  0.100000001
   4437, 0.0285714287,  0.529411793,  0.100000001
   4438, 0.0285714287,  0.588235319,  0.100000001
   4439, 0.0285714287,  0.647058845,  0.100000001
   4440, 0.0285714287,   0.70588237,  0.100000001
   4441, 0.0285714287,  0.764705896,  0.100000001
   4442, 0.0285714287,  0.823529422,  0.100000001
   4443, 0.0285714287,  0.882352948,  0.100000001
   4444, 0.0285714287,  0.941176474,  0.100000001
   4445, 0.0285714287,           1.,  0.100000001
   4446, 0.0285714287,          -1., 0.0833333358
   4447, 0.0285714287, -0.941176474, 0.0833333358
   4448, 0.0285714287, -0.882352948, 0.0833333358
   4449, 0.0285714287, -0.823529422, 0.0833333358
   4450, 0.0285714287, -0.764705896, 0.0833333358
   4451, 0.0285714287,  -0.70588237, 0.0833333358
   4452, 0.0285714287, -0.647058845, 0.0833333358
   4453, 0.0285714287, -0.588235319, 0.0833333358
   4454, 0.0285714287, -0.529411793, 0.0833333358
   4455, 0.0285714287, -0.470588237, 0.0833333358
   4456, 0.0285714287, -0.411764711, 0.0833333358
   4457, 0.0285714287, -0.352941185, 0.0833333358
   4458, 0.0285714287, -0.294117659, 0.0833333358
   4459, 0.0285714287, -0.235294119, 0.0833333358
   4460, 0.0285714287, -0.176470593, 0.0833333358
   4461, 0.0285714287, -0.117647059, 0.0833333358
   4462, 0.0285714287, -0.0588235296, 0.0833333358
   4463, 0.0285714287,           0., 0.0833333358
   4464, 0.0285714287, 0.0588235296, 0.0833333358
   4465, 0.0285714287,  0.117647059, 0.0833333358
   4466, 0.0285714287,  0.176470593, 0.0833333358
   4467, 0.0285714287,  0.235294119, 0.0833333358
   4468, 0.0285714287,  0.294117659, 0.0833333358
   4469, 0.0285714287,  0.352941185, 0.0833333358
   4470, 0.0285714287,  0.411764711, 0.0833333358
   4471, 0.0285714287,  0.470588237, 0.0833333358
   4472, 0.0285714287,  0.529411793, 0.0833333358
   4473, 0.0285714287,  0.588235319, 0.0833333358
   4474, 0.0285714287,  0.647058845, 0.0833333358
   4475, 0.0285714287,   0.70588237, 0.0833333358
   4476, 0.0285714287,  0.764705896, 0.0833333358
   4477, 0.0285714287,  0.823529422, 0.0833333358
   4478, 0.0285714287,  0.882352948, 0.0833333358
   4479, 0.0285714287,  0.941176474, 0.0833333358
   4480, 0.0285714287,           1., 0.0833333358
   4481, 0.0285714287,          -1., 0.0666666701
   4482, 0.0285714287, -0.941176474, 0.0666666701
   4483, 0.0285714287, -0.882352948, 0.0666666701
   4484, 0.0285714287, -0.823529422, 0.0666666701
   4485, 0.0285714287, -0.764705896, 0.0666666701
   4486, 0.0285714287,  -0.70588237, 0.0666666701
   4487, 0.0285714287, -0.647058845, 0.0666666701
   4488, 0.0285714287, -0.588235319, 0.0666666701
   4489, 0.0285714287, -0.529411793, 0.0666666701
   4490, 0.0285714287, -0.470588237, 0.0666666701
   4491, 0.0285714287, -0.411764711, 0.0666666701
   4492, 0.0285714287, -0.352941185, 0.0666666701
   4493, 0.0285714287, -0.294117659, 0.0666666701
   4494, 0.0285714287, -0.235294119, 0.0666666701
   4495, 0.0285714287, -0.176470593, 0.0666666701
   4496, 0.0285714287, -0.117647059, 0.0666666701
   4497, 0.0285714287, -0.0588235296, 0.0666666701
   4498, 0.0285714287,           0., 0.0666666701
   4499, 0.0285714287, 0.0588235296, 0.0666666701
   4500, 0.0285714287,  0.117647059, 0.0666666701
   4501, 0.0285714287,  0.176470593, 0.0666666701
   4502, 0.0285714287,  0.235294119, 0.0666666701
   4503, 0.0285714287,  0.294117659, 0.0666666701
   4504, 0.0285714287,  0.352941185, 0.0666666701
   4505, 0.0285714287,  0.411764711, 0.0666666701
   4506, 0.0285714287,  0.470588237, 0.0666666701
   4507, 0.0285714287,  0.529411793, 0.0666666701
   4508, 0.0285714287,  0.588235319, 0.0666666701
   4509, 0.0285714287,  0.647058845, 0.0666666701
   4510, 0.0285714287,   0.70588237, 0.0666666701
   4511, 0.0285714287,  0.764705896, 0.0666666701
   4512, 0.0285714287,  0.823529422, 0.0666666701
   4513, 0.0285714287,  0.882352948, 0.0666666701
   4514, 0.0285714287,  0.941176474, 0.0666666701
   4515, 0.0285714287,           1., 0.0666666701
   4516, 0.0285714287,          -1., 0.0500000007
   4517, 0.0285714287, -0.941176474, 0.0500000007
   4518, 0.0285714287, -0.882352948, 0.0500000007
   4519, 0.0285714287, -0.823529422, 0.0500000007
   4520, 0.0285714287, -0.764705896, 0.0500000007
   4521, 0.0285714287,  -0.70588237, 0.0500000007
   4522, 0.0285714287, -0.647058845, 0.0500000007
   4523, 0.0285714287, -0.588235319, 0.0500000007
   4524, 0.0285714287, -0.529411793, 0.0500000007
   4525, 0.0285714287, -0.470588237, 0.0500000007
   4526, 0.0285714287, -0.411764711, 0.0500000007
   4527, 0.0285714287, -0.352941185, 0.0500000007
   4528, 0.0285714287, -0.294117659, 0.0500000007
   4529, 0.0285714287, -0.235294119, 0.0500000007
   4530, 0.0285714287, -0.176470593, 0.0500000007
   4531, 0.0285714287, -0.117647059, 0.0500000007
   4532, 0.0285714287, -0.0588235296, 0.0500000007
   4533, 0.0285714287,           0., 0.0500000007
   4534, 0.0285714287, 0.0588235296, 0.0500000007
   4535, 0.0285714287,  0.117647059, 0.0500000007
   4536, 0.0285714287,  0.176470593, 0.0500000007
   4537, 0.0285714287,  0.235294119, 0.0500000007
   4538, 0.0285714287,  0.294117659, 0.0500000007
   4539, 0.0285714287,  0.352941185, 0.0500000007
   4540, 0.0285714287,  0.411764711, 0.0500000007
   4541, 0.0285714287,  0.470588237, 0.0500000007
   4542, 0.0285714287,  0.529411793, 0.0500000007
   4543, 0.0285714287,  0.588235319, 0.0500000007
   4544, 0.0285714287,  0.647058845, 0.0500000007
   4545, 0.0285714287,   0.70588237, 0.0500000007
   4546, 0.0285714287,  0.764705896, 0.0500000007
   4547, 0.0285714287,  0.823529422, 0.0500000007
   4548, 0.0285714287,  0.882352948, 0.0500000007
   4549, 0.0285714287,  0.941176474, 0.0500000007
   4550, 0.0285714287,           1., 0.0500000007
   4551, 0.0285714287,          -1., 0.0333333351
   4552, 0.0285714287, -0.941176474, 0.0333333351
   4553, 0.0285714287, -0.882352948, 0.0333333351
   4554, 0.0285714287, -0.823529422, 0.0333333351
   4555, 0.0285714287, -0.764705896, 0.0333333351
   4556, 0.0285714287,  -0.70588237, 0.0333333351
   4557, 0.0285714287, -0.647058845, 0.0333333351
   4558, 0.0285714287, -0.588235319, 0.0333333351
   4559, 0.0285714287, -0.529411793, 0.0333333351
   4560, 0.0285714287, -0.470588237, 0.0333333351
   4561, 0.0285714287, -0.411764711, 0.0333333351
   4562, 0.0285714287, -0.352941185, 0.0333333351
   4563, 0.0285714287, -0.294117659, 0.0333333351
   4564, 0.0285714287, -0.235294119, 0.0333333351
   4565, 0.0285714287, -0.176470593, 0.0333333351
   4566, 0.0285714287, -0.117647059, 0.0333333351
   4567, 0.0285714287, -0.0588235296, 0.0333333351
   4568, 0.0285714287,           0., 0.0333333351
   4569, 0.0285714287, 0.0588235296, 0.0333333351
   4570, 0.0285714287,  0.117647059, 0.0333333351
   4571, 0.0285714287,  0.176470593, 0.0333333351
   4572, 0.0285714287,  0.235294119, 0.0333333351
   4573, 0.0285714287,  0.294117659, 0.0333333351
   4574, 0.0285714287,  0.352941185, 0.0333333351
   4575, 0.0285714287,  0.411764711, 0.0333333351
   4576, 0.0285714287,  0.470588237, 0.0333333351
   4577, 0.0285714287,  0.529411793, 0.0333333351
   4578, 0.0285714287,  0.588235319, 0.0333333351
   4579, 0.0285714287,  0.647058845, 0.0333333351
   4580, 0.0285714287,   0.70588237, 0.0333333351
   4581, 0.0285714287,  0.764705896, 0.0333333351
   4582, 0.0285714287,  0.823529422, 0.0333333351
   4583, 0.0285714287,  0.882352948, 0.0333333351
   4584, 0.0285714287,  0.941176474, 0.0333333351
   4585, 0.0285714287,           1., 0.0333333351
   4586, 0.0285714287,          -1., 0.0166666675
   4587, 0.0285714287, -0.941176474, 0.0166666675
   4588, 0.0285714287, -0.882352948, 0.0166666675
   4589, 0.0285714287, -0.823529422, 0.0166666675
   4590, 0.0285714287, -0.764705896, 0.0166666675
   4591, 0.0285714287,  -0.70588237, 0.0166666675
   4592, 0.0285714287, -0.647058845, 0.0166666675
   4593, 0.0285714287, -0.588235319, 0.0166666675
   4594, 0.0285714287, -0.529411793, 0.0166666675
   4595, 0.0285714287, -0.470588237, 0.0166666675
   4596, 0.0285714287, -0.411764711, 0.0166666675
   4597, 0.0285714287, -0.352941185, 0.0166666675
   4598, 0.0285714287, -0.294117659, 0.0166666675
   4599, 0.0285714287, -0.235294119, 0.0166666675
   4600, 0.0285714287, -0.176470593, 0.0166666675
   4601, 0.0285714287, -0.117647059, 0.0166666675
   4602, 0.0285714287, -0.0588235296, 0.0166666675
   4603, 0.0285714287,           0., 0.0166666675
   4604, 0.0285714287, 0.0588235296, 0.0166666675
   4605, 0.0285714287,  0.117647059, 0.0166666675
   4606, 0.0285714287,  0.176470593, 0.0166666675
   4607, 0.0285714287,  0.235294119, 0.0166666675
   4608, 0.0285714287,  0.294117659, 0.0166666675
   4609, 0.0285714287,  0.352941185, 0.0166666675
   4610, 0.0285714287,  0.411764711, 0.0166666675
   4611, 0.0285714287,  0.470588237, 0.0166666675
   4612, 0.0285714287,  0.529411793, 0.0166666675
   4613, 0.0285714287,  0.588235319, 0.0166666675
   4614, 0.0285714287,  0.647058845, 0.0166666675
   4615, 0.0285714287,   0.70588237, 0.0166666675
   4616, 0.0285714287,  0.764705896, 0.0166666675
   4617, 0.0285714287,  0.823529422, 0.0166666675
   4618, 0.0285714287,  0.882352948, 0.0166666675
   4619, 0.0285714287,  0.941176474, 0.0166666675
   4620, 0.0285714287,           1., 0.0166666675
   4621, 0.0285714287,          -1.,           0.
   4622, 0.0285714287, -0.941176474,           0.
   4623, 0.0285714287, -0.882352948,           0.
   4624, 0.0285714287, -0.823529422,           0.
   4625, 0.0285714287, -0.764705896,           0.
   4626, 0.0285714287,  -0.70588237,           0.
   4627, 0.0285714287, -0.647058845,           0.
   4628, 0.0285714287, -0.588235319,           0.
   4629, 0.0285714287, -0.529411793,           0.
   4630, 0.0285714287, -0.470588237,           0.
   4631, 0.0285714287, -0.411764711,           0.
   4632, 0.0285714287, -0.352941185,           0.
   4633, 0.0285714287, -0.294117659,           0.
   4634, 0.0285714287, -0.235294119,           0.
   4635, 0.0285714287, -0.176470593,           0.
   4636, 0.0285714287, -0.117647059,           0.
   4637, 0.0285714287, -0.0588235296,           0.
   4638, 0.0285714287,           0.,           0.
   4639, 0.0285714287, 0.0588235296,           0.
   4640, 0.0285714287,  0.117647059,           0.
   4641, 0.0285714287,  0.176470593,           0.
   4642, 0.0285714287,  0.235294119,           0.
   4643, 0.0285714287,  0.294117659,           0.
   4644, 0.0285714287,  0.352941185,           0.
   4645, 0.0285714287,  0.411764711,           0.
   4646, 0.0285714287,  0.470588237,           0.
   4647, 0.0285714287,  0.529411793,           0.
   4648, 0.0285714287,  0.588235319,           0.
   4649, 0.0285714287,  0.647058845,           0.
   4650, 0.0285714287,   0.70588237,           0.
   4651, 0.0285714287,  0.764705896,           0.
   4652, 0.0285714287,  0.823529422,           0.
   4653, 0.0285714287,  0.882352948,           0.
   4654, 0.0285714287,  0.941176474,           0.
   4655, 0.0285714287,           1.,           0.
   4656, 0.0857142881,          -1.,  0.100000001
   4657, 0.0857142881, -0.941176474,  0.100000001
   4658, 0.0857142881, -0.882352948,  0.100000001
   4659, 0.0857142881, -0.823529422,  0.100000001
   4660, 0.0857142881, -0.764705896,  0.100000001
   4661, 0.0857142881,  -0.70588237,  0.100000001
   4662, 0.0857142881, -0.647058845,  0.100000001
   4663, 0.0857142881, -0.588235319,  0.100000001
   4664, 0.0857142881, -0.529411793,  0.100000001
   4665, 0.0857142881, -0.470588237,  0.100000001
   4666, 0.0857142881, -0.411764711,  0.100000001
   4667, 0.0857142881, -0.352941185,  0.100000001
   4668, 0.0857142881, -0.294117659,  0.100000001
   4669, 0.0857142881, -0.235294119,  0.100000001
   4670, 0.0857142881, -0.176470593,  0.100000001
   4671, 0.0857142881, -0.117647059,  0.100000001
   4672, 0.0857142881, -0.0588235296,  0.100000001
   4673, 0.0857142881,           0.,  0.100000001
   4674, 0.0857142881, 0.0588235296,  0.100000001
   4675, 0.0857142881,  0.117647059,  0.100000001
   4676, 0.0857142881,  0.176470593,  0.100000001
   4677, 0.0857142881,  0.235294119,  0.100000001
   4678, 0.0857142881,  0.294117659,  0.100000001
   4679, 0.0857142881,  0.352941185,  0.100000001
   4680, 0.0857142881,  0.411764711,  0.100000001
   4681, 0.0857142881,  0.470588237,  0.100000001
   4682, 0.0857142881,  0.529411793,  0.100000001
   4683, 0.0857142881,  0.588235319,  0.100000001
   4684, 0.0857142881,  0.647058845,  0.100000001
   4685, 0.0857142881,   0.70588237,  0.100000001
   4686, 0.0857142881,  0.764705896,  0.100000001
   4687, 0.0857142881,  0.823529422,  0.100000001
   4688, 0.0857142881,  0.882352948,  0.100000001
   4689, 0.0857142881,  0.941176474,  0.100000001
   4690, 0.0857142881,           1.,  0.100000001
   4691, 0.0857142881,          -1., 0.0833333358
   4692, 0.0857142881, -0.941176474, 0.0833333358
   4693, 0.0857142881, -0.882352948, 0.0833333358
   4694, 0.0857142881, -0.823529422, 0.0833333358
   4695, 0.0857142881, -0.764705896, 0.0833333358
   4696, 0.0857142881,  -0.70588237, 0.0833333358
   4697, 0.0857142881, -0.647058845, 0.0833333358
   4698, 0.0857142881, -0.588235319, 0.0833333358
   4699, 0.0857142881, -0.529411793, 0.0833333358
   4700, 0.0857142881, -0.470588237, 0.0833333358
   4701, 0.0857142881, -0.411764711, 0.0833333358
   4702, 0.0857142881, -0.352941185, 0.0833333358
   4703, 0.0857142881, -0.294117659, 0.0833333358
   4704, 0.0857142881, -0.235294119, 0.0833333358
   4705, 0.0857142881, -0.176470593, 0.0833333358
   4706, 0.0857142881, -0.117647059, 0.0833333358
   4707, 0.0857142881, -0.0588235296, 0.0833333358
   4708, 0.0857142881,           0., 0.0833333358
   4709, 0.0857142881, 0.0588235296, 0.0833333358
   4710, 0.0857142881,  0.117647059, 0.0833333358
   4711, 0.0857142881,  0.176470593, 0.0833333358
   4712, 0.0857142881,  0.235294119, 0.0833333358
   4713, 0.0857142881,  0.294117659, 0.0833333358
   4714, 0.0857142881,  0.352941185, 0.0833333358
   4715, 0.0857142881,  0.411764711, 0.0833333358
   4716, 0.0857142881,  0.470588237, 0.0833333358
   4717, 0.0857142881,  0.529411793, 0.0833333358
   4718, 0.0857142881,  0.588235319, 0.0833333358
   4719, 0.0857142881,  0.647058845, 0.0833333358
   4720, 0.0857142881,   0.70588237, 0.0833333358
   4721, 0.0857142881,  0.764705896, 0.0833333358
   4722, 0.0857142881,  0.823529422, 0.0833333358
   4723, 0.0857142881,  0.882352948, 0.0833333358
   4724, 0.0857142881,  0.941176474, 0.0833333358
   4725, 0.0857142881,           1., 0.0833333358
   4726, 0.0857142881,          -1., 0.0666666701
   4727, 0.0857142881, -0.941176474, 0.0666666701
   4728, 0.0857142881, -0.882352948, 0.0666666701
   4729, 0.0857142881, -0.823529422, 0.0666666701
   4730, 0.0857142881, -0.764705896, 0.0666666701
   4731, 0.0857142881,  -0.70588237, 0.0666666701
   4732, 0.0857142881, -0.647058845, 0.0666666701
   4733, 0.0857142881, -0.588235319, 0.0666666701
   4734, 0.0857142881, -0.529411793, 0.0666666701
   4735, 0.0857142881, -0.470588237, 0.0666666701
   4736, 0.0857142881, -0.411764711, 0.0666666701
   4737, 0.0857142881, -0.352941185, 0.0666666701
   4738, 0.0857142881, -0.294117659, 0.0666666701
   4739, 0.0857142881, -0.235294119, 0.0666666701
   4740, 0.0857142881, -0.176470593, 0.0666666701
   4741, 0.0857142881, -0.117647059, 0.0666666701
   4742, 0.0857142881, -0.0588235296, 0.0666666701
   4743, 0.0857142881,           0., 0.0666666701
   4744, 0.0857142881, 0.0588235296, 0.0666666701
   4745, 0.0857142881,  0.117647059, 0.0666666701
   4746, 0.0857142881,  0.176470593, 0.0666666701
   4747, 0.0857142881,  0.235294119, 0.0666666701
   4748, 0.0857142881,  0.294117659, 0.0666666701
   4749, 0.0857142881,  0.352941185, 0.0666666701
   4750, 0.0857142881,  0.411764711, 0.0666666701
   4751, 0.0857142881,  0.470588237, 0.0666666701
   4752, 0.0857142881,  0.529411793, 0.0666666701
   4753, 0.0857142881,  0.588235319, 0.0666666701
   4754, 0.0857142881,  0.647058845, 0.0666666701
   4755, 0.0857142881,   0.70588237, 0.0666666701
   4756, 0.0857142881,  0.764705896, 0.0666666701
   4757, 0.0857142881,  0.823529422, 0.0666666701
   4758, 0.0857142881,  0.882352948, 0.0666666701
   4759, 0.0857142881,  0.941176474, 0.0666666701
   4760, 0.0857142881,           1., 0.0666666701
   4761, 0.0857142881,          -1., 0.0500000007
   4762, 0.0857142881, -0.941176474, 0.0500000007
   4763, 0.0857142881, -0.882352948, 0.0500000007
   4764, 0.0857142881, -0.823529422, 0.0500000007
   4765, 0.0857142881, -0.764705896, 0.0500000007
   4766, 0.0857142881,  -0.70588237, 0.0500000007
   4767, 0.0857142881, -0.647058845, 0.0500000007
   4768, 0.0857142881, -0.588235319, 0.0500000007
   4769, 0.0857142881, -0.529411793, 0.0500000007
   4770, 0.0857142881, -0.470588237, 0.0500000007
   4771, 0.0857142881, -0.411764711, 0.0500000007
   4772, 0.0857142881, -0.352941185, 0.0500000007
   4773, 0.0857142881, -0.294117659, 0.0500000007
   4774, 0.0857142881, -0.235294119, 0.0500000007
   4775, 0.0857142881, -0.176470593, 0.0500000007
   4776, 0.0857142881, -0.117647059, 0.0500000007
   4777, 0.0857142881, -0.0588235296, 0.0500000007
   4778, 0.0857142881,           0., 0.0500000007
   4779, 0.0857142881, 0.0588235296, 0.0500000007
   4780, 0.0857142881,  0.117647059, 0.0500000007
   4781, 0.0857142881,  0.176470593, 0.0500000007
   4782, 0.0857142881,  0.235294119, 0.0500000007
   4783, 0.0857142881,  0.294117659, 0.0500000007
   4784, 0.0857142881,  0.352941185, 0.0500000007
   4785, 0.0857142881,  0.411764711, 0.0500000007
   4786, 0.0857142881,  0.470588237, 0.0500000007
   4787, 0.0857142881,  0.529411793, 0.0500000007
   4788, 0.0857142881,  0.588235319, 0.0500000007
   4789, 0.0857142881,  0.647058845, 0.0500000007
   4790, 0.0857142881,   0.70588237, 0.0500000007
   4791, 0.0857142881,  0.764705896, 0.0500000007
   4792, 0.0857142881,  0.823529422, 0.0500000007
   4793, 0.0857142881,  0.882352948, 0.0500000007
   4794, 0.0857142881,  0.941176474, 0.0500000007
   4795, 0.0857142881,           1., 0.0500000007
   4796, 0.0857142881,          -1., 0.0333333351
   4797, 0.0857142881, -0.941176474, 0.0333333351
   4798, 0.0857142881, -0.882352948, 0.0333333351
   4799, 0.0857142881, -0.823529422, 0.0333333351
   4800, 0.0857142881, -0.764705896, 0.0333333351
   4801, 0.0857142881,  -0.70588237, 0.0333333351
   4802, 0.0857142881, -0.647058845, 0.0333333351
   4803, 0.0857142881, -0.588235319, 0.0333333351
   4804, 0.0857142881, -0.529411793, 0.0333333351
   4805, 0.0857142881, -0.470588237, 0.0333333351
   4806, 0.0857142881, -0.411764711, 0.0333333351
   4807, 0.0857142881, -0.352941185, 0.0333333351
   4808, 0.0857142881, -0.294117659, 0.0333333351
   4809, 0.0857142881, -0.235294119, 0.0333333351
   4810, 0.0857142881, -0.176470593, 0.0333333351
   4811, 0.0857142881, -0.117647059, 0.0333333351
   4812, 0.0857142881, -0.0588235296, 0.0333333351
   4813, 0.0857142881,           0., 0.0333333351
   4814, 0.0857142881, 0.0588235296, 0.0333333351
   4815, 0.0857142881,  0.117647059, 0.0333333351
   4816, 0.0857142881,  0.176470593, 0.0333333351
   4817, 0.0857142881,  0.235294119, 0.0333333351
   4818, 0.0857142881,  0.294117659, 0.0333333351
   4819, 0.0857142881,  0.352941185, 0.0333333351
   4820, 0.0857142881,  0.411764711, 0.0333333351
   4821, 0.0857142881,  0.470588237, 0.0333333351
   4822, 0.0857142881,  0.529411793, 0.0333333351
   4823, 0.0857142881,  0.588235319, 0.0333333351
   4824, 0.0857142881,  0.647058845, 0.0333333351
   4825, 0.0857142881,   0.70588237, 0.0333333351
   4826, 0.0857142881,  0.764705896, 0.0333333351
   4827, 0.0857142881,  0.823529422, 0.0333333351
   4828, 0.0857142881,  0.882352948, 0.0333333351
   4829, 0.0857142881,  0.941176474, 0.0333333351
   4830, 0.0857142881,           1., 0.0333333351
   4831, 0.0857142881,          -1., 0.0166666675
   4832, 0.0857142881, -0.941176474, 0.0166666675
   4833, 0.0857142881, -0.882352948, 0.0166666675
   4834, 0.0857142881, -0.823529422, 0.0166666675
   4835, 0.0857142881, -0.764705896, 0.0166666675
   4836, 0.0857142881,  -0.70588237, 0.0166666675
   4837, 0.0857142881, -0.647058845, 0.0166666675
   4838, 0.0857142881, -0.588235319, 0.0166666675
   4839, 0.0857142881, -0.529411793, 0.0166666675
   4840, 0.0857142881, -0.470588237, 0.0166666675
   4841, 0.0857142881, -0.411764711, 0.0166666675
   4842, 0.0857142881, -0.352941185, 0.0166666675
   4843, 0.0857142881, -0.294117659, 0.0166666675
   4844, 0.0857142881, -0.235294119, 0.0166666675
   4845, 0.0857142881, -0.176470593, 0.0166666675
   4846, 0.0857142881, -0.117647059, 0.0166666675
   4847, 0.0857142881, -0.0588235296, 0.0166666675
   4848, 0.0857142881,           0., 0.0166666675
   4849, 0.0857142881, 0.0588235296, 0.0166666675
   4850, 0.0857142881,  0.117647059, 0.0166666675
   4851, 0.0857142881,  0.176470593, 0.0166666675
   4852, 0.0857142881,  0.235294119, 0.0166666675
   4853, 0.0857142881,  0.294117659, 0.0166666675
   4854, 0.0857142881,  0.352941185, 0.0166666675
   4855, 0.0857142881,  0.411764711, 0.0166666675
   4856, 0.0857142881,  0.470588237, 0.0166666675
   4857, 0.0857142881,  0.529411793, 0.0166666675
   4858, 0.0857142881,  0.588235319, 0.0166666675
   4859, 0.0857142881,  0.647058845, 0.0166666675
   4860, 0.0857142881,   0.70588237, 0.0166666675
   4861, 0.0857142881,  0.764705896, 0.0166666675
   4862, 0.0857142881,  0.823529422, 0.0166666675
   4863, 0.0857142881,  0.882352948, 0.0166666675
   4864, 0.0857142881,  0.941176474, 0.0166666675
   4865, 0.0857142881,           1., 0.0166666675
   4866, 0.0857142881,          -1.,           0.
   4867, 0.0857142881, -0.941176474,           0.
   4868, 0.0857142881, -0.882352948,           0.
   4869, 0.0857142881, -0.823529422,           0.
   4870, 0.0857142881, -0.764705896,           0.
   4871, 0.0857142881,  -0.70588237,           0.
   4872, 0.0857142881, -0.647058845,           0.
   4873, 0.0857142881, -0.588235319,           0.
   4874, 0.0857142881, -0.529411793,           0.
   4875, 0.0857142881, -0.470588237,           0.
   4876, 0.0857142881, -0.411764711,           0.
   4877, 0.0857142881, -0.352941185,           0.
   4878, 0.0857142881, -0.294117659,           0.
   4879, 0.0857142881, -0.235294119,           0.
   4880, 0.0857142881, -0.176470593,           0.
   4881, 0.0857142881, -0.117647059,           0.
   4882, 0.0857142881, -0.0588235296,           0.
   4883, 0.0857142881,           0.,           0.
   4884, 0.0857142881, 0.0588235296,           0.
   4885, 0.0857142881,  0.117647059,           0.
   4886, 0.0857142881,  0.176470593,           0.
   4887, 0.0857142881,  0.235294119,           0.
   4888, 0.0857142881,  0.294117659,           0.
   4889, 0.0857142881,  0.352941185,           0.
   4890, 0.0857142881,  0.411764711,           0.
   4891, 0.0857142881,  0.470588237,           0.
   4892, 0.0857142881,  0.529411793,           0.
   4893, 0.0857142881,  0.588235319,           0.
   4894, 0.0857142881,  0.647058845,           0.
   4895, 0.0857142881,   0.70588237,           0.
   4896, 0.0857142881,  0.764705896,           0.
   4897, 0.0857142881,  0.823529422,           0.
   4898, 0.0857142881,  0.882352948,           0.
   4899, 0.0857142881,  0.941176474,           0.
   4900, 0.0857142881,           1.,           0.
   4901,  0.142857149,          -1.,  0.100000001
   4902,  0.142857149, -0.941176474,  0.100000001
   4903,  0.142857149, -0.882352948,  0.100000001
   4904,  0.142857149, -0.823529422,  0.100000001
   4905,  0.142857149, -0.764705896,  0.100000001
   4906,  0.142857149,  -0.70588237,  0.100000001
   4907,  0.142857149, -0.647058845,  0.100000001
   4908,  0.142857149, -0.588235319,  0.100000001
   4909,  0.142857149, -0.529411793,  0.100000001
   4910,  0.142857149, -0.470588237,  0.100000001
   4911,  0.142857149, -0.411764711,  0.100000001
   4912,  0.142857149, -0.352941185,  0.100000001
   4913,  0.142857149, -0.294117659,  0.100000001
   4914,  0.142857149, -0.235294119,  0.100000001
   4915,  0.142857149, -0.176470593,  0.100000001
   4916,  0.142857149, -0.117647059,  0.100000001
   4917,  0.142857149, -0.0588235296,  0.100000001
   4918,  0.142857149,           0.,  0.100000001
   4919,  0.142857149, 0.0588235296,  0.100000001
   4920,  0.142857149,  0.117647059,  0.100000001
   4921,  0.142857149,  0.176470593,  0.100000001
   4922,  0.142857149,  0.235294119,  0.100000001
   4923,  0.142857149,  0.294117659,  0.100000001
   4924,  0.142857149,  0.352941185,  0.100000001
   4925,  0.142857149,  0.411764711,  0.100000001
   4926,  0.142857149,  0.470588237,  0.100000001
   4927,  0.142857149,  0.529411793,  0.100000001
   4928,  0.142857149,  0.588235319,  0.100000001
   4929,  0.142857149,  0.647058845,  0.100000001
   4930,  0.142857149,   0.70588237,  0.100000001
   4931,  0.142857149,  0.764705896,  0.100000001
   4932,  0.142857149,  0.823529422,  0.100000001
   4933,  0.142857149,  0.882352948,  0.100000001
   4934,  0.142857149,  0.941176474,  0.100000001
   4935,  0.142857149,           1.,  0.100000001
   4936,  0.142857149,          -1., 0.0833333358
   4937,  0.142857149, -0.941176474, 0.0833333358
   4938,  0.142857149, -0.882352948, 0.0833333358
   4939,  0.142857149, -0.823529422, 0.0833333358
   4940,  0.142857149, -0.764705896, 0.0833333358
   4941,  0.142857149,  -0.70588237, 0.0833333358
   4942,  0.142857149, -0.647058845, 0.0833333358
   4943,  0.142857149, -0.588235319, 0.0833333358
   4944,  0.142857149, -0.529411793, 0.0833333358
   4945,  0.142857149, -0.470588237, 0.0833333358
   4946,  0.142857149, -0.411764711, 0.0833333358
   4947,  0.142857149, -0.352941185, 0.0833333358
   4948,  0.142857149, -0.294117659, 0.0833333358
   4949,  0.142857149, -0.235294119, 0.0833333358
   4950,  0.142857149, -0.176470593, 0.0833333358
   4951,  0.142857149, -0.117647059, 0.0833333358
   4952,  0.142857149, -0.0588235296, 0.0833333358
   4953,  0.142857149,           0., 0.0833333358
   4954,  0.142857149, 0.0588235296, 0.0833333358
   4955,  0.142857149,  0.117647059, 0.0833333358
   4956,  0.142857149,  0.176470593, 0.0833333358
   4957,  0.142857149,  0.235294119, 0.0833333358
   4958,  0.142857149,  0.294117659, 0.0833333358
   4959,  0.142857149,  0.352941185, 0.0833333358
   4960,  0.142857149,  0.411764711, 0.0833333358
   4961,  0.142857149,  0.470588237, 0.0833333358
   4962,  0.142857149,  0.529411793, 0.0833333358
   4963,  0.142857149,  0.588235319, 0.0833333358
   4964,  0.142857149,  0.647058845, 0.0833333358
   4965,  0.142857149,   0.70588237, 0.0833333358
   4966,  0.142857149,  0.764705896, 0.0833333358
   4967,  0.142857149,  0.823529422, 0.0833333358
   4968,  0.142857149,  0.882352948, 0.0833333358
   4969,  0.142857149,  0.941176474, 0.0833333358
   4970,  0.142857149,           1., 0.0833333358
   4971,  0.142857149,          -1., 0.0666666701
   4972,  0.142857149, -0.941176474, 0.0666666701
   4973,  0.142857149, -0.882352948, 0.0666666701
   4974,  0.142857149, -0.823529422, 0.0666666701
   4975,  0.142857149, -0.764705896, 0.0666666701
   4976,  0.142857149,  -0.70588237, 0.0666666701
   4977,  0.142857149, -0.647058845, 0.0666666701
   4978,  0.142857149, -0.588235319, 0.0666666701
   4979,  0.142857149, -0.529411793, 0.0666666701
   4980,  0.142857149, -0.470588237, 0.0666666701
   4981,  0.142857149, -0.411764711, 0.0666666701
   4982,  0.142857149, -0.352941185, 0.0666666701
   4983,  0.142857149, -0.294117659, 0.0666666701
   4984,  0.142857149, -0.235294119, 0.0666666701
   4985,  0.142857149, -0.176470593, 0.0666666701
   4986,  0.142857149, -0.117647059, 0.0666666701
   4987,  0.142857149, -0.0588235296, 0.0666666701
   4988,  0.142857149,           0., 0.0666666701
   4989,  0.142857149, 0.0588235296, 0.0666666701
   4990,  0.142857149,  0.117647059, 0.0666666701
   4991,  0.142857149,  0.176470593, 0.0666666701
   4992,  0.142857149,  0.235294119, 0.0666666701
   4993,  0.142857149,  0.294117659, 0.0666666701
   4994,  0.142857149,  0.352941185, 0.0666666701
   4995,  0.142857149,  0.411764711, 0.0666666701
   4996,  0.142857149,  0.470588237, 0.0666666701
   4997,  0.142857149,  0.529411793, 0.0666666701
   4998,  0.142857149,  0.588235319, 0.0666666701
   4999,  0.142857149,  0.647058845, 0.0666666701
   5000,  0.142857149,   0.70588237, 0.0666666701
   5001,  0.142857149,  0.764705896, 0.0666666701
   5002,  0.142857149,  0.823529422, 0.0666666701
   5003,  0.142857149,  0.882352948, 0.0666666701
   5004,  0.142857149,  0.941176474, 0.0666666701
   5005,  0.142857149,           1., 0.0666666701
   5006,  0.142857149,          -1., 0.0500000007
   5007,  0.142857149, -0.941176474, 0.0500000007
   5008,  0.142857149, -0.882352948, 0.0500000007
   5009,  0.142857149, -0.823529422, 0.0500000007
   5010,  0.142857149, -0.764705896, 0.0500000007
   5011,  0.142857149,  -0.70588237, 0.0500000007
   5012,  0.142857149, -0.647058845, 0.0500000007
   5013,  0.142857149, -0.588235319, 0.0500000007
   5014,  0.142857149, -0.529411793, 0.0500000007
   5015,  0.142857149, -0.470588237, 0.0500000007
   5016,  0.142857149, -0.411764711, 0.0500000007
   5017,  0.142857149, -0.352941185, 0.0500000007
   5018,  0.142857149, -0.294117659, 0.0500000007
   5019,  0.142857149, -0.235294119, 0.0500000007
   5020,  0.142857149, -0.176470593, 0.0500000007
   5021,  0.142857149, -0.117647059, 0.0500000007
   5022,  0.142857149, -0.0588235296, 0.0500000007
   5023,  0.142857149,           0., 0.0500000007
   5024,  0.142857149, 0.0588235296, 0.0500000007
   5025,  0.142857149,  0.117647059, 0.0500000007
   5026,  0.142857149,  0.176470593, 0.0500000007
   5027,  0.142857149,  0.235294119, 0.0500000007
   5028,  0.142857149,  0.294117659, 0.0500000007
   5029,  0.142857149,  0.352941185, 0.0500000007
   5030,  0.142857149,  0.411764711, 0.0500000007
   5031,  0.142857149,  0.470588237, 0.0500000007
   5032,  0.142857149,  0.529411793, 0.0500000007
   5033,  0.142857149,  0.588235319, 0.0500000007
   5034,  0.142857149,  0.647058845, 0.0500000007
   5035,  0.142857149,   0.70588237, 0.0500000007
   5036,  0.142857149,  0.764705896, 0.0500000007
   5037,  0.142857149,  0.823529422, 0.0500000007
   5038,  0.142857149,  0.882352948, 0.0500000007
   5039,  0.142857149,  0.941176474, 0.0500000007
   5040,  0.142857149,           1., 0.0500000007
   5041,  0.142857149,          -1., 0.0333333351
   5042,  0.142857149, -0.941176474, 0.0333333351
   5043,  0.142857149, -0.882352948, 0.0333333351
   5044,  0.142857149, -0.823529422, 0.0333333351
   5045,  0.142857149, -0.764705896, 0.0333333351
   5046,  0.142857149,  -0.70588237, 0.0333333351
   5047,  0.142857149, -0.647058845, 0.0333333351
   5048,  0.142857149, -0.588235319, 0.0333333351
   5049,  0.142857149, -0.529411793, 0.0333333351
   5050,  0.142857149, -0.470588237, 0.0333333351
   5051,  0.142857149, -0.411764711, 0.0333333351
   5052,  0.142857149, -0.352941185, 0.0333333351
   5053,  0.142857149, -0.294117659, 0.0333333351
   5054,  0.142857149, -0.235294119, 0.0333333351
   5055,  0.142857149, -0.176470593, 0.0333333351
   5056,  0.142857149, -0.117647059, 0.0333333351
   5057,  0.142857149, -0.0588235296, 0.0333333351
   5058,  0.142857149,           0., 0.0333333351
   5059,  0.142857149, 0.0588235296, 0.0333333351
   5060,  0.142857149,  0.117647059, 0.0333333351
   5061,  0.142857149,  0.176470593, 0.0333333351
   5062,  0.142857149,  0.235294119, 0.0333333351
   5063,  0.142857149,  0.294117659, 0.0333333351
   5064,  0.142857149,  0.352941185, 0.0333333351
   5065,  0.142857149,  0.411764711, 0.0333333351
   5066,  0.142857149,  0.470588237, 0.0333333351
   5067,  0.142857149,  0.529411793, 0.0333333351
   5068,  0.142857149,  0.588235319, 0.0333333351
   5069,  0.142857149,  0.647058845, 0.0333333351
   5070,  0.142857149,   0.70588237, 0.0333333351
   5071,  0.142857149,  0.764705896, 0.0333333351
   5072,  0.142857149,  0.823529422, 0.0333333351
   5073,  0.142857149,  0.882352948, 0.0333333351
   5074,  0.142857149,  0.941176474, 0.0333333351
   5075,  0.142857149,           1., 0.0333333351
   5076,  0.142857149,          -1., 0.0166666675
   5077,  0.142857149, -0.941176474, 0.0166666675
   5078,  0.142857149, -0.882352948, 0.0166666675
   5079,  0.142857149, -0.823529422, 0.0166666675
   5080,  0.142857149, -0.764705896, 0.0166666675
   5081,  0.142857149,  -0.70588237, 0.0166666675
   5082,  0.142857149, -0.647058845, 0.0166666675
   5083,  0.142857149, -0.588235319, 0.0166666675
   5084,  0.142857149, -0.529411793, 0.0166666675
   5085,  0.142857149, -0.470588237, 0.0166666675
   5086,  0.142857149, -0.411764711, 0.0166666675
   5087,  0.142857149, -0.352941185, 0.0166666675
   5088,  0.142857149, -0.294117659, 0.0166666675
   5089,  0.142857149, -0.235294119, 0.0166666675
   5090,  0.142857149, -0.176470593, 0.0166666675
   5091,  0.142857149, -0.117647059, 0.0166666675
   5092,  0.142857149, -0.0588235296, 0.0166666675
   5093,  0.142857149,           0., 0.0166666675
   5094,  0.142857149, 0.0588235296, 0.0166666675
   5095,  0.142857149,  0.117647059, 0.0166666675
   5096,  0.142857149,  0.176470593, 0.0166666675
   5097,  0.142857149,  0.235294119, 0.0166666675
   5098,  0.142857149,  0.294117659, 0.0166666675
   5099,  0.142857149,  0.352941185, 0.0166666675
   5100,  0.142857149,  0.411764711, 0.0166666675
   5101,  0.142857149,  0.470588237, 0.0166666675
   5102,  0.142857149,  0.529411793, 0.0166666675
   5103,  0.142857149,  0.588235319, 0.0166666675
   5104,  0.142857149,  0.647058845, 0.0166666675
   5105,  0.142857149,   0.70588237, 0.0166666675
   5106,  0.142857149,  0.764705896, 0.0166666675
   5107,  0.142857149,  0.823529422, 0.0166666675
   5108,  0.142857149,  0.882352948, 0.0166666675
   5109,  0.142857149,  0.941176474, 0.0166666675
   5110,  0.142857149,           1., 0.0166666675
   5111,  0.142857149,          -1.,           0.
   5112,  0.142857149, -0.941176474,           0.
   5113,  0.142857149, -0.882352948,           0.
   5114,  0.142857149, -0.823529422,           0.
   5115,  0.142857149, -0.764705896,           0.
   5116,  0.142857149,  -0.70588237,           0.
   5117,  0.142857149, -0.647058845,           0.
   5118,  0.142857149, -0.588235319,           0.
   5119,  0.142857149, -0.529411793,           0.
   5120,  0.142857149, -0.470588237,           0.
   5121,  0.142857149, -0.411764711,           0.
   5122,  0.142857149, -0.352941185,           0.
   5123,  0.142857149, -0.294117659,           0.
   5124,  0.142857149, -0.235294119,           0.
   5125,  0.142857149, -0.176470593,           0.
   5126,  0.142857149, -0.117647059,           0.
   5127,  0.142857149, -0.0588235296,           0.
   5128,  0.142857149,           0.,           0.
   5129,  0.142857149, 0.0588235296,           0.
   5130,  0.142857149,  0.117647059,           0.
   5131,  0.142857149,  0.176470593,           0.
   5132,  0.142857149,  0.235294119,           0.
   5133,  0.142857149,  0.294117659,           0.
   5134,  0.142857149,  0.352941185,           0.
   5135,  0.142857149,  0.411764711,           0.
   5136,  0.142857149,  0.470588237,           0.
   5137,  0.142857149,  0.529411793,           0.
   5138,  0.142857149,  0.588235319,           0.
   5139,  0.142857149,  0.647058845,           0.
   5140,  0.142857149,   0.70588237,           0.
   5141,  0.142857149,  0.764705896,           0.
   5142,  0.142857149,  0.823529422,           0.
   5143,  0.142857149,  0.882352948,           0.
   5144,  0.142857149,  0.941176474,           0.
   5145,  0.142857149,           1.,           0.
   5146,  0.200000003,          -1.,  0.100000001
   5147,  0.200000003, -0.941176474,  0.100000001
   5148,  0.200000003, -0.882352948,  0.100000001
   5149,  0.200000003, -0.823529422,  0.100000001
   5150,  0.200000003, -0.764705896,  0.100000001
   5151,  0.200000003,  -0.70588237,  0.100000001
   5152,  0.200000003, -0.647058845,  0.100000001
   5153,  0.200000003, -0.588235319,  0.100000001
   5154,  0.200000003, -0.529411793,  0.100000001
   5155,  0.200000003, -0.470588237,  0.100000001
   5156,  0.200000003, -0.411764711,  0.100000001
   5157,  0.200000003, -0.352941185,  0.100000001
   5158,  0.200000003, -0.294117659,  0.100000001
   5159,  0.200000003, -0.235294119,  0.100000001
   5160,  0.200000003, -0.176470593,  0.100000001
   5161,  0.200000003, -0.117647059,  0.100000001
   5162,  0.200000003, -0.0588235296,  0.100000001
   5163,  0.200000003,           0.,  0.100000001
   5164,  0.200000003, 0.0588235296,  0.100000001
   5165,  0.200000003,  0.117647059,  0.100000001
   5166,  0.200000003,  0.176470593,  0.100000001
   5167,  0.200000003,  0.235294119,  0.100000001
   5168,  0.200000003,  0.294117659,  0.100000001
   5169,  0.200000003,  0.352941185,  0.100000001
   5170,  0.200000003,  0.411764711,  0.100000001
   5171,  0.200000003,  0.470588237,  0.100000001
   5172,  0.200000003,  0.529411793,  0.100000001
   5173,  0.200000003,  0.588235319,  0.100000001
   5174,  0.200000003,  0.647058845,  0.100000001
   5175,  0.200000003,   0.70588237,  0.100000001
   5176,  0.200000003,  0.764705896,  0.100000001
   5177,  0.200000003,  0.823529422,  0.100000001
   5178,  0.200000003,  0.882352948,  0.100000001
   5179,  0.200000003,  0.941176474,  0.100000001
   5180,  0.200000003,           1.,  0.100000001
   5181,  0.200000003,          -1., 0.0833333358
   5182,  0.200000003, -0.941176474, 0.0833333358
   5183,  0.200000003, -0.882352948, 0.0833333358
   5184,  0.200000003, -0.823529422, 0.0833333358
   5185,  0.200000003, -0.764705896, 0.0833333358
   5186,  0.200000003,  -0.70588237, 0.0833333358
   5187,  0.200000003, -0.647058845, 0.0833333358
   5188,  0.200000003, -0.588235319, 0.0833333358
   5189,  0.200000003, -0.529411793, 0.0833333358
   5190,  0.200000003, -0.470588237, 0.0833333358
   5191,  0.200000003, -0.411764711, 0.0833333358
   5192,  0.200000003, -0.352941185, 0.0833333358
   5193,  0.200000003, -0.294117659, 0.0833333358
   5194,  0.200000003, -0.235294119, 0.0833333358
   5195,  0.200000003, -0.176470593, 0.0833333358
   5196,  0.200000003, -0.117647059, 0.0833333358
   5197,  0.200000003, -0.0588235296, 0.0833333358
   5198,  0.200000003,           0., 0.0833333358
   5199,  0.200000003, 0.0588235296, 0.0833333358
   5200,  0.200000003,  0.117647059, 0.0833333358
   5201,  0.200000003,  0.176470593, 0.0833333358
   5202,  0.200000003,  0.235294119, 0.0833333358
   5203,  0.200000003,  0.294117659, 0.0833333358
   5204,  0.200000003,  0.352941185, 0.0833333358
   5205,  0.200000003,  0.411764711, 0.0833333358
   5206,  0.200000003,  0.470588237, 0.0833333358
   5207,  0.200000003,  0.529411793, 0.0833333358
   5208,  0.200000003,  0.588235319, 0.0833333358
   5209,  0.200000003,  0.647058845, 0.0833333358
   5210,  0.200000003,   0.70588237, 0.0833333358
   5211,  0.200000003,  0.764705896, 0.0833333358
   5212,  0.200000003,  0.823529422, 0.0833333358
   5213,  0.200000003,  0.882352948, 0.0833333358
   5214,  0.200000003,  0.941176474, 0.0833333358
   5215,  0.200000003,           1., 0.0833333358
   5216,  0.200000003,          -1., 0.0666666701
   5217,  0.200000003, -0.941176474, 0.0666666701
   5218,  0.200000003, -0.882352948, 0.0666666701
   5219,  0.200000003, -0.823529422, 0.0666666701
   5220,  0.200000003, -0.764705896, 0.0666666701
   5221,  0.200000003,  -0.70588237, 0.0666666701
   5222,  0.200000003, -0.647058845, 0.0666666701
   5223,  0.200000003, -0.588235319, 0.0666666701
   5224,  0.200000003, -0.529411793, 0.0666666701
   5225,  0.200000003, -0.470588237, 0.0666666701
   5226,  0.200000003, -0.411764711, 0.0666666701
   5227,  0.200000003, -0.352941185, 0.0666666701
   5228,  0.200000003, -0.294117659, 0.0666666701
   5229,  0.200000003, -0.235294119, 0.0666666701
   5230,  0.200000003, -0.176470593, 0.0666666701
   5231,  0.200000003, -0.117647059, 0.0666666701
   5232,  0.200000003, -0.0588235296, 0.0666666701
   5233,  0.200000003,           0., 0.0666666701
   5234,  0.200000003, 0.0588235296, 0.0666666701
   5235,  0.200000003,  0.117647059, 0.0666666701
   5236,  0.200000003,  0.176470593, 0.0666666701
   5237,  0.200000003,  0.235294119, 0.0666666701
   5238,  0.200000003,  0.294117659, 0.0666666701
   5239,  0.200000003,  0.352941185, 0.0666666701
   5240,  0.200000003,  0.411764711, 0.0666666701
   5241,  0.200000003,  0.470588237, 0.0666666701
   5242,  0.200000003,  0.529411793, 0.0666666701
   5243,  0.200000003,  0.588235319, 0.0666666701
   5244,  0.200000003,  0.647058845, 0.0666666701
   5245,  0.200000003,   0.70588237, 0.0666666701
   5246,  0.200000003,  0.764705896, 0.0666666701
   5247,  0.200000003,  0.823529422, 0.0666666701
   5248,  0.200000003,  0.882352948, 0.0666666701
   5249,  0.200000003,  0.941176474, 0.0666666701
   5250,  0.200000003,           1., 0.0666666701
   5251,  0.200000003,          -1., 0.0500000007
   5252,  0.200000003, -0.941176474, 0.0500000007
   5253,  0.200000003, -0.882352948, 0.0500000007
   5254,  0.200000003, -0.823529422, 0.0500000007
   5255,  0.200000003, -0.764705896, 0.0500000007
   5256,  0.200000003,  -0.70588237, 0.0500000007
   5257,  0.200000003, -0.647058845, 0.0500000007
   5258,  0.200000003, -0.588235319, 0.0500000007
   5259,  0.200000003, -0.529411793, 0.0500000007
   5260,  0.200000003, -0.470588237, 0.0500000007
   5261,  0.200000003, -0.411764711, 0.0500000007
   5262,  0.200000003, -0.352941185, 0.0500000007
   5263,  0.200000003, -0.294117659, 0.0500000007
   5264,  0.200000003, -0.235294119, 0.0500000007
   5265,  0.200000003, -0.176470593, 0.0500000007
   5266,  0.200000003, -0.117647059, 0.0500000007
   5267,  0.200000003, -0.0588235296, 0.0500000007
   5268,  0.200000003,           0., 0.0500000007
   5269,  0.200000003, 0.0588235296, 0.0500000007
   5270,  0.200000003,  0.117647059, 0.0500000007
   5271,  0.200000003,  0.176470593, 0.0500000007
   5272,  0.200000003,  0.235294119, 0.0500000007
   5273,  0.200000003,  0.294117659, 0.0500000007
   5274,  0.200000003,  0.352941185, 0.0500000007
   5275,  0.200000003,  0.411764711, 0.0500000007
   5276,  0.200000003,  0.470588237, 0.0500000007
   5277,  0.200000003,  0.529411793, 0.0500000007
   5278,  0.200000003,  0.588235319, 0.0500000007
   5279,  0.200000003,  0.647058845, 0.0500000007
   5280,  0.200000003,   0.70588237, 0.0500000007
   5281,  0.200000003,  0.764705896, 0.0500000007
   5282,  0.200000003,  0.823529422, 0.0500000007
   5283,  0.200000003,  0.882352948, 0.0500000007
   5284,  0.200000003,  0.941176474, 0.0500000007
   5285,  0.200000003,           1., 0.0500000007
   5286,  0.200000003,          -1., 0.0333333351
   5287,  0.200000003, -0.941176474, 0.0333333351
   5288,  0.200000003, -0.882352948, 0.0333333351
   5289,  0.200000003, -0.823529422, 0.0333333351
   5290,  0.200000003, -0.764705896, 0.0333333351
   5291,  0.200000003,  -0.70588237, 0.0333333351
   5292,  0.200000003, -0.647058845, 0.0333333351
   5293,  0.200000003, -0.588235319, 0.0333333351
   5294,  0.200000003, -0.529411793, 0.0333333351
   5295,  0.200000003, -0.470588237, 0.0333333351
   5296,  0.200000003, -0.411764711, 0.0333333351
   5297,  0.200000003, -0.352941185, 0.0333333351
   5298,  0.200000003, -0.294117659, 0.0333333351
   5299,  0.200000003, -0.235294119, 0.0333333351
   5300,  0.200000003, -0.176470593, 0.0333333351
   5301,  0.200000003, -0.117647059, 0.0333333351
   5302,  0.200000003, -0.0588235296, 0.0333333351
   5303,  0.200000003,           0., 0.0333333351
   5304,  0.200000003, 0.0588235296, 0.0333333351
   5305,  0.200000003,  0.117647059, 0.0333333351
   5306,  0.200000003,  0.176470593, 0.0333333351
   5307,  0.200000003,  0.235294119, 0.0333333351
   5308,  0.200000003,  0.294117659, 0.0333333351
   5309,  0.200000003,  0.352941185, 0.0333333351
   5310,  0.200000003,  0.411764711, 0.0333333351
   5311,  0.200000003,  0.470588237, 0.0333333351
   5312,  0.200000003,  0.529411793, 0.0333333351
   5313,  0.200000003,  0.588235319, 0.0333333351
   5314,  0.200000003,  0.647058845, 0.0333333351
   5315,  0.200000003,   0.70588237, 0.0333333351
   5316,  0.200000003,  0.764705896, 0.0333333351
   5317,  0.200000003,  0.823529422, 0.0333333351
   5318,  0.200000003,  0.882352948, 0.0333333351
   5319,  0.200000003,  0.941176474, 0.0333333351
   5320,  0.200000003,           1., 0.0333333351
   5321,  0.200000003,          -1., 0.0166666675
   5322,  0.200000003, -0.941176474, 0.0166666675
   5323,  0.200000003, -0.882352948, 0.0166666675
   5324,  0.200000003, -0.823529422, 0.0166666675
   5325,  0.200000003, -0.764705896, 0.0166666675
   5326,  0.200000003,  -0.70588237, 0.0166666675
   5327,  0.200000003, -0.647058845, 0.0166666675
   5328,  0.200000003, -0.588235319, 0.0166666675
   5329,  0.200000003, -0.529411793, 0.0166666675
   5330,  0.200000003, -0.470588237, 0.0166666675
   5331,  0.200000003, -0.411764711, 0.0166666675
   5332,  0.200000003, -0.352941185, 0.0166666675
   5333,  0.200000003, -0.294117659, 0.0166666675
   5334,  0.200000003, -0.235294119, 0.0166666675
   5335,  0.200000003, -0.176470593, 0.0166666675
   5336,  0.200000003, -0.117647059, 0.0166666675
   5337,  0.200000003, -0.0588235296, 0.0166666675
   5338,  0.200000003,           0., 0.0166666675
   5339,  0.200000003, 0.0588235296, 0.0166666675
   5340,  0.200000003,  0.117647059, 0.0166666675
   5341,  0.200000003,  0.176470593, 0.0166666675
   5342,  0.200000003,  0.235294119, 0.0166666675
   5343,  0.200000003,  0.294117659, 0.0166666675
   5344,  0.200000003,  0.352941185, 0.0166666675
   5345,  0.200000003,  0.411764711, 0.0166666675
   5346,  0.200000003,  0.470588237, 0.0166666675
   5347,  0.200000003,  0.529411793, 0.0166666675
   5348,  0.200000003,  0.588235319, 0.0166666675
   5349,  0.200000003,  0.647058845, 0.0166666675
   5350,  0.200000003,   0.70588237, 0.0166666675
   5351,  0.200000003,  0.764705896, 0.0166666675
   5352,  0.200000003,  0.823529422, 0.0166666675
   5353,  0.200000003,  0.882352948, 0.0166666675
   5354,  0.200000003,  0.941176474, 0.0166666675
   5355,  0.200000003,           1., 0.0166666675
   5356,  0.200000003,          -1.,           0.
   5357,  0.200000003, -0.941176474,           0.
   5358,  0.200000003, -0.882352948,           0.
   5359,  0.200000003, -0.823529422,           0.
   5360,  0.200000003, -0.764705896,           0.
   5361,  0.200000003,  -0.70588237,           0.
   5362,  0.200000003, -0.647058845,           0.
   5363,  0.200000003, -0.588235319,           0.
   5364,  0.200000003, -0.529411793,           0.
   5365,  0.200000003, -0.470588237,           0.
   5366,  0.200000003, -0.411764711,           0.
   5367,  0.200000003, -0.352941185,           0.
   5368,  0.200000003, -0.294117659,           0.
   5369,  0.200000003, -0.235294119,           0.
   5370,  0.200000003, -0.176470593,           0.
   5371,  0.200000003, -0.117647059,           0.
   5372,  0.200000003, -0.0588235296,           0.
   5373,  0.200000003,           0.,           0.
   5374,  0.200000003, 0.0588235296,           0.
   5375,  0.200000003,  0.117647059,           0.
   5376,  0.200000003,  0.176470593,           0.
   5377,  0.200000003,  0.235294119,           0.
   5378,  0.200000003,  0.294117659,           0.
   5379,  0.200000003,  0.352941185,           0.
   5380,  0.200000003,  0.411764711,           0.
   5381,  0.200000003,  0.470588237,           0.
   5382,  0.200000003,  0.529411793,           0.
   5383,  0.200000003,  0.588235319,           0.
   5384,  0.200000003,  0.647058845,           0.
   5385,  0.200000003,   0.70588237,           0.
   5386,  0.200000003,  0.764705896,           0.
   5387,  0.200000003,  0.823529422,           0.
   5388,  0.200000003,  0.882352948,           0.
   5389,  0.200000003,  0.941176474,           0.
   5390,  0.200000003,           1.,           0.
   5391,  0.257142872,          -1.,  0.100000001
   5392,  0.257142872, -0.941176474,  0.100000001
   5393,  0.257142872, -0.882352948,  0.100000001
   5394,  0.257142872, -0.823529422,  0.100000001
   5395,  0.257142872, -0.764705896,  0.100000001
   5396,  0.257142872,  -0.70588237,  0.100000001
   5397,  0.257142872, -0.647058845,  0.100000001
   5398,  0.257142872, -0.588235319,  0.100000001
   5399,  0.257142872, -0.529411793,  0.100000001
   5400,  0.257142872, -0.470588237,  0.100000001
   5401,  0.257142872, -0.411764711,  0.100000001
   5402,  0.257142872, -0.352941185,  0.100000001
   5403,  0.257142872, -0.294117659,  0.100000001
   5404,  0.257142872, -0.235294119,  0.100000001
   5405,  0.257142872, -0.176470593,  0.100000001
   5406,  0.257142872, -0.117647059,  0.100000001
   5407,  0.257142872, -0.0588235296,  0.100000001
   5408,  0.257142872,           0.,  0.100000001
   5409,  0.257142872, 0.0588235296,  0.100000001
   5410,  0.257142872,  0.117647059,  0.100000001
   5411,  0.257142872,  0.176470593,  0.100000001
   5412,  0.257142872,  0.235294119,  0.100000001
   5413,  0.257142872,  0.294117659,  0.100000001
   5414,  0.257142872,  0.352941185,  0.100000001
   5415,  0.257142872,  0.411764711,  0.100000001
   5416,  0.257142872,  0.470588237,  0.100000001
   5417,  0.257142872,  0.529411793,  0.100000001
   5418,  0.257142872,  0.588235319,  0.100000001
   5419,  0.257142872,  0.647058845,  0.100000001
   5420,  0.257142872,   0.70588237,  0.100000001
   5421,  0.257142872,  0.764705896,  0.100000001
   5422,  0.257142872,  0.823529422,  0.100000001
   5423,  0.257142872,  0.882352948,  0.100000001
   5424,  0.257142872,  0.941176474,  0.100000001
   5425,  0.257142872,           1.,  0.100000001
   5426,  0.257142872,          -1., 0.0833333358
   5427,  0.257142872, -0.941176474, 0.0833333358
   5428,  0.257142872, -0.882352948, 0.0833333358
   5429,  0.257142872, -0.823529422, 0.0833333358
   5430,  0.257142872, -0.764705896, 0.0833333358
   5431,  0.257142872,  -0.70588237, 0.0833333358
   5432,  0.257142872, -0.647058845, 0.0833333358
   5433,  0.257142872, -0.588235319, 0.0833333358
   5434,  0.257142872, -0.529411793, 0.0833333358
   5435,  0.257142872, -0.470588237, 0.0833333358
   5436,  0.257142872, -0.411764711, 0.0833333358
   5437,  0.257142872, -0.352941185, 0.0833333358
   5438,  0.257142872, -0.294117659, 0.0833333358
   5439,  0.257142872, -0.235294119, 0.0833333358
   5440,  0.257142872, -0.176470593, 0.0833333358
   5441,  0.257142872, -0.117647059, 0.0833333358
   5442,  0.257142872, -0.0588235296, 0.0833333358
   5443,  0.257142872,           0., 0.0833333358
   5444,  0.257142872, 0.0588235296, 0.0833333358
   5445,  0.257142872,  0.117647059, 0.0833333358
   5446,  0.257142872,  0.176470593, 0.0833333358
   5447,  0.257142872,  0.235294119, 0.0833333358
   5448,  0.257142872,  0.294117659, 0.0833333358
   5449,  0.257142872,  0.352941185, 0.0833333358
   5450,  0.257142872,  0.411764711, 0.0833333358
   5451,  0.257142872,  0.470588237, 0.0833333358
   5452,  0.257142872,  0.529411793, 0.0833333358
   5453,  0.257142872,  0.588235319, 0.0833333358
   5454,  0.257142872,  0.647058845, 0.0833333358
   5455,  0.257142872,   0.70588237, 0.0833333358
   5456,  0.257142872,  0.764705896, 0.0833333358
   5457,  0.257142872,  0.823529422, 0.0833333358
   5458,  0.257142872,  0.882352948, 0.0833333358
   5459,  0.257142872,  0.941176474, 0.0833333358
   5460,  0.257142872,           1., 0.0833333358
   5461,  0.257142872,          -1., 0.0666666701
   5462,  0.257142872, -0.941176474, 0.0666666701
   5463,  0.257142872, -0.882352948, 0.0666666701
   5464,  0.257142872, -0.823529422, 0.0666666701
   5465,  0.257142872, -0.764705896, 0.0666666701
   5466,  0.257142872,  -0.70588237, 0.0666666701
   5467,  0.257142872, -0.647058845, 0.0666666701
   5468,  0.257142872, -0.588235319, 0.0666666701
   5469,  0.257142872, -0.529411793, 0.0666666701
   5470,  0.257142872, -0.470588237, 0.0666666701
   5471,  0.257142872, -0.411764711, 0.0666666701
   5472,  0.257142872, -0.352941185, 0.0666666701
   5473,  0.257142872, -0.294117659, 0.0666666701
   5474,  0.257142872, -0.235294119, 0.0666666701
   5475,  0.257142872, -0.176470593, 0.0666666701
   5476,  0.257142872, -0.117647059, 0.0666666701
   5477,  0.257142872, -0.0588235296, 0.0666666701
   5478,  0.257142872,           0., 0.0666666701
   5479,  0.257142872, 0.0588235296, 0.0666666701
   5480,  0.257142872,  0.117647059, 0.0666666701
   5481,  0.257142872,  0.176470593, 0.0666666701
   5482,  0.257142872,  0.235294119, 0.0666666701
   5483,  0.257142872,  0.294117659, 0.0666666701
   5484,  0.257142872,  0.352941185, 0.0666666701
   5485,  0.257142872,  0.411764711, 0.0666666701
   5486,  0.257142872,  0.470588237, 0.0666666701
   5487,  0.257142872,  0.529411793, 0.0666666701
   5488,  0.257142872,  0.588235319, 0.0666666701
   5489,  0.257142872,  0.647058845, 0.0666666701
   5490,  0.257142872,   0.70588237, 0.0666666701
   5491,  0.257142872,  0.764705896, 0.0666666701
   5492,  0.257142872,  0.823529422, 0.0666666701
   5493,  0.257142872,  0.882352948, 0.0666666701
   5494,  0.257142872,  0.941176474, 0.0666666701
   5495,  0.257142872,           1., 0.0666666701
   5496,  0.257142872,          -1., 0.0500000007
   5497,  0.257142872, -0.941176474, 0.0500000007
   5498,  0.257142872, -0.882352948, 0.0500000007
   5499,  0.257142872, -0.823529422, 0.0500000007
   5500,  0.257142872, -0.764705896, 0.0500000007
   5501,  0.257142872,  -0.70588237, 0.0500000007
   5502,  0.257142872, -0.647058845, 0.0500000007
   5503,  0.257142872, -0.588235319, 0.0500000007
   5504,  0.257142872, -0.529411793, 0.0500000007
   5505,  0.257142872, -0.470588237, 0.0500000007
   5506,  0.257142872, -0.411764711, 0.0500000007
   5507,  0.257142872, -0.352941185, 0.0500000007
   5508,  0.257142872, -0.294117659, 0.0500000007
   5509,  0.257142872, -0.235294119, 0.0500000007
   5510,  0.257142872, -0.176470593, 0.0500000007
   5511,  0.257142872, -0.117647059, 0.0500000007
   5512,  0.257142872, -0.0588235296, 0.0500000007
   5513,  0.257142872,           0., 0.0500000007
   5514,  0.257142872, 0.0588235296, 0.0500000007
   5515,  0.257142872,  0.117647059, 0.0500000007
   5516,  0.257142872,  0.176470593, 0.0500000007
   5517,  0.257142872,  0.235294119, 0.0500000007
   5518,  0.257142872,  0.294117659, 0.0500000007
   5519,  0.257142872,  0.352941185, 0.0500000007
   5520,  0.257142872,  0.411764711, 0.0500000007
   5521,  0.257142872,  0.470588237, 0.0500000007
   5522,  0.257142872,  0.529411793, 0.0500000007
   5523,  0.257142872,  0.588235319, 0.0500000007
   5524,  0.257142872,  0.647058845, 0.0500000007
   5525,  0.257142872,   0.70588237, 0.0500000007
   5526,  0.257142872,  0.764705896, 0.0500000007
   5527,  0.257142872,  0.823529422, 0.0500000007
   5528,  0.257142872,  0.882352948, 0.0500000007
   5529,  0.257142872,  0.941176474, 0.0500000007
   5530,  0.257142872,           1., 0.0500000007
   5531,  0.257142872,          -1., 0.0333333351
   5532,  0.257142872, -0.941176474, 0.0333333351
   5533,  0.257142872, -0.882352948, 0.0333333351
   5534,  0.257142872, -0.823529422, 0.0333333351
   5535,  0.257142872, -0.764705896, 0.0333333351
   5536,  0.257142872,  -0.70588237, 0.0333333351
   5537,  0.257142872, -0.647058845, 0.0333333351
   5538,  0.257142872, -0.588235319, 0.0333333351
   5539,  0.257142872, -0.529411793, 0.0333333351
   5540,  0.257142872, -0.470588237, 0.0333333351
   5541,  0.257142872, -0.411764711, 0.0333333351
   5542,  0.257142872, -0.352941185, 0.0333333351
   5543,  0.257142872, -0.294117659, 0.0333333351
   5544,  0.257142872, -0.235294119, 0.0333333351
   5545,  0.257142872, -0.176470593, 0.0333333351
   5546,  0.257142872, -0.117647059, 0.0333333351
   5547,  0.257142872, -0.0588235296, 0.0333333351
   5548,  0.257142872,           0., 0.0333333351
   5549,  0.257142872, 0.0588235296, 0.0333333351
   5550,  0.257142872,  0.117647059, 0.0333333351
   5551,  0.257142872,  0.176470593, 0.0333333351
   5552,  0.257142872,  0.235294119, 0.0333333351
   5553,  0.257142872,  0.294117659, 0.0333333351
   5554,  0.257142872,  0.352941185, 0.0333333351
   5555,  0.257142872,  0.411764711, 0.0333333351
   5556,  0.257142872,  0.470588237, 0.0333333351
   5557,  0.257142872,  0.529411793, 0.0333333351
   5558,  0.257142872,  0.588235319, 0.0333333351
   5559,  0.257142872,  0.647058845, 0.0333333351
   5560,  0.257142872,   0.70588237, 0.0333333351
   5561,  0.257142872,  0.764705896, 0.0333333351
   5562,  0.257142872,  0.823529422, 0.0333333351
   5563,  0.257142872,  0.882352948, 0.0333333351
   5564,  0.257142872,  0.941176474, 0.0333333351
   5565,  0.257142872,           1., 0.0333333351
   5566,  0.257142872,          -1., 0.0166666675
   5567,  0.257142872, -0.941176474, 0.0166666675
   5568,  0.257142872, -0.882352948, 0.0166666675
   5569,  0.257142872, -0.823529422, 0.0166666675
   5570,  0.257142872, -0.764705896, 0.0166666675
   5571,  0.257142872,  -0.70588237, 0.0166666675
   5572,  0.257142872, -0.647058845, 0.0166666675
   5573,  0.257142872, -0.588235319, 0.0166666675
   5574,  0.257142872, -0.529411793, 0.0166666675
   5575,  0.257142872, -0.470588237, 0.0166666675
   5576,  0.257142872, -0.411764711, 0.0166666675
   5577,  0.257142872, -0.352941185, 0.0166666675
   5578,  0.257142872, -0.294117659, 0.0166666675
   5579,  0.257142872, -0.235294119, 0.0166666675
   5580,  0.257142872, -0.176470593, 0.0166666675
   5581,  0.257142872, -0.117647059, 0.0166666675
   5582,  0.257142872, -0.0588235296, 0.0166666675
   5583,  0.257142872,           0., 0.0166666675
   5584,  0.257142872, 0.0588235296, 0.0166666675
   5585,  0.257142872,  0.117647059, 0.0166666675
   5586,  0.257142872,  0.176470593, 0.0166666675
   5587,  0.257142872,  0.235294119, 0.0166666675
   5588,  0.257142872,  0.294117659, 0.0166666675
   5589,  0.257142872,  0.352941185, 0.0166666675
   5590,  0.257142872,  0.411764711, 0.0166666675
   5591,  0.257142872,  0.470588237, 0.0166666675
   5592,  0.257142872,  0.529411793, 0.0166666675
   5593,  0.257142872,  0.588235319, 0.0166666675
   5594,  0.257142872,  0.647058845, 0.0166666675
   5595,  0.257142872,   0.70588237, 0.0166666675
   5596,  0.257142872,  0.764705896, 0.0166666675
   5597,  0.257142872,  0.823529422, 0.0166666675
   5598,  0.257142872,  0.882352948, 0.0166666675
   5599,  0.257142872,  0.941176474, 0.0166666675
   5600,  0.257142872,           1., 0.0166666675
   5601,  0.257142872,          -1.,           0.
   5602,  0.257142872, -0.941176474,           0.
   5603,  0.257142872, -0.882352948,           0.
   5604,  0.257142872, -0.823529422,           0.
   5605,  0.257142872, -0.764705896,           0.
   5606,  0.257142872,  -0.70588237,           0.
   5607,  0.257142872, -0.647058845,           0.
   5608,  0.257142872, -0.588235319,           0.
   5609,  0.257142872, -0.529411793,           0.
   5610,  0.257142872, -0.470588237,           0.
   5611,  0.257142872, -0.411764711,           0.
   5612,  0.257142872, -0.352941185,           0.
   5613,  0.257142872, -0.294117659,           0.
   5614,  0.257142872, -0.235294119,           0.
   5615,  0.257142872, -0.176470593,           0.
   5616,  0.257142872, -0.117647059,           0.
   5617,  0.257142872, -0.0588235296,           0.
   5618,  0.257142872,           0.,           0.
   5619,  0.257142872, 0.0588235296,           0.
   5620,  0.257142872,  0.117647059,           0.
   5621,  0.257142872,  0.176470593,           0.
   5622,  0.257142872,  0.235294119,           0.
   5623,  0.257142872,  0.294117659,           0.
   5624,  0.257142872,  0.352941185,           0.
   5625,  0.257142872,  0.411764711,           0.
   5626,  0.257142872,  0.470588237,           0.
   5627,  0.257142872,  0.529411793,           0.
   5628,  0.257142872,  0.588235319,           0.
   5629,  0.257142872,  0.647058845,           0.
   5630,  0.257142872,   0.70588237,           0.
   5631,  0.257142872,  0.764705896,           0.
   5632,  0.257142872,  0.823529422,           0.
   5633,  0.257142872,  0.882352948,           0.
   5634,  0.257142872,  0.941176474,           0.
   5635,  0.257142872,           1.,           0.
   5636,  0.314285725,          -1.,  0.100000001
   5637,  0.314285725, -0.941176474,  0.100000001
   5638,  0.314285725, -0.882352948,  0.100000001
   5639,  0.314285725, -0.823529422,  0.100000001
   5640,  0.314285725, -0.764705896,  0.100000001
   5641,  0.314285725,  -0.70588237,  0.100000001
   5642,  0.314285725, -0.647058845,  0.100000001
   5643,  0.314285725, -0.588235319,  0.100000001
   5644,  0.314285725, -0.529411793,  0.100000001
   5645,  0.314285725, -0.470588237,  0.100000001
   5646,  0.314285725, -0.411764711,  0.100000001
   5647,  0.314285725, -0.352941185,  0.100000001
   5648,  0.314285725, -0.294117659,  0.100000001
   5649,  0.314285725, -0.235294119,  0.100000001
   5650,  0.314285725, -0.176470593,  0.100000001
   5651,  0.314285725, -0.117647059,  0.100000001
   5652,  0.314285725, -0.0588235296,  0.100000001
   5653,  0.314285725,           0.,  0.100000001
   5654,  0.314285725, 0.0588235296,  0.100000001
   5655,  0.314285725,  0.117647059,  0.100000001
   5656,  0.314285725,  0.176470593,  0.100000001
   5657,  0.314285725,  0.235294119,  0.100000001
   5658,  0.314285725,  0.294117659,  0.100000001
   5659,  0.314285725,  0.352941185,  0.100000001
   5660,  0.314285725,  0.411764711,  0.100000001
   5661,  0.314285725,  0.470588237,  0.100000001
   5662,  0.314285725,  0.529411793,  0.100000001
   5663,  0.314285725,  0.588235319,  0.100000001
   5664,  0.314285725,  0.647058845,  0.100000001
   5665,  0.314285725,   0.70588237,  0.100000001
   5666,  0.314285725,  0.764705896,  0.100000001
   5667,  0.314285725,  0.823529422,  0.100000001
   5668,  0.314285725,  0.882352948,  0.100000001
   5669,  0.314285725,  0.941176474,  0.100000001
   5670,  0.314285725,           1.,  0.100000001
   5671,  0.314285725,          -1., 0.0833333358
   5672,  0.314285725, -0.941176474, 0.0833333358
   5673,  0.314285725, -0.882352948, 0.0833333358
   5674,  0.314285725, -0.823529422, 0.0833333358
   5675,  0.314285725, -0.764705896, 0.0833333358
   5676,  0.314285725,  -0.70588237, 0.0833333358
   5677,  0.314285725, -0.647058845, 0.0833333358
   5678,  0.314285725, -0.588235319, 0.0833333358
   5679,  0.314285725, -0.529411793, 0.0833333358
   5680,  0.314285725, -0.470588237, 0.0833333358
   5681,  0.314285725, -0.411764711, 0.0833333358
   5682,  0.314285725, -0.352941185, 0.0833333358
   5683,  0.314285725, -0.294117659, 0.0833333358
   5684,  0.314285725, -0.235294119, 0.0833333358
   5685,  0.314285725, -0.176470593, 0.0833333358
   5686,  0.314285725, -0.117647059, 0.0833333358
   5687,  0.314285725, -0.0588235296, 0.0833333358
   5688,  0.314285725,           0., 0.0833333358
   5689,  0.314285725, 0.0588235296, 0.0833333358
   5690,  0.314285725,  0.117647059, 0.0833333358
   5691,  0.314285725,  0.176470593, 0.0833333358
   5692,  0.314285725,  0.235294119, 0.0833333358
   5693,  0.314285725,  0.294117659, 0.0833333358
   5694,  0.314285725,  0.352941185, 0.0833333358
   5695,  0.314285725,  0.411764711, 0.0833333358
   5696,  0.314285725,  0.470588237, 0.0833333358
   5697,  0.314285725,  0.529411793, 0.0833333358
   5698,  0.314285725,  0.588235319, 0.0833333358
   5699,  0.314285725,  0.647058845, 0.0833333358
   5700,  0.314285725,   0.70588237, 0.0833333358
   5701,  0.314285725,  0.764705896, 0.0833333358
   5702,  0.314285725,  0.823529422, 0.0833333358
   5703,  0.314285725,  0.882352948, 0.0833333358
   5704,  0.314285725,  0.941176474, 0.0833333358
   5705,  0.314285725,           1., 0.0833333358
   5706,  0.314285725,          -1., 0.0666666701
   5707,  0.314285725, -0.941176474, 0.0666666701
   5708,  0.314285725, -0.882352948, 0.0666666701
   5709,  0.314285725, -0.823529422, 0.0666666701
   5710,  0.314285725, -0.764705896, 0.0666666701
   5711,  0.314285725,  -0.70588237, 0.0666666701
   5712,  0.314285725, -0.647058845, 0.0666666701
   5713,  0.314285725, -0.588235319, 0.0666666701
   5714,  0.314285725, -0.529411793, 0.0666666701
   5715,  0.314285725, -0.470588237, 0.0666666701
   5716,  0.314285725, -0.411764711, 0.0666666701
   5717,  0.314285725, -0.352941185, 0.0666666701
   5718,  0.314285725, -0.294117659, 0.0666666701
   5719,  0.314285725, -0.235294119, 0.0666666701
   5720,  0.314285725, -0.176470593, 0.0666666701
   5721,  0.314285725, -0.117647059, 0.0666666701
   5722,  0.314285725, -0.0588235296, 0.0666666701
   5723,  0.314285725,           0., 0.0666666701
   5724,  0.314285725, 0.0588235296, 0.0666666701
   5725,  0.314285725,  0.117647059, 0.0666666701
   5726,  0.314285725,  0.176470593, 0.0666666701
   5727,  0.314285725,  0.235294119, 0.0666666701
   5728,  0.314285725,  0.294117659, 0.0666666701
   5729,  0.314285725,  0.352941185, 0.0666666701
   5730,  0.314285725,  0.411764711, 0.0666666701
   5731,  0.314285725,  0.470588237, 0.0666666701
   5732,  0.314285725,  0.529411793, 0.0666666701
   5733,  0.314285725,  0.588235319, 0.0666666701
   5734,  0.314285725,  0.647058845, 0.0666666701
   5735,  0.314285725,   0.70588237, 0.0666666701
   5736,  0.314285725,  0.764705896, 0.0666666701
   5737,  0.314285725,  0.823529422, 0.0666666701
   5738,  0.314285725,  0.882352948, 0.0666666701
   5739,  0.314285725,  0.941176474, 0.0666666701
   5740,  0.314285725,           1., 0.0666666701
   5741,  0.314285725,          -1., 0.0500000007
   5742,  0.314285725, -0.941176474, 0.0500000007
   5743,  0.314285725, -0.882352948, 0.0500000007
   5744,  0.314285725, -0.823529422, 0.0500000007
   5745,  0.314285725, -0.764705896, 0.0500000007
   5746,  0.314285725,  -0.70588237, 0.0500000007
   5747,  0.314285725, -0.647058845, 0.0500000007
   5748,  0.314285725, -0.588235319, 0.0500000007
   5749,  0.314285725, -0.529411793, 0.0500000007
   5750,  0.314285725, -0.470588237, 0.0500000007
   5751,  0.314285725, -0.411764711, 0.0500000007
   5752,  0.314285725, -0.352941185, 0.0500000007
   5753,  0.314285725, -0.294117659, 0.0500000007
   5754,  0.314285725, -0.235294119, 0.0500000007
   5755,  0.314285725, -0.176470593, 0.0500000007
   5756,  0.314285725, -0.117647059, 0.0500000007
   5757,  0.314285725, -0.0588235296, 0.0500000007
   5758,  0.314285725,           0., 0.0500000007
   5759,  0.314285725, 0.0588235296, 0.0500000007
   5760,  0.314285725,  0.117647059, 0.0500000007
   5761,  0.314285725,  0.176470593, 0.0500000007
   5762,  0.314285725,  0.235294119, 0.0500000007
   5763,  0.314285725,  0.294117659, 0.0500000007
   5764,  0.314285725,  0.352941185, 0.0500000007
   5765,  0.314285725,  0.411764711, 0.0500000007
   5766,  0.314285725,  0.470588237, 0.0500000007
   5767,  0.314285725,  0.529411793, 0.0500000007
   5768,  0.314285725,  0.588235319, 0.0500000007
   5769,  0.314285725,  0.647058845, 0.0500000007
   5770,  0.314285725,   0.70588237, 0.0500000007
   5771,  0.314285725,  0.764705896, 0.0500000007
   5772,  0.314285725,  0.823529422, 0.0500000007
   5773,  0.314285725,  0.882352948, 0.0500000007
   5774,  0.314285725,  0.941176474, 0.0500000007
   5775,  0.314285725,           1., 0.0500000007
   5776,  0.314285725,          -1., 0.0333333351
   5777,  0.314285725, -0.941176474, 0.0333333351
   5778,  0.314285725, -0.882352948, 0.0333333351
   5779,  0.314285725, -0.823529422, 0.0333333351
   5780,  0.314285725, -0.764705896, 0.0333333351
   5781,  0.314285725,  -0.70588237, 0.0333333351
   5782,  0.314285725, -0.647058845, 0.0333333351
   5783,  0.314285725, -0.588235319, 0.0333333351
   5784,  0.314285725, -0.529411793, 0.0333333351
   5785,  0.314285725, -0.470588237, 0.0333333351
   5786,  0.314285725, -0.411764711, 0.0333333351
   5787,  0.314285725, -0.352941185, 0.0333333351
   5788,  0.314285725, -0.294117659, 0.0333333351
   5789,  0.314285725, -0.235294119, 0.0333333351
   5790,  0.314285725, -0.176470593, 0.0333333351
   5791,  0.314285725, -0.117647059, 0.0333333351
   5792,  0.314285725, -0.0588235296, 0.0333333351
   5793,  0.314285725,           0., 0.0333333351
   5794,  0.314285725, 0.0588235296, 0.0333333351
   5795,  0.314285725,  0.117647059, 0.0333333351
   5796,  0.314285725,  0.176470593, 0.0333333351
   5797,  0.314285725,  0.235294119, 0.0333333351
   5798,  0.314285725,  0.294117659, 0.0333333351
   5799,  0.314285725,  0.352941185, 0.0333333351
   5800,  0.314285725,  0.411764711, 0.0333333351
   5801,  0.314285725,  0.470588237, 0.0333333351
   5802,  0.314285725,  0.529411793, 0.0333333351
   5803,  0.314285725,  0.588235319, 0.0333333351
   5804,  0.314285725,  0.647058845, 0.0333333351
   5805,  0.314285725,   0.70588237, 0.0333333351
   5806,  0.314285725,  0.764705896, 0.0333333351
   5807,  0.314285725,  0.823529422, 0.0333333351
   5808,  0.314285725,  0.882352948, 0.0333333351
   5809,  0.314285725,  0.941176474, 0.0333333351
   5810,  0.314285725,           1., 0.0333333351
   5811,  0.314285725,          -1., 0.0166666675
   5812,  0.314285725, -0.941176474, 0.0166666675
   5813,  0.314285725, -0.882352948, 0.0166666675
   5814,  0.314285725, -0.823529422, 0.0166666675
   5815,  0.314285725, -0.764705896, 0.0166666675
   5816,  0.314285725,  -0.70588237, 0.0166666675
   5817,  0.314285725, -0.647058845, 0.0166666675
   5818,  0.314285725, -0.588235319, 0.0166666675
   5819,  0.314285725, -0.529411793, 0.0166666675
   5820,  0.314285725, -0.470588237, 0.0166666675
   5821,  0.314285725, -0.411764711, 0.0166666675
   5822,  0.314285725, -0.352941185, 0.0166666675
   5823,  0.314285725, -0.294117659, 0.0166666675
   5824,  0.314285725, -0.235294119, 0.0166666675
   5825,  0.314285725, -0.176470593, 0.0166666675
   5826,  0.314285725, -0.117647059, 0.0166666675
   5827,  0.314285725, -0.0588235296, 0.0166666675
   5828,  0.314285725,           0., 0.0166666675
   5829,  0.314285725, 0.0588235296, 0.0166666675
   5830,  0.314285725,  0.117647059, 0.0166666675
   5831,  0.314285725,  0.176470593, 0.0166666675
   5832,  0.314285725,  0.235294119, 0.0166666675
   5833,  0.314285725,  0.294117659, 0.0166666675
   5834,  0.314285725,  0.352941185, 0.0166666675
   5835,  0.314285725,  0.411764711, 0.0166666675
   5836,  0.314285725,  0.470588237, 0.0166666675
   5837,  0.314285725,  0.529411793, 0.0166666675
   5838,  0.314285725,  0.588235319, 0.0166666675
   5839,  0.314285725,  0.647058845, 0.0166666675
   5840,  0.314285725,   0.70588237, 0.0166666675
   5841,  0.314285725,  0.764705896, 0.0166666675
   5842,  0.314285725,  0.823529422, 0.0166666675
   5843,  0.314285725,  0.882352948, 0.0166666675
   5844,  0.314285725,  0.941176474, 0.0166666675
   5845,  0.314285725,           1., 0.0166666675
   5846,  0.314285725,          -1.,           0.
   5847,  0.314285725, -0.941176474,           0.
   5848,  0.314285725, -0.882352948,           0.
   5849,  0.314285725, -0.823529422,           0.
   5850,  0.314285725, -0.764705896,           0.
   5851,  0.314285725,  -0.70588237,           0.
   5852,  0.314285725, -0.647058845,           0.
   5853,  0.314285725, -0.588235319,           0.
   5854,  0.314285725, -0.529411793,           0.
   5855,  0.314285725, -0.470588237,           0.
   5856,  0.314285725, -0.411764711,           0.
   5857,  0.314285725, -0.352941185,           0.
   5858,  0.314285725, -0.294117659,           0.
   5859,  0.314285725, -0.235294119,           0.
   5860,  0.314285725, -0.176470593,           0.
   5861,  0.314285725, -0.117647059,           0.
   5862,  0.314285725, -0.0588235296,           0.
   5863,  0.314285725,           0.,           0.
   5864,  0.314285725, 0.0588235296,           0.
   5865,  0.314285725,  0.117647059,           0.
   5866,  0.314285725,  0.176470593,           0.
   5867,  0.314285725,  0.235294119,           0.
   5868,  0.314285725,  0.294117659,           0.
   5869,  0.314285725,  0.352941185,           0.
   5870,  0.314285725,  0.411764711,           0.
   5871,  0.314285725,  0.470588237,           0.
   5872,  0.314285725,  0.529411793,           0.
   5873,  0.314285725,  0.588235319,           0.
   5874,  0.314285725,  0.647058845,           0.
   5875,  0.314285725,   0.70588237,           0.
   5876,  0.314285725,  0.764705896,           0.
   5877,  0.314285725,  0.823529422,           0.
   5878,  0.314285725,  0.882352948,           0.
   5879,  0.314285725,  0.941176474,           0.
   5880,  0.314285725,           1.,           0.
   5881,  0.371428579,          -1.,  0.100000001
   5882,  0.371428579, -0.941176474,  0.100000001
   5883,  0.371428579, -0.882352948,  0.100000001
   5884,  0.371428579, -0.823529422,  0.100000001
   5885,  0.371428579, -0.764705896,  0.100000001
   5886,  0.371428579,  -0.70588237,  0.100000001
   5887,  0.371428579, -0.647058845,  0.100000001
   5888,  0.371428579, -0.588235319,  0.100000001
   5889,  0.371428579, -0.529411793,  0.100000001
   5890,  0.371428579, -0.470588237,  0.100000001
   5891,  0.371428579, -0.411764711,  0.100000001
   5892,  0.371428579, -0.352941185,  0.100000001
   5893,  0.371428579, -0.294117659,  0.100000001
   5894,  0.371428579, -0.235294119,  0.100000001
   5895,  0.371428579, -0.176470593,  0.100000001
   5896,  0.371428579, -0.117647059,  0.100000001
   5897,  0.371428579, -0.0588235296,  0.100000001
   5898,  0.371428579,           0.,  0.100000001
   5899,  0.371428579, 0.0588235296,  0.100000001
   5900,  0.371428579,  0.117647059,  0.100000001
   5901,  0.371428579,  0.176470593,  0.100000001
   5902,  0.371428579,  0.235294119,  0.100000001
   5903,  0.371428579,  0.294117659,  0.100000001
   5904,  0.371428579,  0.352941185,  0.100000001
   5905,  0.371428579,  0.411764711,  0.100000001
   5906,  0.371428579,  0.470588237,  0.100000001
   5907,  0.371428579,  0.529411793,  0.100000001
   5908,  0.371428579,  0.588235319,  0.100000001
   5909,  0.371428579,  0.647058845,  0.100000001
   5910,  0.371428579,   0.70588237,  0.100000001
   5911,  0.371428579,  0.764705896,  0.100000001
   5912,  0.371428579,  0.823529422,  0.100000001
   5913,  0.371428579,  0.882352948,  0.100000001
   5914,  0.371428579,  0.941176474,  0.100000001
   5915,  0.371428579,           1.,  0.100000001
   5916,  0.371428579,          -1., 0.0833333358
   5917,  0.371428579, -0.941176474, 0.0833333358
   5918,  0.371428579, -0.882352948, 0.0833333358
   5919,  0.371428579, -0.823529422, 0.0833333358
   5920,  0.371428579, -0.764705896, 0.0833333358
   5921,  0.371428579,  -0.70588237, 0.0833333358
   5922,  0.371428579, -0.647058845, 0.0833333358
   5923,  0.371428579, -0.588235319, 0.0833333358
   5924,  0.371428579, -0.529411793, 0.0833333358
   5925,  0.371428579, -0.470588237, 0.0833333358
   5926,  0.371428579, -0.411764711, 0.0833333358
   5927,  0.371428579, -0.352941185, 0.0833333358
   5928,  0.371428579, -0.294117659, 0.0833333358
   5929,  0.371428579, -0.235294119, 0.0833333358
   5930,  0.371428579, -0.176470593, 0.0833333358
   5931,  0.371428579, -0.117647059, 0.0833333358
   5932,  0.371428579, -0.0588235296, 0.0833333358
   5933,  0.371428579,           0., 0.0833333358
   5934,  0.371428579, 0.0588235296, 0.0833333358
   5935,  0.371428579,  0.117647059, 0.0833333358
   5936,  0.371428579,  0.176470593, 0.0833333358
   5937,  0.371428579,  0.235294119, 0.0833333358
   5938,  0.371428579,  0.294117659, 0.0833333358
   5939,  0.371428579,  0.352941185, 0.0833333358
   5940,  0.371428579,  0.411764711, 0.0833333358
   5941,  0.371428579,  0.470588237, 0.0833333358
   5942,  0.371428579,  0.529411793, 0.0833333358
   5943,  0.371428579,  0.588235319, 0.0833333358
   5944,  0.371428579,  0.647058845, 0.0833333358
   5945,  0.371428579,   0.70588237, 0.0833333358
   5946,  0.371428579,  0.764705896, 0.0833333358
   5947,  0.371428579,  0.823529422, 0.0833333358
   5948,  0.371428579,  0.882352948, 0.0833333358
   5949,  0.371428579,  0.941176474, 0.0833333358
   5950,  0.371428579,           1., 0.0833333358
   5951,  0.371428579,          -1., 0.0666666701
   5952,  0.371428579, -0.941176474, 0.0666666701
   5953,  0.371428579, -0.882352948, 0.0666666701
   5954,  0.371428579, -0.823529422, 0.0666666701
   5955,  0.371428579, -0.764705896, 0.0666666701
   5956,  0.371428579,  -0.70588237, 0.0666666701
   5957,  0.371428579, -0.647058845, 0.0666666701
   5958,  0.371428579, -0.588235319, 0.0666666701
   5959,  0.371428579, -0.529411793, 0.0666666701
   5960,  0.371428579, -0.470588237, 0.0666666701
   5961,  0.371428579, -0.411764711, 0.0666666701
   5962,  0.371428579, -0.352941185, 0.0666666701
   5963,  0.371428579, -0.294117659, 0.0666666701
   5964,  0.371428579, -0.235294119, 0.0666666701
   5965,  0.371428579, -0.176470593, 0.0666666701
   5966,  0.371428579, -0.117647059, 0.0666666701
   5967,  0.371428579, -0.0588235296, 0.0666666701
   5968,  0.371428579,           0., 0.0666666701
   5969,  0.371428579, 0.0588235296, 0.0666666701
   5970,  0.371428579,  0.117647059, 0.0666666701
   5971,  0.371428579,  0.176470593, 0.0666666701
   5972,  0.371428579,  0.235294119, 0.0666666701
   5973,  0.371428579,  0.294117659, 0.0666666701
   5974,  0.371428579,  0.352941185, 0.0666666701
   5975,  0.371428579,  0.411764711, 0.0666666701
   5976,  0.371428579,  0.470588237, 0.0666666701
   5977,  0.371428579,  0.529411793, 0.0666666701
   5978,  0.371428579,  0.588235319, 0.0666666701
   5979,  0.371428579,  0.647058845, 0.0666666701
   5980,  0.371428579,   0.70588237, 0.0666666701
   5981,  0.371428579,  0.764705896, 0.0666666701
   5982,  0.371428579,  0.823529422, 0.0666666701
   5983,  0.371428579,  0.882352948, 0.0666666701
   5984,  0.371428579,  0.941176474, 0.0666666701
   5985,  0.371428579,           1., 0.0666666701
   5986,  0.371428579,          -1., 0.0500000007
   5987,  0.371428579, -0.941176474, 0.0500000007
   5988,  0.371428579, -0.882352948, 0.0500000007
   5989,  0.371428579, -0.823529422, 0.0500000007
   5990,  0.371428579, -0.764705896, 0.0500000007
   5991,  0.371428579,  -0.70588237, 0.0500000007
   5992,  0.371428579, -0.647058845, 0.0500000007
   5993,  0.371428579, -0.588235319, 0.0500000007
   5994,  0.371428579, -0.529411793, 0.0500000007
   5995,  0.371428579, -0.470588237, 0.0500000007
   5996,  0.371428579, -0.411764711, 0.0500000007
   5997,  0.371428579, -0.352941185, 0.0500000007
   5998,  0.371428579, -0.294117659, 0.0500000007
   5999,  0.371428579, -0.235294119, 0.0500000007
   6000,  0.371428579, -0.176470593, 0.0500000007
   6001,  0.371428579, -0.117647059, 0.0500000007
   6002,  0.371428579, -0.0588235296, 0.0500000007
   6003,  0.371428579,           0., 0.0500000007
   6004,  0.371428579, 0.0588235296, 0.0500000007
   6005,  0.371428579,  0.117647059, 0.0500000007
   6006,  0.371428579,  0.176470593, 0.0500000007
   6007,  0.371428579,  0.235294119, 0.0500000007
   6008,  0.371428579,  0.294117659, 0.0500000007
   6009,  0.371428579,  0.352941185, 0.0500000007
   6010,  0.371428579,  0.411764711, 0.0500000007
   6011,  0.371428579,  0.470588237, 0.0500000007
   6012,  0.371428579,  0.529411793, 0.0500000007
   6013,  0.371428579,  0.588235319, 0.0500000007
   6014,  0.371428579,  0.647058845, 0.0500000007
   6015,  0.371428579,   0.70588237, 0.0500000007
   6016,  0.371428579,  0.764705896, 0.0500000007
   6017,  0.371428579,  0.823529422, 0.0500000007
   6018,  0.371428579,  0.882352948, 0.0500000007
   6019,  0.371428579,  0.941176474, 0.0500000007
   6020,  0.371428579,           1., 0.0500000007
   6021,  0.371428579,          -1., 0.0333333351
   6022,  0.371428579, -0.941176474, 0.0333333351
   6023,  0.371428579, -0.882352948, 0.0333333351
   6024,  0.371428579, -0.823529422, 0.0333333351
   6025,  0.371428579, -0.764705896, 0.0333333351
   6026,  0.371428579,  -0.70588237, 0.0333333351
   6027,  0.371428579, -0.647058845, 0.0333333351
   6028,  0.371428579, -0.588235319, 0.0333333351
   6029,  0.371428579, -0.529411793, 0.0333333351
   6030,  0.371428579, -0.470588237, 0.0333333351
   6031,  0.371428579, -0.411764711, 0.0333333351
   6032,  0.371428579, -0.352941185, 0.0333333351
   6033,  0.371428579, -0.294117659, 0.0333333351
   6034,  0.371428579, -0.235294119, 0.0333333351
   6035,  0.371428579, -0.176470593, 0.0333333351
   6036,  0.371428579, -0.117647059, 0.0333333351
   6037,  0.371428579, -0.0588235296, 0.0333333351
   6038,  0.371428579,           0., 0.0333333351
   6039,  0.371428579, 0.0588235296, 0.0333333351
   6040,  0.371428579,  0.117647059, 0.0333333351
   6041,  0.371428579,  0.176470593, 0.0333333351
   6042,  0.371428579,  0.235294119, 0.0333333351
   6043,  0.371428579,  0.294117659, 0.0333333351
   6044,  0.371428579,  0.352941185, 0.0333333351
   6045,  0.371428579,  0.411764711, 0.0333333351
   6046,  0.371428579,  0.470588237, 0.0333333351
   6047,  0.371428579,  0.529411793, 0.0333333351
   6048,  0.371428579,  0.588235319, 0.0333333351
   6049,  0.371428579,  0.647058845, 0.0333333351
   6050,  0.371428579,   0.70588237, 0.0333333351
   6051,  0.371428579,  0.764705896, 0.0333333351
   6052,  0.371428579,  0.823529422, 0.0333333351
   6053,  0.371428579,  0.882352948, 0.0333333351
   6054,  0.371428579,  0.941176474, 0.0333333351
   6055,  0.371428579,           1., 0.0333333351
   6056,  0.371428579,          -1., 0.0166666675
   6057,  0.371428579, -0.941176474, 0.0166666675
   6058,  0.371428579, -0.882352948, 0.0166666675
   6059,  0.371428579, -0.823529422, 0.0166666675
   6060,  0.371428579, -0.764705896, 0.0166666675
   6061,  0.371428579,  -0.70588237, 0.0166666675
   6062,  0.371428579, -0.647058845, 0.0166666675
   6063,  0.371428579, -0.588235319, 0.0166666675
   6064,  0.371428579, -0.529411793, 0.0166666675
   6065,  0.371428579, -0.470588237, 0.0166666675
   6066,  0.371428579, -0.411764711, 0.0166666675
   6067,  0.371428579, -0.352941185, 0.0166666675
   6068,  0.371428579, -0.294117659, 0.0166666675
   6069,  0.371428579, -0.235294119, 0.0166666675
   6070,  0.371428579, -0.176470593, 0.0166666675
   6071,  0.371428579, -0.117647059, 0.0166666675
   6072,  0.371428579, -0.0588235296, 0.0166666675
   6073,  0.371428579,           0., 0.0166666675
   6074,  0.371428579, 0.0588235296, 0.0166666675
   6075,  0.371428579,  0.117647059, 0.0166666675
   6076,  0.371428579,  0.176470593, 0.0166666675
   6077,  0.371428579,  0.235294119, 0.0166666675
   6078,  0.371428579,  0.294117659, 0.0166666675
   6079,  0.371428579,  0.352941185, 0.0166666675
   6080,  0.371428579,  0.411764711, 0.0166666675
   6081,  0.371428579,  0.470588237, 0.0166666675
   6082,  0.371428579,  0.529411793, 0.0166666675
   6083,  0.371428579,  0.588235319, 0.0166666675
   6084,  0.371428579,  0.647058845, 0.0166666675
   6085,  0.371428579,   0.70588237, 0.0166666675
   6086,  0.371428579,  0.764705896, 0.0166666675
   6087,  0.371428579,  0.823529422, 0.0166666675
   6088,  0.371428579,  0.882352948, 0.0166666675
   6089,  0.371428579,  0.941176474, 0.0166666675
   6090,  0.371428579,           1., 0.0166666675
   6091,  0.371428579,          -1.,           0.
   6092,  0.371428579, -0.941176474,           0.
   6093,  0.371428579, -0.882352948,           0.
   6094,  0.371428579, -0.823529422,           0.
   6095,  0.371428579, -0.764705896,           0.
   6096,  0.371428579,  -0.70588237,           0.
   6097,  0.371428579, -0.647058845,           0.
   6098,  0.371428579, -0.588235319,           0.
   6099,  0.371428579, -0.529411793,           0.
   6100,  0.371428579, -0.470588237,           0.
   6101,  0.371428579, -0.411764711,           0.
   6102,  0.371428579, -0.352941185,           0.
   6103,  0.371428579, -0.294117659,           0.
   6104,  0.371428579, -0.235294119,           0.
   6105,  0.371428579, -0.176470593,           0.
   6106,  0.371428579, -0.117647059,           0.
   6107,  0.371428579, -0.0588235296,           0.
   6108,  0.371428579,           0.,           0.
   6109,  0.371428579, 0.0588235296,           0.
   6110,  0.371428579,  0.117647059,           0.
   6111,  0.371428579,  0.176470593,           0.
   6112,  0.371428579,  0.235294119,           0.
   6113,  0.371428579,  0.294117659,           0.
   6114,  0.371428579,  0.352941185,           0.
   6115,  0.371428579,  0.411764711,           0.
   6116,  0.371428579,  0.470588237,           0.
   6117,  0.371428579,  0.529411793,           0.
   6118,  0.371428579,  0.588235319,           0.
   6119,  0.371428579,  0.647058845,           0.
   6120,  0.371428579,   0.70588237,           0.
   6121,  0.371428579,  0.764705896,           0.
   6122,  0.371428579,  0.823529422,           0.
   6123,  0.371428579,  0.882352948,           0.
   6124,  0.371428579,  0.941176474,           0.
   6125,  0.371428579,           1.,           0.
   6126,  0.428571433,          -1.,  0.100000001
   6127,  0.428571433, -0.941176474,  0.100000001
   6128,  0.428571433, -0.882352948,  0.100000001
   6129,  0.428571433, -0.823529422,  0.100000001
   6130,  0.428571433, -0.764705896,  0.100000001
   6131,  0.428571433,  -0.70588237,  0.100000001
   6132,  0.428571433, -0.647058845,  0.100000001
   6133,  0.428571433, -0.588235319,  0.100000001
   6134,  0.428571433, -0.529411793,  0.100000001
   6135,  0.428571433, -0.470588237,  0.100000001
   6136,  0.428571433, -0.411764711,  0.100000001
   6137,  0.428571433, -0.352941185,  0.100000001
   6138,  0.428571433, -0.294117659,  0.100000001
   6139,  0.428571433, -0.235294119,  0.100000001
   6140,  0.428571433, -0.176470593,  0.100000001
   6141,  0.428571433, -0.117647059,  0.100000001
   6142,  0.428571433, -0.0588235296,  0.100000001
   6143,  0.428571433,           0.,  0.100000001
   6144,  0.428571433, 0.0588235296,  0.100000001
   6145,  0.428571433,  0.117647059,  0.100000001
   6146,  0.428571433,  0.176470593,  0.100000001
   6147,  0.428571433,  0.235294119,  0.100000001
   6148,  0.428571433,  0.294117659,  0.100000001
   6149,  0.428571433,  0.352941185,  0.100000001
   6150,  0.428571433,  0.411764711,  0.100000001
   6151,  0.428571433,  0.470588237,  0.100000001
   6152,  0.428571433,  0.529411793,  0.100000001
   6153,  0.428571433,  0.588235319,  0.100000001
   6154,  0.428571433,  0.647058845,  0.100000001
   6155,  0.428571433,   0.70588237,  0.100000001
   6156,  0.428571433,  0.764705896,  0.100000001
   6157,  0.428571433,  0.823529422,  0.100000001
   6158,  0.428571433,  0.882352948,  0.100000001
   6159,  0.428571433,  0.941176474,  0.100000001
   6160,  0.428571433,           1.,  0.100000001
   6161,  0.428571433,          -1., 0.0833333358
   6162,  0.428571433, -0.941176474, 0.0833333358
   6163,  0.428571433, -0.882352948, 0.0833333358
   6164,  0.428571433, -0.823529422, 0.0833333358
   6165,  0.428571433, -0.764705896, 0.0833333358
   6166,  0.428571433,  -0.70588237, 0.0833333358
   6167,  0.428571433, -0.647058845, 0.0833333358
   6168,  0.428571433, -0.588235319, 0.0833333358
   6169,  0.428571433, -0.529411793, 0.0833333358
   6170,  0.428571433, -0.470588237, 0.0833333358
   6171,  0.428571433, -0.411764711, 0.0833333358
   6172,  0.428571433, -0.352941185, 0.0833333358
   6173,  0.428571433, -0.294117659, 0.0833333358
   6174,  0.428571433, -0.235294119, 0.0833333358
   6175,  0.428571433, -0.176470593, 0.0833333358
   6176,  0.428571433, -0.117647059, 0.0833333358
   6177,  0.428571433, -0.0588235296, 0.0833333358
   6178,  0.428571433,           0., 0.0833333358
   6179,  0.428571433, 0.0588235296, 0.0833333358
   6180,  0.428571433,  0.117647059, 0.0833333358
   6181,  0.428571433,  0.176470593, 0.0833333358
   6182,  0.428571433,  0.235294119, 0.0833333358
   6183,  0.428571433,  0.294117659, 0.0833333358
   6184,  0.428571433,  0.352941185, 0.0833333358
   6185,  0.428571433,  0.411764711, 0.0833333358
   6186,  0.428571433,  0.470588237, 0.0833333358
   6187,  0.428571433,  0.529411793, 0.0833333358
   6188,  0.428571433,  0.588235319, 0.0833333358
   6189,  0.428571433,  0.647058845, 0.0833333358
   6190,  0.428571433,   0.70588237, 0.0833333358
   6191,  0.428571433,  0.764705896, 0.0833333358
   6192,  0.428571433,  0.823529422, 0.0833333358
   6193,  0.428571433,  0.882352948, 0.0833333358
   6194,  0.428571433,  0.941176474, 0.0833333358
   6195,  0.428571433,           1., 0.0833333358
   6196,  0.428571433,          -1., 0.0666666701
   6197,  0.428571433, -0.941176474, 0.0666666701
   6198,  0.428571433, -0.882352948, 0.0666666701
   6199,  0.428571433, -0.823529422, 0.0666666701
   6200,  0.428571433, -0.764705896, 0.0666666701
   6201,  0.428571433,  -0.70588237, 0.0666666701
   6202,  0.428571433, -0.647058845, 0.0666666701
   6203,  0.428571433, -0.588235319, 0.0666666701
   6204,  0.428571433, -0.529411793, 0.0666666701
   6205,  0.428571433, -0.470588237, 0.0666666701
   6206,  0.428571433, -0.411764711, 0.0666666701
   6207,  0.428571433, -0.352941185, 0.0666666701
   6208,  0.428571433, -0.294117659, 0.0666666701
   6209,  0.428571433, -0.235294119, 0.0666666701
   6210,  0.428571433, -0.176470593, 0.0666666701
   6211,  0.428571433, -0.117647059, 0.0666666701
   6212,  0.428571433, -0.0588235296, 0.0666666701
   6213,  0.428571433,           0., 0.0666666701
   6214,  0.428571433, 0.0588235296, 0.0666666701
   6215,  0.428571433,  0.117647059, 0.0666666701
   6216,  0.428571433,  0.176470593, 0.0666666701
   6217,  0.428571433,  0.235294119, 0.0666666701
   6218,  0.428571433,  0.294117659, 0.0666666701
   6219,  0.428571433,  0.352941185, 0.0666666701
   6220,  0.428571433,  0.411764711, 0.0666666701
   6221,  0.428571433,  0.470588237, 0.0666666701
   6222,  0.428571433,  0.529411793, 0.0666666701
   6223,  0.428571433,  0.588235319, 0.0666666701
   6224,  0.428571433,  0.647058845, 0.0666666701
   6225,  0.428571433,   0.70588237, 0.0666666701
   6226,  0.428571433,  0.764705896, 0.0666666701
   6227,  0.428571433,  0.823529422, 0.0666666701
   6228,  0.428571433,  0.882352948, 0.0666666701
   6229,  0.428571433,  0.941176474, 0.0666666701
   6230,  0.428571433,           1., 0.0666666701
   6231,  0.428571433,          -1., 0.0500000007
   6232,  0.428571433, -0.941176474, 0.0500000007
   6233,  0.428571433, -0.882352948, 0.0500000007
   6234,  0.428571433, -0.823529422, 0.0500000007
   6235,  0.428571433, -0.764705896, 0.0500000007
   6236,  0.428571433,  -0.70588237, 0.0500000007
   6237,  0.428571433, -0.647058845, 0.0500000007
   6238,  0.428571433, -0.588235319, 0.0500000007
   6239,  0.428571433, -0.529411793, 0.0500000007
   6240,  0.428571433, -0.470588237, 0.0500000007
   6241,  0.428571433, -0.411764711, 0.0500000007
   6242,  0.428571433, -0.352941185, 0.0500000007
   6243,  0.428571433, -0.294117659, 0.0500000007
   6244,  0.428571433, -0.235294119, 0.0500000007
   6245,  0.428571433, -0.176470593, 0.0500000007
   6246,  0.428571433, -0.117647059, 0.0500000007
   6247,  0.428571433, -0.0588235296, 0.0500000007
   6248,  0.428571433,           0., 0.0500000007
   6249,  0.428571433, 0.0588235296, 0.0500000007
   6250,  0.428571433,  0.117647059, 0.0500000007
   6251,  0.428571433,  0.176470593, 0.0500000007
   6252,  0.428571433,  0.235294119, 0.0500000007
   6253,  0.428571433,  0.294117659, 0.0500000007
   6254,  0.428571433,  0.352941185, 0.0500000007
   6255,  0.428571433,  0.411764711, 0.0500000007
   6256,  0.428571433,  0.470588237, 0.0500000007
   6257,  0.428571433,  0.529411793, 0.0500000007
   6258,  0.428571433,  0.588235319, 0.0500000007
   6259,  0.428571433,  0.647058845, 0.0500000007
   6260,  0.428571433,   0.70588237, 0.0500000007
   6261,  0.428571433,  0.764705896, 0.0500000007
   6262,  0.428571433,  0.823529422, 0.0500000007
   6263,  0.428571433,  0.882352948, 0.0500000007
   6264,  0.428571433,  0.941176474, 0.0500000007
   6265,  0.428571433,           1., 0.0500000007
   6266,  0.428571433,          -1., 0.0333333351
   6267,  0.428571433, -0.941176474, 0.0333333351
   6268,  0.428571433, -0.882352948, 0.0333333351
   6269,  0.428571433, -0.823529422, 0.0333333351
   6270,  0.428571433, -0.764705896, 0.0333333351
   6271,  0.428571433,  -0.70588237, 0.0333333351
   6272,  0.428571433, -0.647058845, 0.0333333351
   6273,  0.428571433, -0.588235319, 0.0333333351
   6274,  0.428571433, -0.529411793, 0.0333333351
   6275,  0.428571433, -0.470588237, 0.0333333351
   6276,  0.428571433, -0.411764711, 0.0333333351
   6277,  0.428571433, -0.352941185, 0.0333333351
   6278,  0.428571433, -0.294117659, 0.0333333351
   6279,  0.428571433, -0.235294119, 0.0333333351
   6280,  0.428571433, -0.176470593, 0.0333333351
   6281,  0.428571433, -0.117647059, 0.0333333351
   6282,  0.428571433, -0.0588235296, 0.0333333351
   6283,  0.428571433,           0., 0.0333333351
   6284,  0.428571433, 0.0588235296, 0.0333333351
   6285,  0.428571433,  0.117647059, 0.0333333351
   6286,  0.428571433,  0.176470593, 0.0333333351
   6287,  0.428571433,  0.235294119, 0.0333333351
   6288,  0.428571433,  0.294117659, 0.0333333351
   6289,  0.428571433,  0.352941185, 0.0333333351
   6290,  0.428571433,  0.411764711, 0.0333333351
   6291,  0.428571433,  0.470588237, 0.0333333351
   6292,  0.428571433,  0.529411793, 0.0333333351
   6293,  0.428571433,  0.588235319, 0.0333333351
   6294,  0.428571433,  0.647058845, 0.0333333351
   6295,  0.428571433,   0.70588237, 0.0333333351
   6296,  0.428571433,  0.764705896, 0.0333333351
   6297,  0.428571433,  0.823529422, 0.0333333351
   6298,  0.428571433,  0.882352948, 0.0333333351
   6299,  0.428571433,  0.941176474, 0.0333333351
   6300,  0.428571433,           1., 0.0333333351
   6301,  0.428571433,          -1., 0.0166666675
   6302,  0.428571433, -0.941176474, 0.0166666675
   6303,  0.428571433, -0.882352948, 0.0166666675
   6304,  0.428571433, -0.823529422, 0.0166666675
   6305,  0.428571433, -0.764705896, 0.0166666675
   6306,  0.428571433,  -0.70588237, 0.0166666675
   6307,  0.428571433, -0.647058845, 0.0166666675
   6308,  0.428571433, -0.588235319, 0.0166666675
   6309,  0.428571433, -0.529411793, 0.0166666675
   6310,  0.428571433, -0.470588237, 0.0166666675
   6311,  0.428571433, -0.411764711, 0.0166666675
   6312,  0.428571433, -0.352941185, 0.0166666675
   6313,  0.428571433, -0.294117659, 0.0166666675
   6314,  0.428571433, -0.235294119, 0.0166666675
   6315,  0.428571433, -0.176470593, 0.0166666675
   6316,  0.428571433, -0.117647059, 0.0166666675
   6317,  0.428571433, -0.0588235296, 0.0166666675
   6318,  0.428571433,           0., 0.0166666675
   6319,  0.428571433, 0.0588235296, 0.0166666675
   6320,  0.428571433,  0.117647059, 0.0166666675
   6321,  0.428571433,  0.176470593, 0.0166666675
   6322,  0.428571433,  0.235294119, 0.0166666675
   6323,  0.428571433,  0.294117659, 0.0166666675
   6324,  0.428571433,  0.352941185, 0.0166666675
   6325,  0.428571433,  0.411764711, 0.0166666675
   6326,  0.428571433,  0.470588237, 0.0166666675
   6327,  0.428571433,  0.529411793, 0.0166666675
   6328,  0.428571433,  0.588235319, 0.0166666675
   6329,  0.428571433,  0.647058845, 0.0166666675
   6330,  0.428571433,   0.70588237, 0.0166666675
   6331,  0.428571433,  0.764705896, 0.0166666675
   6332,  0.428571433,  0.823529422, 0.0166666675
   6333,  0.428571433,  0.882352948, 0.0166666675
   6334,  0.428571433,  0.941176474, 0.0166666675
   6335,  0.428571433,           1., 0.0166666675
   6336,  0.428571433,          -1.,           0.
   6337,  0.428571433, -0.941176474,           0.
   6338,  0.428571433, -0.882352948,           0.
   6339,  0.428571433, -0.823529422,           0.
   6340,  0.428571433, -0.764705896,           0.
   6341,  0.428571433,  -0.70588237,           0.
   6342,  0.428571433, -0.647058845,           0.
   6343,  0.428571433, -0.588235319,           0.
   6344,  0.428571433, -0.529411793,           0.
   6345,  0.428571433, -0.470588237,           0.
   6346,  0.428571433, -0.411764711,           0.
   6347,  0.428571433, -0.352941185,           0.
   6348,  0.428571433, -0.294117659,           0.
   6349,  0.428571433, -0.235294119,           0.
   6350,  0.428571433, -0.176470593,           0.
   6351,  0.428571433, -0.117647059,           0.
   6352,  0.428571433, -0.0588235296,           0.
   6353,  0.428571433,           0.,           0.
   6354,  0.428571433, 0.0588235296,           0.
   6355,  0.428571433,  0.117647059,           0.
   6356,  0.428571433,  0.176470593,           0.
   6357,  0.428571433,  0.235294119,           0.
   6358,  0.428571433,  0.294117659,           0.
   6359,  0.428571433,  0.352941185,           0.
   6360,  0.428571433,  0.411764711,           0.
   6361,  0.428571433,  0.470588237,           0.
   6362,  0.428571433,  0.529411793,           0.
   6363,  0.428571433,  0.588235319,           0.
   6364,  0.428571433,  0.647058845,           0.
   6365,  0.428571433,   0.70588237,           0.
   6366,  0.428571433,  0.764705896,           0.
   6367,  0.428571433,  0.823529422,           0.
   6368,  0.428571433,  0.882352948,           0.
   6369,  0.428571433,  0.941176474,           0.
   6370,  0.428571433,           1.,           0.
   6371,  0.485714287,          -1.,  0.100000001
   6372,  0.485714287, -0.941176474,  0.100000001
   6373,  0.485714287, -0.882352948,  0.100000001
   6374,  0.485714287, -0.823529422,  0.100000001
   6375,  0.485714287, -0.764705896,  0.100000001
   6376,  0.485714287,  -0.70588237,  0.100000001
   6377,  0.485714287, -0.647058845,  0.100000001
   6378,  0.485714287, -0.588235319,  0.100000001
   6379,  0.485714287, -0.529411793,  0.100000001
   6380,  0.485714287, -0.470588237,  0.100000001
   6381,  0.485714287, -0.411764711,  0.100000001
   6382,  0.485714287, -0.352941185,  0.100000001
   6383,  0.485714287, -0.294117659,  0.100000001
   6384,  0.485714287, -0.235294119,  0.100000001
   6385,  0.485714287, -0.176470593,  0.100000001
   6386,  0.485714287, -0.117647059,  0.100000001
   6387,  0.485714287, -0.0588235296,  0.100000001
   6388,  0.485714287,           0.,  0.100000001
   6389,  0.485714287, 0.0588235296,  0.100000001
   6390,  0.485714287,  0.117647059,  0.100000001
   6391,  0.485714287,  0.176470593,  0.100000001
   6392,  0.485714287,  0.235294119,  0.100000001
   6393,  0.485714287,  0.294117659,  0.100000001
   6394,  0.485714287,  0.352941185,  0.100000001
   6395,  0.485714287,  0.411764711,  0.100000001
   6396,  0.485714287,  0.470588237,  0.100000001
   6397,  0.485714287,  0.529411793,  0.100000001
   6398,  0.485714287,  0.588235319,  0.100000001
   6399,  0.485714287,  0.647058845,  0.100000001
   6400,  0.485714287,   0.70588237,  0.100000001
   6401,  0.485714287,  0.764705896,  0.100000001
   6402,  0.485714287,  0.823529422,  0.100000001
   6403,  0.485714287,  0.882352948,  0.100000001
   6404,  0.485714287,  0.941176474,  0.100000001
   6405,  0.485714287,           1.,  0.100000001
   6406,  0.485714287,          -1., 0.0833333358
   6407,  0.485714287, -0.941176474, 0.0833333358
   6408,  0.485714287, -0.882352948, 0.0833333358
   6409,  0.485714287, -0.823529422, 0.0833333358
   6410,  0.485714287, -0.764705896, 0.0833333358
   6411,  0.485714287,  -0.70588237, 0.0833333358
   6412,  0.485714287, -0.647058845, 0.0833333358
   6413,  0.485714287, -0.588235319, 0.0833333358
   6414,  0.485714287, -0.529411793, 0.0833333358
   6415,  0.485714287, -0.470588237, 0.0833333358
   6416,  0.485714287, -0.411764711, 0.0833333358
   6417,  0.485714287, -0.352941185, 0.0833333358
   6418,  0.485714287, -0.294117659, 0.0833333358
   6419,  0.485714287, -0.235294119, 0.0833333358
   6420,  0.485714287, -0.176470593, 0.0833333358
   6421,  0.485714287, -0.117647059, 0.0833333358
   6422,  0.485714287, -0.0588235296, 0.0833333358
   6423,  0.485714287,           0., 0.0833333358
   6424,  0.485714287, 0.0588235296, 0.0833333358
   6425,  0.485714287,  0.117647059, 0.0833333358
   6426,  0.485714287,  0.176470593, 0.0833333358
   6427,  0.485714287,  0.235294119, 0.0833333358
   6428,  0.485714287,  0.294117659, 0.0833333358
   6429,  0.485714287,  0.352941185, 0.0833333358
   6430,  0.485714287,  0.411764711, 0.0833333358
   6431,  0.485714287,  0.470588237, 0.0833333358
   6432,  0.485714287,  0.529411793, 0.0833333358
   6433,  0.485714287,  0.588235319, 0.0833333358
   6434,  0.485714287,  0.647058845, 0.0833333358
   6435,  0.485714287,   0.70588237, 0.0833333358
   6436,  0.485714287,  0.764705896, 0.0833333358
   6437,  0.485714287,  0.823529422, 0.0833333358
   6438,  0.485714287,  0.882352948, 0.0833333358
   6439,  0.485714287,  0.941176474, 0.0833333358
   6440,  0.485714287,           1., 0.0833333358
   6441,  0.485714287,          -1., 0.0666666701
   6442,  0.485714287, -0.941176474, 0.0666666701
   6443,  0.485714287, -0.882352948, 0.0666666701
   6444,  0.485714287, -0.823529422, 0.0666666701
   6445,  0.485714287, -0.764705896, 0.0666666701
   6446,  0.485714287,  -0.70588237, 0.0666666701
   6447,  0.485714287, -0.647058845, 0.0666666701
   6448,  0.485714287, -0.588235319, 0.0666666701
   6449,  0.485714287, -0.529411793, 0.0666666701
   6450,  0.485714287, -0.470588237, 0.0666666701
   6451,  0.485714287, -0.411764711, 0.0666666701
   6452,  0.485714287, -0.352941185, 0.0666666701
   6453,  0.485714287, -0.294117659, 0.0666666701
   6454,  0.485714287, -0.235294119, 0.0666666701
   6455,  0.485714287, -0.176470593, 0.0666666701
   6456,  0.485714287, -0.117647059, 0.0666666701
   6457,  0.485714287, -0.0588235296, 0.0666666701
   6458,  0.485714287,           0., 0.0666666701
   6459,  0.485714287, 0.0588235296, 0.0666666701
   6460,  0.485714287,  0.117647059, 0.0666666701
   6461,  0.485714287,  0.176470593, 0.0666666701
   6462,  0.485714287,  0.235294119, 0.0666666701
   6463,  0.485714287,  0.294117659, 0.0666666701
   6464,  0.485714287,  0.352941185, 0.0666666701
   6465,  0.485714287,  0.411764711, 0.0666666701
   6466,  0.485714287,  0.470588237, 0.0666666701
   6467,  0.485714287,  0.529411793, 0.0666666701
   6468,  0.485714287,  0.588235319, 0.0666666701
   6469,  0.485714287,  0.647058845, 0.0666666701
   6470,  0.485714287,   0.70588237, 0.0666666701
   6471,  0.485714287,  0.764705896, 0.0666666701
   6472,  0.485714287,  0.823529422, 0.0666666701
   6473,  0.485714287,  0.882352948, 0.0666666701
   6474,  0.485714287,  0.941176474, 0.0666666701
   6475,  0.485714287,           1., 0.0666666701
   6476,  0.485714287,          -1., 0.0500000007
   6477,  0.485714287, -0.941176474, 0.0500000007
   6478,  0.485714287, -0.882352948, 0.0500000007
   6479,  0.485714287, -0.823529422, 0.0500000007
   6480,  0.485714287, -0.764705896, 0.0500000007
   6481,  0.485714287,  -0.70588237, 0.0500000007
   6482,  0.485714287, -0.647058845, 0.0500000007
   6483,  0.485714287, -0.588235319, 0.0500000007
   6484,  0.485714287, -0.529411793, 0.0500000007
   6485,  0.485714287, -0.470588237, 0.0500000007
   6486,  0.485714287, -0.411764711, 0.0500000007
   6487,  0.485714287, -0.352941185, 0.0500000007
   6488,  0.485714287, -0.294117659, 0.0500000007
   6489,  0.485714287, -0.235294119, 0.0500000007
   6490,  0.485714287, -0.176470593, 0.0500000007
   6491,  0.485714287, -0.117647059, 0.0500000007
   6492,  0.485714287, -0.0588235296, 0.0500000007
   6493,  0.485714287,           0., 0.0500000007
   6494,  0.485714287, 0.0588235296, 0.0500000007
   6495,  0.485714287,  0.117647059, 0.0500000007
   6496,  0.485714287,  0.176470593, 0.0500000007
   6497,  0.485714287,  0.235294119, 0.0500000007
   6498,  0.485714287,  0.294117659, 0.0500000007
   6499,  0.485714287,  0.352941185, 0.0500000007
   6500,  0.485714287,  0.411764711, 0.0500000007
   6501,  0.485714287,  0.470588237, 0.0500000007
   6502,  0.485714287,  0.529411793, 0.0500000007
   6503,  0.485714287,  0.588235319, 0.0500000007
   6504,  0.485714287,  0.647058845, 0.0500000007
   6505,  0.485714287,   0.70588237, 0.0500000007
   6506,  0.485714287,  0.764705896, 0.0500000007
   6507,  0.485714287,  0.823529422, 0.0500000007
   6508,  0.485714287,  0.882352948, 0.0500000007
   6509,  0.485714287,  0.941176474, 0.0500000007
   6510,  0.485714287,           1., 0.0500000007
   6511,  0.485714287,          -1., 0.0333333351
   6512,  0.485714287, -0.941176474, 0.0333333351
   6513,  0.485714287, -0.882352948, 0.0333333351
   6514,  0.485714287, -0.823529422, 0.0333333351
   6515,  0.485714287, -0.764705896, 0.0333333351
   6516,  0.485714287,  -0.70588237, 0.0333333351
   6517,  0.485714287, -0.647058845, 0.0333333351
   6518,  0.485714287, -0.588235319, 0.0333333351
   6519,  0.485714287, -0.529411793, 0.0333333351
   6520,  0.485714287, -0.470588237, 0.0333333351
   6521,  0.485714287, -0.411764711, 0.0333333351
   6522,  0.485714287, -0.352941185, 0.0333333351
   6523,  0.485714287, -0.294117659, 0.0333333351
   6524,  0.485714287, -0.235294119, 0.0333333351
   6525,  0.485714287, -0.176470593, 0.0333333351
   6526,  0.485714287, -0.117647059, 0.0333333351
   6527,  0.485714287, -0.0588235296, 0.0333333351
   6528,  0.485714287,           0., 0.0333333351
   6529,  0.485714287, 0.0588235296, 0.0333333351
   6530,  0.485714287,  0.117647059, 0.0333333351
   6531,  0.485714287,  0.176470593, 0.0333333351
   6532,  0.485714287,  0.235294119, 0.0333333351
   6533,  0.485714287,  0.294117659, 0.0333333351
   6534,  0.485714287,  0.352941185, 0.0333333351
   6535,  0.485714287,  0.411764711, 0.0333333351
   6536,  0.485714287,  0.470588237, 0.0333333351
   6537,  0.485714287,  0.529411793, 0.0333333351
   6538,  0.485714287,  0.588235319, 0.0333333351
   6539,  0.485714287,  0.647058845, 0.0333333351
   6540,  0.485714287,   0.70588237, 0.0333333351
   6541,  0.485714287,  0.764705896, 0.0333333351
   6542,  0.485714287,  0.823529422, 0.0333333351
   6543,  0.485714287,  0.882352948, 0.0333333351
   6544,  0.485714287,  0.941176474, 0.0333333351
   6545,  0.485714287,           1., 0.0333333351
   6546,  0.485714287,          -1., 0.0166666675
   6547,  0.485714287, -0.941176474, 0.0166666675
   6548,  0.485714287, -0.882352948, 0.0166666675
   6549,  0.485714287, -0.823529422, 0.0166666675
   6550,  0.485714287, -0.764705896, 0.0166666675
   6551,  0.485714287,  -0.70588237, 0.0166666675
   6552,  0.485714287, -0.647058845, 0.0166666675
   6553,  0.485714287, -0.588235319, 0.0166666675
   6554,  0.485714287, -0.529411793, 0.0166666675
   6555,  0.485714287, -0.470588237, 0.0166666675
   6556,  0.485714287, -0.411764711, 0.0166666675
   6557,  0.485714287, -0.352941185, 0.0166666675
   6558,  0.485714287, -0.294117659, 0.0166666675
   6559,  0.485714287, -0.235294119, 0.0166666675
   6560,  0.485714287, -0.176470593, 0.0166666675
   6561,  0.485714287, -0.117647059, 0.0166666675
   6562,  0.485714287, -0.0588235296, 0.0166666675
   6563,  0.485714287,           0., 0.0166666675
   6564,  0.485714287, 0.0588235296, 0.0166666675
   6565,  0.485714287,  0.117647059, 0.0166666675
   6566,  0.485714287,  0.176470593, 0.0166666675
   6567,  0.485714287,  0.235294119, 0.0166666675
   6568,  0.485714287,  0.294117659, 0.0166666675
   6569,  0.485714287,  0.352941185, 0.0166666675
   6570,  0.485714287,  0.411764711, 0.0166666675
   6571,  0.485714287,  0.470588237, 0.0166666675
   6572,  0.485714287,  0.529411793, 0.0166666675
   6573,  0.485714287,  0.588235319, 0.0166666675
   6574,  0.485714287,  0.647058845, 0.0166666675
   6575,  0.485714287,   0.70588237, 0.0166666675
   6576,  0.485714287,  0.764705896, 0.0166666675
   6577,  0.485714287,  0.823529422, 0.0166666675
   6578,  0.485714287,  0.882352948, 0.0166666675
   6579,  0.485714287,  0.941176474, 0.0166666675
   6580,  0.485714287,           1., 0.0166666675
   6581,  0.485714287,          -1.,           0.
   6582,  0.485714287, -0.941176474,           0.
   6583,  0.485714287, -0.882352948,           0.
   6584,  0.485714287, -0.823529422,           0.
   6585,  0.485714287, -0.764705896,           0.
   6586,  0.485714287,  -0.70588237,           0.
   6587,  0.485714287, -0.647058845,           0.
   6588,  0.485714287, -0.588235319,           0.
   6589,  0.485714287, -0.529411793,           0.
   6590,  0.485714287, -0.470588237,           0.
   6591,  0.485714287, -0.411764711,           0.
   6592,  0.485714287, -0.352941185,           0.
   6593,  0.485714287, -0.294117659,           0.
   6594,  0.485714287, -0.235294119,           0.
   6595,  0.485714287, -0.176470593,           0.
   6596,  0.485714287, -0.117647059,           0.
   6597,  0.485714287, -0.0588235296,           0.
   6598,  0.485714287,           0.,           0.
   6599,  0.485714287, 0.0588235296,           0.
   6600,  0.485714287,  0.117647059,           0.
   6601,  0.485714287,  0.176470593,           0.
   6602,  0.485714287,  0.235294119,           0.
   6603,  0.485714287,  0.294117659,           0.
   6604,  0.485714287,  0.352941185,           0.
   6605,  0.485714287,  0.411764711,           0.
   6606,  0.485714287,  0.470588237,           0.
   6607,  0.485714287,  0.529411793,           0.
   6608,  0.485714287,  0.588235319,           0.
   6609,  0.485714287,  0.647058845,           0.
   6610,  0.485714287,   0.70588237,           0.
   6611,  0.485714287,  0.764705896,           0.
   6612,  0.485714287,  0.823529422,           0.
   6613,  0.485714287,  0.882352948,           0.
   6614,  0.485714287,  0.941176474,           0.
   6615,  0.485714287,           1.,           0.
   6616,   0.54285717,          -1.,  0.100000001
   6617,   0.54285717, -0.941176474,  0.100000001
   6618,   0.54285717, -0.882352948,  0.100000001
   6619,   0.54285717, -0.823529422,  0.100000001
   6620,   0.54285717, -0.764705896,  0.100000001
   6621,   0.54285717,  -0.70588237,  0.100000001
   6622,   0.54285717, -0.647058845,  0.100000001
   6623,   0.54285717, -0.588235319,  0.100000001
   6624,   0.54285717, -0.529411793,  0.100000001
   6625,   0.54285717, -0.470588237,  0.100000001
   6626,   0.54285717, -0.411764711,  0.100000001
   6627,   0.54285717, -0.352941185,  0.100000001
   6628,   0.54285717, -0.294117659,  0.100000001
   6629,   0.54285717, -0.235294119,  0.100000001
   6630,   0.54285717, -0.176470593,  0.100000001
   6631,   0.54285717, -0.117647059,  0.100000001
   6632,   0.54285717, -0.0588235296,  0.100000001
   6633,   0.54285717,           0.,  0.100000001
   6634,   0.54285717, 0.0588235296,  0.100000001
   6635,   0.54285717,  0.117647059,  0.100000001
   6636,   0.54285717,  0.176470593,  0.100000001
   6637,   0.54285717,  0.235294119,  0.100000001
   6638,   0.54285717,  0.294117659,  0.100000001
   6639,   0.54285717,  0.352941185,  0.100000001
   6640,   0.54285717,  0.411764711,  0.100000001
   6641,   0.54285717,  0.470588237,  0.100000001
   6642,   0.54285717,  0.529411793,  0.100000001
   6643,   0.54285717,  0.588235319,  0.100000001
   6644,   0.54285717,  0.647058845,  0.100000001
   6645,   0.54285717,   0.70588237,  0.100000001
   6646,   0.54285717,  0.764705896,  0.100000001
   6647,   0.54285717,  0.823529422,  0.100000001
   6648,   0.54285717,  0.882352948,  0.100000001
   6649,   0.54285717,  0.941176474,  0.100000001
   6650,   0.54285717,           1.,  0.100000001
   6651,   0.54285717,          -1., 0.0833333358
   6652,   0.54285717, -0.941176474, 0.0833333358
   6653,   0.54285717, -0.882352948, 0.0833333358
   6654,   0.54285717, -0.823529422, 0.0833333358
   6655,   0.54285717, -0.764705896, 0.0833333358
   6656,   0.54285717,  -0.70588237, 0.0833333358
   6657,   0.54285717, -0.647058845, 0.0833333358
   6658,   0.54285717, -0.588235319, 0.0833333358
   6659,   0.54285717, -0.529411793, 0.0833333358
   6660,   0.54285717, -0.470588237, 0.0833333358
   6661,   0.54285717, -0.411764711, 0.0833333358
   6662,   0.54285717, -0.352941185, 0.0833333358
   6663,   0.54285717, -0.294117659, 0.0833333358
   6664,   0.54285717, -0.235294119, 0.0833333358
   6665,   0.54285717, -0.176470593, 0.0833333358
   6666,   0.54285717, -0.117647059, 0.0833333358
   6667,   0.54285717, -0.0588235296, 0.0833333358
   6668,   0.54285717,           0., 0.0833333358
   6669,   0.54285717, 0.0588235296, 0.0833333358
   6670,   0.54285717,  0.117647059, 0.0833333358
   6671,   0.54285717,  0.176470593, 0.0833333358
   6672,   0.54285717,  0.235294119, 0.0833333358
   6673,   0.54285717,  0.294117659, 0.0833333358
   6674,   0.54285717,  0.352941185, 0.0833333358
   6675,   0.54285717,  0.411764711, 0.0833333358
   6676,   0.54285717,  0.470588237, 0.0833333358
   6677,   0.54285717,  0.529411793, 0.0833333358
   6678,   0.54285717,  0.588235319, 0.0833333358
   6679,   0.54285717,  0.647058845, 0.0833333358
   6680,   0.54285717,   0.70588237, 0.0833333358
   6681,   0.54285717,  0.764705896, 0.0833333358
   6682,   0.54285717,  0.823529422, 0.0833333358
   6683,   0.54285717,  0.882352948, 0.0833333358
   6684,   0.54285717,  0.941176474, 0.0833333358
   6685,   0.54285717,           1., 0.0833333358
   6686,   0.54285717,          -1., 0.0666666701
   6687,   0.54285717, -0.941176474, 0.0666666701
   6688,   0.54285717, -0.882352948, 0.0666666701
   6689,   0.54285717, -0.823529422, 0.0666666701
   6690,   0.54285717, -0.764705896, 0.0666666701
   6691,   0.54285717,  -0.70588237, 0.0666666701
   6692,   0.54285717, -0.647058845, 0.0666666701
   6693,   0.54285717, -0.588235319, 0.0666666701
   6694,   0.54285717, -0.529411793, 0.0666666701
   6695,   0.54285717, -0.470588237, 0.0666666701
   6696,   0.54285717, -0.411764711, 0.0666666701
   6697,   0.54285717, -0.352941185, 0.0666666701
   6698,   0.54285717, -0.294117659, 0.0666666701
   6699,   0.54285717, -0.235294119, 0.0666666701
   6700,   0.54285717, -0.176470593, 0.0666666701
   6701,   0.54285717, -0.117647059, 0.0666666701
   6702,   0.54285717, -0.0588235296, 0.0666666701
   6703,   0.54285717,           0., 0.0666666701
   6704,   0.54285717, 0.0588235296, 0.0666666701
   6705,   0.54285717,  0.117647059, 0.0666666701
   6706,   0.54285717,  0.176470593, 0.0666666701
   6707,   0.54285717,  0.235294119, 0.0666666701
   6708,   0.54285717,  0.294117659, 0.0666666701
   6709,   0.54285717,  0.352941185, 0.0666666701
   6710,   0.54285717,  0.411764711, 0.0666666701
   6711,   0.54285717,  0.470588237, 0.0666666701
   6712,   0.54285717,  0.529411793, 0.0666666701
   6713,   0.54285717,  0.588235319, 0.0666666701
   6714,   0.54285717,  0.647058845, 0.0666666701
   6715,   0.54285717,   0.70588237, 0.0666666701
   6716,   0.54285717,  0.764705896, 0.0666666701
   6717,   0.54285717,  0.823529422, 0.0666666701
   6718,   0.54285717,  0.882352948, 0.0666666701
   6719,   0.54285717,  0.941176474, 0.0666666701
   6720,   0.54285717,           1., 0.0666666701
   6721,   0.54285717,          -1., 0.0500000007
   6722,   0.54285717, -0.941176474, 0.0500000007
   6723,   0.54285717, -0.882352948, 0.0500000007
   6724,   0.54285717, -0.823529422, 0.0500000007
   6725,   0.54285717, -0.764705896, 0.0500000007
   6726,   0.54285717,  -0.70588237, 0.0500000007
   6727,   0.54285717, -0.647058845, 0.0500000007
   6728,   0.54285717, -0.588235319, 0.0500000007
   6729,   0.54285717, -0.529411793, 0.0500000007
   6730,   0.54285717, -0.470588237, 0.0500000007
   6731,   0.54285717, -0.411764711, 0.0500000007
   6732,   0.54285717, -0.352941185, 0.0500000007
   6733,   0.54285717, -0.294117659, 0.0500000007
   6734,   0.54285717, -0.235294119, 0.0500000007
   6735,   0.54285717, -0.176470593, 0.0500000007
   6736,   0.54285717, -0.117647059, 0.0500000007
   6737,   0.54285717, -0.0588235296, 0.0500000007
   6738,   0.54285717,           0., 0.0500000007
   6739,   0.54285717, 0.0588235296, 0.0500000007
   6740,   0.54285717,  0.117647059, 0.0500000007
   6741,   0.54285717,  0.176470593, 0.0500000007
   6742,   0.54285717,  0.235294119, 0.0500000007
   6743,   0.54285717,  0.294117659, 0.0500000007
   6744,   0.54285717,  0.352941185, 0.0500000007
   6745,   0.54285717,  0.411764711, 0.0500000007
   6746,   0.54285717,  0.470588237, 0.0500000007
   6747,   0.54285717,  0.529411793, 0.0500000007
   6748,   0.54285717,  0.588235319, 0.0500000007
   6749,   0.54285717,  0.647058845, 0.0500000007
   6750,   0.54285717,   0.70588237, 0.0500000007
   6751,   0.54285717,  0.764705896, 0.0500000007
   6752,   0.54285717,  0.823529422, 0.0500000007
   6753,   0.54285717,  0.882352948, 0.0500000007
   6754,   0.54285717,  0.941176474, 0.0500000007
   6755,   0.54285717,           1., 0.0500000007
   6756,   0.54285717,          -1., 0.0333333351
   6757,   0.54285717, -0.941176474, 0.0333333351
   6758,   0.54285717, -0.882352948, 0.0333333351
   6759,   0.54285717, -0.823529422, 0.0333333351
   6760,   0.54285717, -0.764705896, 0.0333333351
   6761,   0.54285717,  -0.70588237, 0.0333333351
   6762,   0.54285717, -0.647058845, 0.0333333351
   6763,   0.54285717, -0.588235319, 0.0333333351
   6764,   0.54285717, -0.529411793, 0.0333333351
   6765,   0.54285717, -0.470588237, 0.0333333351
   6766,   0.54285717, -0.411764711, 0.0333333351
   6767,   0.54285717, -0.352941185, 0.0333333351
   6768,   0.54285717, -0.294117659, 0.0333333351
   6769,   0.54285717, -0.235294119, 0.0333333351
   6770,   0.54285717, -0.176470593, 0.0333333351
   6771,   0.54285717, -0.117647059, 0.0333333351
   6772,   0.54285717, -0.0588235296, 0.0333333351
   6773,   0.54285717,           0., 0.0333333351
   6774,   0.54285717, 0.0588235296, 0.0333333351
   6775,   0.54285717,  0.117647059, 0.0333333351
   6776,   0.54285717,  0.176470593, 0.0333333351
   6777,   0.54285717,  0.235294119, 0.0333333351
   6778,   0.54285717,  0.294117659, 0.0333333351
   6779,   0.54285717,  0.352941185, 0.0333333351
   6780,   0.54285717,  0.411764711, 0.0333333351
   6781,   0.54285717,  0.470588237, 0.0333333351
   6782,   0.54285717,  0.529411793, 0.0333333351
   6783,   0.54285717,  0.588235319, 0.0333333351
   6784,   0.54285717,  0.647058845, 0.0333333351
   6785,   0.54285717,   0.70588237, 0.0333333351
   6786,   0.54285717,  0.764705896, 0.0333333351
   6787,   0.54285717,  0.823529422, 0.0333333351
   6788,   0.54285717,  0.882352948, 0.0333333351
   6789,   0.54285717,  0.941176474, 0.0333333351
   6790,   0.54285717,           1., 0.0333333351
   6791,   0.54285717,          -1., 0.0166666675
   6792,   0.54285717, -0.941176474, 0.0166666675
   6793,   0.54285717, -0.882352948, 0.0166666675
   6794,   0.54285717, -0.823529422, 0.0166666675
   6795,   0.54285717, -0.764705896, 0.0166666675
   6796,   0.54285717,  -0.70588237, 0.0166666675
   6797,   0.54285717, -0.647058845, 0.0166666675
   6798,   0.54285717, -0.588235319, 0.0166666675
   6799,   0.54285717, -0.529411793, 0.0166666675
   6800,   0.54285717, -0.470588237, 0.0166666675
   6801,   0.54285717, -0.411764711, 0.0166666675
   6802,   0.54285717, -0.352941185, 0.0166666675
   6803,   0.54285717, -0.294117659, 0.0166666675
   6804,   0.54285717, -0.235294119, 0.0166666675
   6805,   0.54285717, -0.176470593, 0.0166666675
   6806,   0.54285717, -0.117647059, 0.0166666675
   6807,   0.54285717, -0.0588235296, 0.0166666675
   6808,   0.54285717,           0., 0.0166666675
   6809,   0.54285717, 0.0588235296, 0.0166666675
   6810,   0.54285717,  0.117647059, 0.0166666675
   6811,   0.54285717,  0.176470593, 0.0166666675
   6812,   0.54285717,  0.235294119, 0.0166666675
   6813,   0.54285717,  0.294117659, 0.0166666675
   6814,   0.54285717,  0.352941185, 0.0166666675
   6815,   0.54285717,  0.411764711, 0.0166666675
   6816,   0.54285717,  0.470588237, 0.0166666675
   6817,   0.54285717,  0.529411793, 0.0166666675
   6818,   0.54285717,  0.588235319, 0.0166666675
   6819,   0.54285717,  0.647058845, 0.0166666675
   6820,   0.54285717,   0.70588237, 0.0166666675
   6821,   0.54285717,  0.764705896, 0.0166666675
   6822,   0.54285717,  0.823529422, 0.0166666675
   6823,   0.54285717,  0.882352948, 0.0166666675
   6824,   0.54285717,  0.941176474, 0.0166666675
   6825,   0.54285717,           1., 0.0166666675
   6826,   0.54285717,          -1.,           0.
   6827,   0.54285717, -0.941176474,           0.
   6828,   0.54285717, -0.882352948,           0.
   6829,   0.54285717, -0.823529422,           0.
   6830,   0.54285717, -0.764705896,           0.
   6831,   0.54285717,  -0.70588237,           0.
   6832,   0.54285717, -0.647058845,           0.
   6833,   0.54285717, -0.588235319,           0.
   6834,   0.54285717, -0.529411793,           0.
   6835,   0.54285717, -0.470588237,           0.
   6836,   0.54285717, -0.411764711,           0.
   6837,   0.54285717, -0.352941185,           0.
   6838,   0.54285717, -0.294117659,           0.
   6839,   0.54285717, -0.235294119,           0.
   6840,   0.54285717, -0.176470593,           0.
   6841,   0.54285717, -0.117647059,           0.
   6842,   0.54285717, -0.0588235296,           0.
   6843,   0.54285717,           0.,           0.
   6844,   0.54285717, 0.0588235296,           0.
   6845,   0.54285717,  0.117647059,           0.
   6846,   0.54285717,  0.176470593,           0.
   6847,   0.54285717,  0.235294119,           0.
   6848,   0.54285717,  0.294117659,           0.
   6849,   0.54285717,  0.352941185,           0.
   6850,   0.54285717,  0.411764711,           0.
   6851,   0.54285717,  0.470588237,           0.
   6852,   0.54285717,  0.529411793,           0.
   6853,   0.54285717,  0.588235319,           0.
   6854,   0.54285717,  0.647058845,           0.
   6855,   0.54285717,   0.70588237,           0.
   6856,   0.54285717,  0.764705896,           0.
   6857,   0.54285717,  0.823529422,           0.
   6858,   0.54285717,  0.882352948,           0.
   6859,   0.54285717,  0.941176474,           0.
   6860,   0.54285717,           1.,           0.
   6861,  0.600000024,          -1.,  0.100000001
   6862,  0.600000024, -0.941176474,  0.100000001
   6863,  0.600000024, -0.882352948,  0.100000001
   6864,  0.600000024, -0.823529422,  0.100000001
   6865,  0.600000024, -0.764705896,  0.100000001
   6866,  0.600000024,  -0.70588237,  0.100000001
   6867,  0.600000024, -0.647058845,  0.100000001
   6868,  0.600000024, -0.588235319,  0.100000001
   6869,  0.600000024, -0.529411793,  0.100000001
   6870,  0.600000024, -0.470588237,  0.100000001
   6871,  0.600000024, -0.411764711,  0.100000001
   6872,  0.600000024, -0.352941185,  0.100000001
   6873,  0.600000024, -0.294117659,  0.100000001
   6874,  0.600000024, -0.235294119,  0.100000001
   6875,  0.600000024, -0.176470593,  0.100000001
   6876,  0.600000024, -0.117647059,  0.100000001
   6877,  0.600000024, -0.0588235296,  0.100000001
   6878,  0.600000024,           0.,  0.100000001
   6879,  0.600000024, 0.0588235296,  0.100000001
   6880,  0.600000024,  0.117647059,  0.100000001
   6881,  0.600000024,  0.176470593,  0.100000001
   6882,  0.600000024,  0.235294119,  0.100000001
   6883,  0.600000024,  0.294117659,  0.100000001
   6884,  0.600000024,  0.352941185,  0.100000001
   6885,  0.600000024,  0.411764711,  0.100000001
   6886,  0.600000024,  0.470588237,  0.100000001
   6887,  0.600000024,  0.529411793,  0.100000001
   6888,  0.600000024,  0.588235319,  0.100000001
   6889,  0.600000024,  0.647058845,  0.100000001
   6890,  0.600000024,   0.70588237,  0.100000001
   6891,  0.600000024,  0.764705896,  0.100000001
   6892,  0.600000024,  0.823529422,  0.100000001
   6893,  0.600000024,  0.882352948,  0.100000001
   6894,  0.600000024,  0.941176474,  0.100000001
   6895,  0.600000024,           1.,  0.100000001
   6896,  0.600000024,          -1., 0.0833333358
   6897,  0.600000024, -0.941176474, 0.0833333358
   6898,  0.600000024, -0.882352948, 0.0833333358
   6899,  0.600000024, -0.823529422, 0.0833333358
   6900,  0.600000024, -0.764705896, 0.0833333358
   6901,  0.600000024,  -0.70588237, 0.0833333358
   6902,  0.600000024, -0.647058845, 0.0833333358
   6903,  0.600000024, -0.588235319, 0.0833333358
   6904,  0.600000024, -0.529411793, 0.0833333358
   6905,  0.600000024, -0.470588237, 0.0833333358
   6906,  0.600000024, -0.411764711, 0.0833333358
   6907,  0.600000024, -0.352941185, 0.0833333358
   6908,  0.600000024, -0.294117659, 0.0833333358
   6909,  0.600000024, -0.235294119, 0.0833333358
   6910,  0.600000024, -0.176470593, 0.0833333358
   6911,  0.600000024, -0.117647059, 0.0833333358
   6912,  0.600000024, -0.0588235296, 0.0833333358
   6913,  0.600000024,           0., 0.0833333358
   6914,  0.600000024, 0.0588235296, 0.0833333358
   6915,  0.600000024,  0.117647059, 0.0833333358
   6916,  0.600000024,  0.176470593, 0.0833333358
   6917,  0.600000024,  0.235294119, 0.0833333358
   6918,  0.600000024,  0.294117659, 0.0833333358
   6919,  0.600000024,  0.352941185, 0.0833333358
   6920,  0.600000024,  0.411764711, 0.0833333358
   6921,  0.600000024,  0.470588237, 0.0833333358
   6922,  0.600000024,  0.529411793, 0.0833333358
   6923,  0.600000024,  0.588235319, 0.0833333358
   6924,  0.600000024,  0.647058845, 0.0833333358
   6925,  0.600000024,   0.70588237, 0.0833333358
   6926,  0.600000024,  0.764705896, 0.0833333358
   6927,  0.600000024,  0.823529422, 0.0833333358
   6928,  0.600000024,  0.882352948, 0.0833333358
   6929,  0.600000024,  0.941176474, 0.0833333358
   6930,  0.600000024,           1., 0.0833333358
   6931,  0.600000024,          -1., 0.0666666701
   6932,  0.600000024, -0.941176474, 0.0666666701
   6933,  0.600000024, -0.882352948, 0.0666666701
   6934,  0.600000024, -0.823529422, 0.0666666701
   6935,  0.600000024, -0.764705896, 0.0666666701
   6936,  0.600000024,  -0.70588237, 0.0666666701
   6937,  0.600000024, -0.647058845, 0.0666666701
   6938,  0.600000024, -0.588235319, 0.0666666701
   6939,  0.600000024, -0.529411793, 0.0666666701
   6940,  0.600000024, -0.470588237, 0.0666666701
   6941,  0.600000024, -0.411764711, 0.0666666701
   6942,  0.600000024, -0.352941185, 0.0666666701
   6943,  0.600000024, -0.294117659, 0.0666666701
   6944,  0.600000024, -0.235294119, 0.0666666701
   6945,  0.600000024, -0.176470593, 0.0666666701
   6946,  0.600000024, -0.117647059, 0.0666666701
   6947,  0.600000024, -0.0588235296, 0.0666666701
   6948,  0.600000024,           0., 0.0666666701
   6949,  0.600000024, 0.0588235296, 0.0666666701
   6950,  0.600000024,  0.117647059, 0.0666666701
   6951,  0.600000024,  0.176470593, 0.0666666701
   6952,  0.600000024,  0.235294119, 0.0666666701
   6953,  0.600000024,  0.294117659, 0.0666666701
   6954,  0.600000024,  0.352941185, 0.0666666701
   6955,  0.600000024,  0.411764711, 0.0666666701
   6956,  0.600000024,  0.470588237, 0.0666666701
   6957,  0.600000024,  0.529411793, 0.0666666701
   6958,  0.600000024,  0.588235319, 0.0666666701
   6959,  0.600000024,  0.647058845, 0.0666666701
   6960,  0.600000024,   0.70588237, 0.0666666701
   6961,  0.600000024,  0.764705896, 0.0666666701
   6962,  0.600000024,  0.823529422, 0.0666666701
   6963,  0.600000024,  0.882352948, 0.0666666701
   6964,  0.600000024,  0.941176474, 0.0666666701
   6965,  0.600000024,           1., 0.0666666701
   6966,  0.600000024,          -1., 0.0500000007
   6967,  0.600000024, -0.941176474, 0.0500000007
   6968,  0.600000024, -0.882352948, 0.0500000007
   6969,  0.600000024, -0.823529422, 0.0500000007
   6970,  0.600000024, -0.764705896, 0.0500000007
   6971,  0.600000024,  -0.70588237, 0.0500000007
   6972,  0.600000024, -0.647058845, 0.0500000007
   6973,  0.600000024, -0.588235319, 0.0500000007
   6974,  0.600000024, -0.529411793, 0.0500000007
   6975,  0.600000024, -0.470588237, 0.0500000007
   6976,  0.600000024, -0.411764711, 0.0500000007
   6977,  0.600000024, -0.352941185, 0.0500000007
   6978,  0.600000024, -0.294117659, 0.0500000007
   6979,  0.600000024, -0.235294119, 0.0500000007
   6980,  0.600000024, -0.176470593, 0.0500000007
   6981,  0.600000024, -0.117647059, 0.0500000007
   6982,  0.600000024, -0.0588235296, 0.0500000007
   6983,  0.600000024,           0., 0.0500000007
   6984,  0.600000024, 0.0588235296, 0.0500000007
   6985,  0.600000024,  0.117647059, 0.0500000007
   6986,  0.600000024,  0.176470593, 0.0500000007
   6987,  0.600000024,  0.235294119, 0.0500000007
   6988,  0.600000024,  0.294117659, 0.0500000007
   6989,  0.600000024,  0.352941185, 0.0500000007
   6990,  0.600000024,  0.411764711, 0.0500000007
   6991,  0.600000024,  0.470588237, 0.0500000007
   6992,  0.600000024,  0.529411793, 0.0500000007
   6993,  0.600000024,  0.588235319, 0.0500000007
   6994,  0.600000024,  0.647058845, 0.0500000007
   6995,  0.600000024,   0.70588237, 0.0500000007
   6996,  0.600000024,  0.764705896, 0.0500000007
   6997,  0.600000024,  0.823529422, 0.0500000007
   6998,  0.600000024,  0.882352948, 0.0500000007
   6999,  0.600000024,  0.941176474, 0.0500000007
   7000,  0.600000024,           1., 0.0500000007
   7001,  0.600000024,          -1., 0.0333333351
   7002,  0.600000024, -0.941176474, 0.0333333351
   7003,  0.600000024, -0.882352948, 0.0333333351
   7004,  0.600000024, -0.823529422, 0.0333333351
   7005,  0.600000024, -0.764705896, 0.0333333351
   7006,  0.600000024,  -0.70588237, 0.0333333351
   7007,  0.600000024, -0.647058845, 0.0333333351
   7008,  0.600000024, -0.588235319, 0.0333333351
   7009,  0.600000024, -0.529411793, 0.0333333351
   7010,  0.600000024, -0.470588237, 0.0333333351
   7011,  0.600000024, -0.411764711, 0.0333333351
   7012,  0.600000024, -0.352941185, 0.0333333351
   7013,  0.600000024, -0.294117659, 0.0333333351
   7014,  0.600000024, -0.235294119, 0.0333333351
   7015,  0.600000024, -0.176470593, 0.0333333351
   7016,  0.600000024, -0.117647059, 0.0333333351
   7017,  0.600000024, -0.0588235296, 0.0333333351
   7018,  0.600000024,           0., 0.0333333351
   7019,  0.600000024, 0.0588235296, 0.0333333351
   7020,  0.600000024,  0.117647059, 0.0333333351
   7021,  0.600000024,  0.176470593, 0.0333333351
   7022,  0.600000024,  0.235294119, 0.0333333351
   7023,  0.600000024,  0.294117659, 0.0333333351
   7024,  0.600000024,  0.352941185, 0.0333333351
   7025,  0.600000024,  0.411764711, 0.0333333351
   7026,  0.600000024,  0.470588237, 0.0333333351
   7027,  0.600000024,  0.529411793, 0.0333333351
   7028,  0.600000024,  0.588235319, 0.0333333351
   7029,  0.600000024,  0.647058845, 0.0333333351
   7030,  0.600000024,   0.70588237, 0.0333333351
   7031,  0.600000024,  0.764705896, 0.0333333351
   7032,  0.600000024,  0.823529422, 0.0333333351
   7033,  0.600000024,  0.882352948, 0.0333333351
   7034,  0.600000024,  0.941176474, 0.0333333351
   7035,  0.600000024,           1., 0.0333333351
   7036,  0.600000024,          -1., 0.0166666675
   7037,  0.600000024, -0.941176474, 0.0166666675
   7038,  0.600000024, -0.882352948, 0.0166666675
   7039,  0.600000024, -0.823529422, 0.0166666675
   7040,  0.600000024, -0.764705896, 0.0166666675
   7041,  0.600000024,  -0.70588237, 0.0166666675
   7042,  0.600000024, -0.647058845, 0.0166666675
   7043,  0.600000024, -0.588235319, 0.0166666675
   7044,  0.600000024, -0.529411793, 0.0166666675
   7045,  0.600000024, -0.470588237, 0.0166666675
   7046,  0.600000024, -0.411764711, 0.0166666675
   7047,  0.600000024, -0.352941185, 0.0166666675
   7048,  0.600000024, -0.294117659, 0.0166666675
   7049,  0.600000024, -0.235294119, 0.0166666675
   7050,  0.600000024, -0.176470593, 0.0166666675
   7051,  0.600000024, -0.117647059, 0.0166666675
   7052,  0.600000024, -0.0588235296, 0.0166666675
   7053,  0.600000024,           0., 0.0166666675
   7054,  0.600000024, 0.0588235296, 0.0166666675
   7055,  0.600000024,  0.117647059, 0.0166666675
   7056,  0.600000024,  0.176470593, 0.0166666675
   7057,  0.600000024,  0.235294119, 0.0166666675
   7058,  0.600000024,  0.294117659, 0.0166666675
   7059,  0.600000024,  0.352941185, 0.0166666675
   7060,  0.600000024,  0.411764711, 0.0166666675
   7061,  0.600000024,  0.470588237, 0.0166666675
   7062,  0.600000024,  0.529411793, 0.0166666675
   7063,  0.600000024,  0.588235319, 0.0166666675
   7064,  0.600000024,  0.647058845, 0.0166666675
   7065,  0.600000024,   0.70588237, 0.0166666675
   7066,  0.600000024,  0.764705896, 0.0166666675
   7067,  0.600000024,  0.823529422, 0.0166666675
   7068,  0.600000024,  0.882352948, 0.0166666675
   7069,  0.600000024,  0.941176474, 0.0166666675
   7070,  0.600000024,           1., 0.0166666675
   7071,  0.600000024,          -1.,           0.
   7072,  0.600000024, -0.941176474,           0.
   7073,  0.600000024, -0.882352948,           0.
   7074,  0.600000024, -0.823529422,           0.
   7075,  0.600000024, -0.764705896,           0.
   7076,  0.600000024,  -0.70588237,           0.
   7077,  0.600000024, -0.647058845,           0.
   7078,  0.600000024, -0.588235319,           0.
   7079,  0.600000024, -0.529411793,           0.
   7080,  0.600000024, -0.470588237,           0.
   7081,  0.600000024, -0.411764711,           0.
   7082,  0.600000024, -0.352941185,           0.
   7083,  0.600000024, -0.294117659,           0.
   7084,  0.600000024, -0.235294119,           0.
   7085,  0.600000024, -0.176470593,           0.
   7086,  0.600000024, -0.117647059,           0.
   7087,  0.600000024, -0.0588235296,           0.
   7088,  0.600000024,           0.,           0.
   7089,  0.600000024, 0.0588235296,           0.
   7090,  0.600000024,  0.117647059,           0.
   7091,  0.600000024,  0.176470593,           0.
   7092,  0.600000024,  0.235294119,           0.
   7093,  0.600000024,  0.294117659,           0.
   7094,  0.600000024,  0.352941185,           0.
   7095,  0.600000024,  0.411764711,           0.
   7096,  0.600000024,  0.470588237,           0.
   7097,  0.600000024,  0.529411793,           0.
   7098,  0.600000024,  0.588235319,           0.
   7099,  0.600000024,  0.647058845,           0.
   7100,  0.600000024,   0.70588237,           0.
   7101,  0.600000024,  0.764705896,           0.
   7102,  0.600000024,  0.823529422,           0.
   7103,  0.600000024,  0.882352948,           0.
   7104,  0.600000024,  0.941176474,           0.
   7105,  0.600000024,           1.,           0.
   7106,  0.657142878,          -1.,  0.100000001
   7107,  0.657142878, -0.941176474,  0.100000001
   7108,  0.657142878, -0.882352948,  0.100000001
   7109,  0.657142878, -0.823529422,  0.100000001
   7110,  0.657142878, -0.764705896,  0.100000001
   7111,  0.657142878,  -0.70588237,  0.100000001
   7112,  0.657142878, -0.647058845,  0.100000001
   7113,  0.657142878, -0.588235319,  0.100000001
   7114,  0.657142878, -0.529411793,  0.100000001
   7115,  0.657142878, -0.470588237,  0.100000001
   7116,  0.657142878, -0.411764711,  0.100000001
   7117,  0.657142878, -0.352941185,  0.100000001
   7118,  0.657142878, -0.294117659,  0.100000001
   7119,  0.657142878, -0.235294119,  0.100000001
   7120,  0.657142878, -0.176470593,  0.100000001
   7121,  0.657142878, -0.117647059,  0.100000001
   7122,  0.657142878, -0.0588235296,  0.100000001
   7123,  0.657142878,           0.,  0.100000001
   7124,  0.657142878, 0.0588235296,  0.100000001
   7125,  0.657142878,  0.117647059,  0.100000001
   7126,  0.657142878,  0.176470593,  0.100000001
   7127,  0.657142878,  0.235294119,  0.100000001
   7128,  0.657142878,  0.294117659,  0.100000001
   7129,  0.657142878,  0.352941185,  0.100000001
   7130,  0.657142878,  0.411764711,  0.100000001
   7131,  0.657142878,  0.470588237,  0.100000001
   7132,  0.657142878,  0.529411793,  0.100000001
   7133,  0.657142878,  0.588235319,  0.100000001
   7134,  0.657142878,  0.647058845,  0.100000001
   7135,  0.657142878,   0.70588237,  0.100000001
   7136,  0.657142878,  0.764705896,  0.100000001
   7137,  0.657142878,  0.823529422,  0.100000001
   7138,  0.657142878,  0.882352948,  0.100000001
   7139,  0.657142878,  0.941176474,  0.100000001
   7140,  0.657142878,           1.,  0.100000001
   7141,  0.657142878,          -1., 0.0833333358
   7142,  0.657142878, -0.941176474, 0.0833333358
   7143,  0.657142878, -0.882352948, 0.0833333358
   7144,  0.657142878, -0.823529422, 0.0833333358
   7145,  0.657142878, -0.764705896, 0.0833333358
   7146,  0.657142878,  -0.70588237, 0.0833333358
   7147,  0.657142878, -0.647058845, 0.0833333358
   7148,  0.657142878, -0.588235319, 0.0833333358
   7149,  0.657142878, -0.529411793, 0.0833333358
   7150,  0.657142878, -0.470588237, 0.0833333358
   7151,  0.657142878, -0.411764711, 0.0833333358
   7152,  0.657142878, -0.352941185, 0.0833333358
   7153,  0.657142878, -0.294117659, 0.0833333358
   7154,  0.657142878, -0.235294119, 0.0833333358
   7155,  0.657142878, -0.176470593, 0.0833333358
   7156,  0.657142878, -0.117647059, 0.0833333358
   7157,  0.657142878, -0.0588235296, 0.0833333358
   7158,  0.657142878,           0., 0.0833333358
   7159,  0.657142878, 0.0588235296, 0.0833333358
   7160,  0.657142878,  0.117647059, 0.0833333358
   7161,  0.657142878,  0.176470593, 0.0833333358
   7162,  0.657142878,  0.235294119, 0.0833333358
   7163,  0.657142878,  0.294117659, 0.0833333358
   7164,  0.657142878,  0.352941185, 0.0833333358
   7165,  0.657142878,  0.411764711, 0.0833333358
   7166,  0.657142878,  0.470588237, 0.0833333358
   7167,  0.657142878,  0.529411793, 0.0833333358
   7168,  0.657142878,  0.588235319, 0.0833333358
   7169,  0.657142878,  0.647058845, 0.0833333358
   7170,  0.657142878,   0.70588237, 0.0833333358
   7171,  0.657142878,  0.764705896, 0.0833333358
   7172,  0.657142878,  0.823529422, 0.0833333358
   7173,  0.657142878,  0.882352948, 0.0833333358
   7174,  0.657142878,  0.941176474, 0.0833333358
   7175,  0.657142878,           1., 0.0833333358
   7176,  0.657142878,          -1., 0.0666666701
   7177,  0.657142878, -0.941176474, 0.0666666701
   7178,  0.657142878, -0.882352948, 0.0666666701
   7179,  0.657142878, -0.823529422, 0.0666666701
   7180,  0.657142878, -0.764705896, 0.0666666701
   7181,  0.657142878,  -0.70588237, 0.0666666701
   7182,  0.657142878, -0.647058845, 0.0666666701
   7183,  0.657142878, -0.588235319, 0.0666666701
   7184,  0.657142878, -0.529411793, 0.0666666701
   7185,  0.657142878, -0.470588237, 0.0666666701
   7186,  0.657142878, -0.411764711, 0.0666666701
   7187,  0.657142878, -0.352941185, 0.0666666701
   7188,  0.657142878, -0.294117659, 0.0666666701
   7189,  0.657142878, -0.235294119, 0.0666666701
   7190,  0.657142878, -0.176470593, 0.0666666701
   7191,  0.657142878, -0.117647059, 0.0666666701
   7192,  0.657142878, -0.0588235296, 0.0666666701
   7193,  0.657142878,           0., 0.0666666701
   7194,  0.657142878, 0.0588235296, 0.0666666701
   7195,  0.657142878,  0.117647059, 0.0666666701
   7196,  0.657142878,  0.176470593, 0.0666666701
   7197,  0.657142878,  0.235294119, 0.0666666701
   7198,  0.657142878,  0.294117659, 0.0666666701
   7199,  0.657142878,  0.352941185, 0.0666666701
   7200,  0.657142878,  0.411764711, 0.0666666701
   7201,  0.657142878,  0.470588237, 0.0666666701
   7202,  0.657142878,  0.529411793, 0.0666666701
   7203,  0.657142878,  0.588235319, 0.0666666701
   7204,  0.657142878,  0.647058845, 0.0666666701
   7205,  0.657142878,   0.70588237, 0.0666666701
   7206,  0.657142878,  0.764705896, 0.0666666701
   7207,  0.657142878,  0.823529422, 0.0666666701
   7208,  0.657142878,  0.882352948, 0.0666666701
   7209,  0.657142878,  0.941176474, 0.0666666701
   7210,  0.657142878,           1., 0.0666666701
   7211,  0.657142878,          -1., 0.0500000007
   7212,  0.657142878, -0.941176474, 0.0500000007
   7213,  0.657142878, -0.882352948, 0.0500000007
   7214,  0.657142878, -0.823529422, 0.0500000007
   7215,  0.657142878, -0.764705896, 0.0500000007
   7216,  0.657142878,  -0.70588237, 0.0500000007
   7217,  0.657142878, -0.647058845, 0.0500000007
   7218,  0.657142878, -0.588235319, 0.0500000007
   7219,  0.657142878, -0.529411793, 0.0500000007
   7220,  0.657142878, -0.470588237, 0.0500000007
   7221,  0.657142878, -0.411764711, 0.0500000007
   7222,  0.657142878, -0.352941185, 0.0500000007
   7223,  0.657142878, -0.294117659, 0.0500000007
   7224,  0.657142878, -0.235294119, 0.0500000007
   7225,  0.657142878, -0.176470593, 0.0500000007
   7226,  0.657142878, -0.117647059, 0.0500000007
   7227,  0.657142878, -0.0588235296, 0.0500000007
   7228,  0.657142878,           0., 0.0500000007
   7229,  0.657142878, 0.0588235296, 0.0500000007
   7230,  0.657142878,  0.117647059, 0.0500000007
   7231,  0.657142878,  0.176470593, 0.0500000007
   7232,  0.657142878,  0.235294119, 0.0500000007
   7233,  0.657142878,  0.294117659, 0.0500000007
   7234,  0.657142878,  0.352941185, 0.0500000007
   7235,  0.657142878,  0.411764711, 0.0500000007
   7236,  0.657142878,  0.470588237, 0.0500000007
   7237,  0.657142878,  0.529411793, 0.0500000007
   7238,  0.657142878,  0.588235319, 0.0500000007
   7239,  0.657142878,  0.647058845, 0.0500000007
   7240,  0.657142878,   0.70588237, 0.0500000007
   7241,  0.657142878,  0.764705896, 0.0500000007
   7242,  0.657142878,  0.823529422, 0.0500000007
   7243,  0.657142878,  0.882352948, 0.0500000007
   7244,  0.657142878,  0.941176474, 0.0500000007
   7245,  0.657142878,           1., 0.0500000007
   7246,  0.657142878,          -1., 0.0333333351
   7247,  0.657142878, -0.941176474, 0.0333333351
   7248,  0.657142878, -0.882352948, 0.0333333351
   7249,  0.657142878, -0.823529422, 0.0333333351
   7250,  0.657142878, -0.764705896, 0.0333333351
   7251,  0.657142878,  -0.70588237, 0.0333333351
   7252,  0.657142878, -0.647058845, 0.0333333351
   7253,  0.657142878, -0.588235319, 0.0333333351
   7254,  0.657142878, -0.529411793, 0.0333333351
   7255,  0.657142878, -0.470588237, 0.0333333351
   7256,  0.657142878, -0.411764711, 0.0333333351
   7257,  0.657142878, -0.352941185, 0.0333333351
   7258,  0.657142878, -0.294117659, 0.0333333351
   7259,  0.657142878, -0.235294119, 0.0333333351
   7260,  0.657142878, -0.176470593, 0.0333333351
   7261,  0.657142878, -0.117647059, 0.0333333351
   7262,  0.657142878, -0.0588235296, 0.0333333351
   7263,  0.657142878,           0., 0.0333333351
   7264,  0.657142878, 0.0588235296, 0.0333333351
   7265,  0.657142878,  0.117647059, 0.0333333351
   7266,  0.657142878,  0.176470593, 0.0333333351
   7267,  0.657142878,  0.235294119, 0.0333333351
   7268,  0.657142878,  0.294117659, 0.0333333351
   7269,  0.657142878,  0.352941185, 0.0333333351
   7270,  0.657142878,  0.411764711, 0.0333333351
   7271,  0.657142878,  0.470588237, 0.0333333351
   7272,  0.657142878,  0.529411793, 0.0333333351
   7273,  0.657142878,  0.588235319, 0.0333333351
   7274,  0.657142878,  0.647058845, 0.0333333351
   7275,  0.657142878,   0.70588237, 0.0333333351
   7276,  0.657142878,  0.764705896, 0.0333333351
   7277,  0.657142878,  0.823529422, 0.0333333351
   7278,  0.657142878,  0.882352948, 0.0333333351
   7279,  0.657142878,  0.941176474, 0.0333333351
   7280,  0.657142878,           1., 0.0333333351
   7281,  0.657142878,          -1., 0.0166666675
   7282,  0.657142878, -0.941176474, 0.0166666675
   7283,  0.657142878, -0.882352948, 0.0166666675
   7284,  0.657142878, -0.823529422, 0.0166666675
   7285,  0.657142878, -0.764705896, 0.0166666675
   7286,  0.657142878,  -0.70588237, 0.0166666675
   7287,  0.657142878, -0.647058845, 0.0166666675
   7288,  0.657142878, -0.588235319, 0.0166666675
   7289,  0.657142878, -0.529411793, 0.0166666675
   7290,  0.657142878, -0.470588237, 0.0166666675
   7291,  0.657142878, -0.411764711, 0.0166666675
   7292,  0.657142878, -0.352941185, 0.0166666675
   7293,  0.657142878, -0.294117659, 0.0166666675
   7294,  0.657142878, -0.235294119, 0.0166666675
   7295,  0.657142878, -0.176470593, 0.0166666675
   7296,  0.657142878, -0.117647059, 0.0166666675
   7297,  0.657142878, -0.0588235296, 0.0166666675
   7298,  0.657142878,           0., 0.0166666675
   7299,  0.657142878, 0.0588235296, 0.0166666675
   7300,  0.657142878,  0.117647059, 0.0166666675
   7301,  0.657142878,  0.176470593, 0.0166666675
   7302,  0.657142878,  0.235294119, 0.0166666675
   7303,  0.657142878,  0.294117659, 0.0166666675
   7304,  0.657142878,  0.352941185, 0.0166666675
   7305,  0.657142878,  0.411764711, 0.0166666675
   7306,  0.657142878,  0.470588237, 0.0166666675
   7307,  0.657142878,  0.529411793, 0.0166666675
   7308,  0.657142878,  0.588235319, 0.0166666675
   7309,  0.657142878,  0.647058845, 0.0166666675
   7310,  0.657142878,   0.70588237, 0.0166666675
   7311,  0.657142878,  0.764705896, 0.0166666675
   7312,  0.657142878,  0.823529422, 0.0166666675
   7313,  0.657142878,  0.882352948, 0.0166666675
   7314,  0.657142878,  0.941176474, 0.0166666675
   7315,  0.657142878,           1., 0.0166666675
   7316,  0.657142878,          -1.,           0.
   7317,  0.657142878, -0.941176474,           0.
   7318,  0.657142878, -0.882352948,           0.
   7319,  0.657142878, -0.823529422,           0.
   7320,  0.657142878, -0.764705896,           0.
   7321,  0.657142878,  -0.70588237,           0.
   7322,  0.657142878, -0.647058845,           0.
   7323,  0.657142878, -0.588235319,           0.
   7324,  0.657142878, -0.529411793,           0.
   7325,  0.657142878, -0.470588237,           0.
   7326,  0.657142878, -0.411764711,           0.
   7327,  0.657142878, -0.352941185,           0.
   7328,  0.657142878, -0.294117659,           0.
   7329,  0.657142878, -0.235294119,           0.
   7330,  0.657142878, -0.176470593,           0.
   7331,  0.657142878, -0.117647059,           0.
   7332,  0.657142878, -0.0588235296,           0.
   7333,  0.657142878,           0.,           0.
   7334,  0.657142878, 0.0588235296,           0.
   7335,  0.657142878,  0.117647059,           0.
   7336,  0.657142878,  0.176470593,           0.
   7337,  0.657142878,  0.235294119,           0.
   7338,  0.657142878,  0.294117659,           0.
   7339,  0.657142878,  0.352941185,           0.
   7340,  0.657142878,  0.411764711,           0.
   7341,  0.657142878,  0.470588237,           0.
   7342,  0.657142878,  0.529411793,           0.
   7343,  0.657142878,  0.588235319,           0.
   7344,  0.657142878,  0.647058845,           0.
   7345,  0.657142878,   0.70588237,           0.
   7346,  0.657142878,  0.764705896,           0.
   7347,  0.657142878,  0.823529422,           0.
   7348,  0.657142878,  0.882352948,           0.
   7349,  0.657142878,  0.941176474,           0.
   7350,  0.657142878,           1.,           0.
   7351,  0.714285731,          -1.,  0.100000001
   7352,  0.714285731, -0.941176474,  0.100000001
   7353,  0.714285731, -0.882352948,  0.100000001
   7354,  0.714285731, -0.823529422,  0.100000001
   7355,  0.714285731, -0.764705896,  0.100000001
   7356,  0.714285731,  -0.70588237,  0.100000001
   7357,  0.714285731, -0.647058845,  0.100000001
   7358,  0.714285731, -0.588235319,  0.100000001
   7359,  0.714285731, -0.529411793,  0.100000001
   7360,  0.714285731, -0.470588237,  0.100000001
   7361,  0.714285731, -0.411764711,  0.100000001
   7362,  0.714285731, -0.352941185,  0.100000001
   7363,  0.714285731, -0.294117659,  0.100000001
   7364,  0.714285731, -0.235294119,  0.100000001
   7365,  0.714285731, -0.176470593,  0.100000001
   7366,  0.714285731, -0.117647059,  0.100000001
   7367,  0.714285731, -0.0588235296,  0.100000001
   7368,  0.714285731,           0.,  0.100000001
   7369,  0.714285731, 0.0588235296,  0.100000001
   7370,  0.714285731,  0.117647059,  0.100000001
   7371,  0.714285731,  0.176470593,  0.100000001
   7372,  0.714285731,  0.235294119,  0.100000001
   7373,  0.714285731,  0.294117659,  0.100000001
   7374,  0.714285731,  0.352941185,  0.100000001
   7375,  0.714285731,  0.411764711,  0.100000001
   7376,  0.714285731,  0.470588237,  0.100000001
   7377,  0.714285731,  0.529411793,  0.100000001
   7378,  0.714285731,  0.588235319,  0.100000001
   7379,  0.714285731,  0.647058845,  0.100000001
   7380,  0.714285731,   0.70588237,  0.100000001
   7381,  0.714285731,  0.764705896,  0.100000001
   7382,  0.714285731,  0.823529422,  0.100000001
   7383,  0.714285731,  0.882352948,  0.100000001
   7384,  0.714285731,  0.941176474,  0.100000001
   7385,  0.714285731,           1.,  0.100000001
   7386,  0.714285731,          -1., 0.0833333358
   7387,  0.714285731, -0.941176474, 0.0833333358
   7388,  0.714285731, -0.882352948, 0.0833333358
   7389,  0.714285731, -0.823529422, 0.0833333358
   7390,  0.714285731, -0.764705896, 0.0833333358
   7391,  0.714285731,  -0.70588237, 0.0833333358
   7392,  0.714285731, -0.647058845, 0.0833333358
   7393,  0.714285731, -0.588235319, 0.0833333358
   7394,  0.714285731, -0.529411793, 0.0833333358
   7395,  0.714285731, -0.470588237, 0.0833333358
   7396,  0.714285731, -0.411764711, 0.0833333358
   7397,  0.714285731, -0.352941185, 0.0833333358
   7398,  0.714285731, -0.294117659, 0.0833333358
   7399,  0.714285731, -0.235294119, 0.0833333358
   7400,  0.714285731, -0.176470593, 0.0833333358
   7401,  0.714285731, -0.117647059, 0.0833333358
   7402,  0.714285731, -0.0588235296, 0.0833333358
   7403,  0.714285731,           0., 0.0833333358
   7404,  0.714285731, 0.0588235296, 0.0833333358
   7405,  0.714285731,  0.117647059, 0.0833333358
   7406,  0.714285731,  0.176470593, 0.0833333358
   7407,  0.714285731,  0.235294119, 0.0833333358
   7408,  0.714285731,  0.294117659, 0.0833333358
   7409,  0.714285731,  0.352941185, 0.0833333358
   7410,  0.714285731,  0.411764711, 0.0833333358
   7411,  0.714285731,  0.470588237, 0.0833333358
   7412,  0.714285731,  0.529411793, 0.0833333358
   7413,  0.714285731,  0.588235319, 0.0833333358
   7414,  0.714285731,  0.647058845, 0.0833333358
   7415,  0.714285731,   0.70588237, 0.0833333358
   7416,  0.714285731,  0.764705896, 0.0833333358
   7417,  0.714285731,  0.823529422, 0.0833333358
   7418,  0.714285731,  0.882352948, 0.0833333358
   7419,  0.714285731,  0.941176474, 0.0833333358
   7420,  0.714285731,           1., 0.0833333358
   7421,  0.714285731,          -1., 0.0666666701
   7422,  0.714285731, -0.941176474, 0.0666666701
   7423,  0.714285731, -0.882352948, 0.0666666701
   7424,  0.714285731, -0.823529422, 0.0666666701
   7425,  0.714285731, -0.764705896, 0.0666666701
   7426,  0.714285731,  -0.70588237, 0.0666666701
   7427,  0.714285731, -0.647058845, 0.0666666701
   7428,  0.714285731, -0.588235319, 0.0666666701
   7429,  0.714285731, -0.529411793, 0.0666666701
   7430,  0.714285731, -0.470588237, 0.0666666701
   7431,  0.714285731, -0.411764711, 0.0666666701
   7432,  0.714285731, -0.352941185, 0.0666666701
   7433,  0.714285731, -0.294117659, 0.0666666701
   7434,  0.714285731, -0.235294119, 0.0666666701
   7435,  0.714285731, -0.176470593, 0.0666666701
   7436,  0.714285731, -0.117647059, 0.0666666701
   7437,  0.714285731, -0.0588235296, 0.0666666701
   7438,  0.714285731,           0., 0.0666666701
   7439,  0.714285731, 0.0588235296, 0.0666666701
   7440,  0.714285731,  0.117647059, 0.0666666701
   7441,  0.714285731,  0.176470593, 0.0666666701
   7442,  0.714285731,  0.235294119, 0.0666666701
   7443,  0.714285731,  0.294117659, 0.0666666701
   7444,  0.714285731,  0.352941185, 0.0666666701
   7445,  0.714285731,  0.411764711, 0.0666666701
   7446,  0.714285731,  0.470588237, 0.0666666701
   7447,  0.714285731,  0.529411793, 0.0666666701
   7448,  0.714285731,  0.588235319, 0.0666666701
   7449,  0.714285731,  0.647058845, 0.0666666701
   7450,  0.714285731,   0.70588237, 0.0666666701
   7451,  0.714285731,  0.764705896, 0.0666666701
   7452,  0.714285731,  0.823529422, 0.0666666701
   7453,  0.714285731,  0.882352948, 0.0666666701
   7454,  0.714285731,  0.941176474, 0.0666666701
   7455,  0.714285731,           1., 0.0666666701
   7456,  0.714285731,          -1., 0.0500000007
   7457,  0.714285731, -0.941176474, 0.0500000007
   7458,  0.714285731, -0.882352948, 0.0500000007
   7459,  0.714285731, -0.823529422, 0.0500000007
   7460,  0.714285731, -0.764705896, 0.0500000007
   7461,  0.714285731,  -0.70588237, 0.0500000007
   7462,  0.714285731, -0.647058845, 0.0500000007
   7463,  0.714285731, -0.588235319, 0.0500000007
   7464,  0.714285731, -0.529411793, 0.0500000007
   7465,  0.714285731, -0.470588237, 0.0500000007
   7466,  0.714285731, -0.411764711, 0.0500000007
   7467,  0.714285731, -0.352941185, 0.0500000007
   7468,  0.714285731, -0.294117659, 0.0500000007
   7469,  0.714285731, -0.235294119, 0.0500000007
   7470,  0.714285731, -0.176470593, 0.0500000007
   7471,  0.714285731, -0.117647059, 0.0500000007
   7472,  0.714285731, -0.0588235296, 0.0500000007
   7473,  0.714285731,           0., 0.0500000007
   7474,  0.714285731, 0.0588235296, 0.0500000007
   7475,  0.714285731,  0.117647059, 0.0500000007
   7476,  0.714285731,  0.176470593, 0.0500000007
   7477,  0.714285731,  0.235294119, 0.0500000007
   7478,  0.714285731,  0.294117659, 0.0500000007
   7479,  0.714285731,  0.352941185, 0.0500000007
   7480,  0.714285731,  0.411764711, 0.0500000007
   7481,  0.714285731,  0.470588237, 0.0500000007
   7482,  0.714285731,  0.529411793, 0.0500000007
   7483,  0.714285731,  0.588235319, 0.0500000007
   7484,  0.714285731,  0.647058845, 0.0500000007
   7485,  0.714285731,   0.70588237, 0.0500000007
   7486,  0.714285731,  0.764705896, 0.0500000007
   7487,  0.714285731,  0.823529422, 0.0500000007
   7488,  0.714285731,  0.882352948, 0.0500000007
   7489,  0.714285731,  0.941176474, 0.0500000007
   7490,  0.714285731,           1., 0.0500000007
   7491,  0.714285731,          -1., 0.0333333351
   7492,  0.714285731, -0.941176474, 0.0333333351
   7493,  0.714285731, -0.882352948, 0.0333333351
   7494,  0.714285731, -0.823529422, 0.0333333351
   7495,  0.714285731, -0.764705896, 0.0333333351
   7496,  0.714285731,  -0.70588237, 0.0333333351
   7497,  0.714285731, -0.647058845, 0.0333333351
   7498,  0.714285731, -0.588235319, 0.0333333351
   7499,  0.714285731, -0.529411793, 0.0333333351
   7500,  0.714285731, -0.470588237, 0.0333333351
   7501,  0.714285731, -0.411764711, 0.0333333351
   7502,  0.714285731, -0.352941185, 0.0333333351
   7503,  0.714285731, -0.294117659, 0.0333333351
   7504,  0.714285731, -0.235294119, 0.0333333351
   7505,  0.714285731, -0.176470593, 0.0333333351
   7506,  0.714285731, -0.117647059, 0.0333333351
   7507,  0.714285731, -0.0588235296, 0.0333333351
   7508,  0.714285731,           0., 0.0333333351
   7509,  0.714285731, 0.0588235296, 0.0333333351
   7510,  0.714285731,  0.117647059, 0.0333333351
   7511,  0.714285731,  0.176470593, 0.0333333351
   7512,  0.714285731,  0.235294119, 0.0333333351
   7513,  0.714285731,  0.294117659, 0.0333333351
   7514,  0.714285731,  0.352941185, 0.0333333351
   7515,  0.714285731,  0.411764711, 0.0333333351
   7516,  0.714285731,  0.470588237, 0.0333333351
   7517,  0.714285731,  0.529411793, 0.0333333351
   7518,  0.714285731,  0.588235319, 0.0333333351
   7519,  0.714285731,  0.647058845, 0.0333333351
   7520,  0.714285731,   0.70588237, 0.0333333351
   7521,  0.714285731,  0.764705896, 0.0333333351
   7522,  0.714285731,  0.823529422, 0.0333333351
   7523,  0.714285731,  0.882352948, 0.0333333351
   7524,  0.714285731,  0.941176474, 0.0333333351
   7525,  0.714285731,           1., 0.0333333351
   7526,  0.714285731,          -1., 0.0166666675
   7527,  0.714285731, -0.941176474, 0.0166666675
   7528,  0.714285731, -0.882352948, 0.0166666675
   7529,  0.714285731, -0.823529422, 0.0166666675
   7530,  0.714285731, -0.764705896, 0.0166666675
   7531,  0.714285731,  -0.70588237, 0.0166666675
   7532,  0.714285731, -0.647058845, 0.0166666675
   7533,  0.714285731, -0.588235319, 0.0166666675
   7534,  0.714285731, -0.529411793, 0.0166666675
   7535,  0.714285731, -0.470588237, 0.0166666675
   7536,  0.714285731, -0.411764711, 0.0166666675
   7537,  0.714285731, -0.352941185, 0.0166666675
   7538,  0.714285731, -0.294117659, 0.0166666675
   7539,  0.714285731, -0.235294119, 0.0166666675
   7540,  0.714285731, -0.176470593, 0.0166666675
   7541,  0.714285731, -0.117647059, 0.0166666675
   7542,  0.714285731, -0.0588235296, 0.0166666675
   7543,  0.714285731,           0., 0.0166666675
   7544,  0.714285731, 0.0588235296, 0.0166666675
   7545,  0.714285731,  0.117647059, 0.0166666675
   7546,  0.714285731,  0.176470593, 0.0166666675
   7547,  0.714285731,  0.235294119, 0.0166666675
   7548,  0.714285731,  0.294117659, 0.0166666675
   7549,  0.714285731,  0.352941185, 0.0166666675
   7550,  0.714285731,  0.411764711, 0.0166666675
   7551,  0.714285731,  0.470588237, 0.0166666675
   7552,  0.714285731,  0.529411793, 0.0166666675
   7553,  0.714285731,  0.588235319, 0.0166666675
   7554,  0.714285731,  0.647058845, 0.0166666675
   7555,  0.714285731,   0.70588237, 0.0166666675
   7556,  0.714285731,  0.764705896, 0.0166666675
   7557,  0.714285731,  0.823529422, 0.0166666675
   7558,  0.714285731,  0.882352948, 0.0166666675
   7559,  0.714285731,  0.941176474, 0.0166666675
   7560,  0.714285731,           1., 0.0166666675
   7561,  0.714285731,          -1.,           0.
   7562,  0.714285731, -0.941176474,           0.
   7563,  0.714285731, -0.882352948,           0.
   7564,  0.714285731, -0.823529422,           0.
   7565,  0.714285731, -0.764705896,           0.
   7566,  0.714285731,  -0.70588237,           0.
   7567,  0.714285731, -0.647058845,           0.
   7568,  0.714285731, -0.588235319,           0.
   7569,  0.714285731, -0.529411793,           0.
   7570,  0.714285731, -0.470588237,           0.
   7571,  0.714285731, -0.411764711,           0.
   7572,  0.714285731, -0.352941185,           0.
   7573,  0.714285731, -0.294117659,           0.
   7574,  0.714285731, -0.235294119,           0.
   7575,  0.714285731, -0.176470593,           0.
   7576,  0.714285731, -0.117647059,           0.
   7577,  0.714285731, -0.0588235296,           0.
   7578,  0.714285731,           0.,           0.
   7579,  0.714285731, 0.0588235296,           0.
   7580,  0.714285731,  0.117647059,           0.
   7581,  0.714285731,  0.176470593,           0.
   7582,  0.714285731,  0.235294119,           0.
   7583,  0.714285731,  0.294117659,           0.
   7584,  0.714285731,  0.352941185,           0.
   7585,  0.714285731,  0.411764711,           0.
   7586,  0.714285731,  0.470588237,           0.
   7587,  0.714285731,  0.529411793,           0.
   7588,  0.714285731,  0.588235319,           0.
   7589,  0.714285731,  0.647058845,           0.
   7590,  0.714285731,   0.70588237,           0.
   7591,  0.714285731,  0.764705896,           0.
   7592,  0.714285731,  0.823529422,           0.
   7593,  0.714285731,  0.882352948,           0.
   7594,  0.714285731,  0.941176474,           0.
   7595,  0.714285731,           1.,           0.
   7596,  0.771428585,          -1.,  0.100000001
   7597,  0.771428585, -0.941176474,  0.100000001
   7598,  0.771428585, -0.882352948,  0.100000001
   7599,  0.771428585, -0.823529422,  0.100000001
   7600,  0.771428585, -0.764705896,  0.100000001
   7601,  0.771428585,  -0.70588237,  0.100000001
   7602,  0.771428585, -0.647058845,  0.100000001
   7603,  0.771428585, -0.588235319,  0.100000001
   7604,  0.771428585, -0.529411793,  0.100000001
   7605,  0.771428585, -0.470588237,  0.100000001
   7606,  0.771428585, -0.411764711,  0.100000001
   7607,  0.771428585, -0.352941185,  0.100000001
   7608,  0.771428585, -0.294117659,  0.100000001
   7609,  0.771428585, -0.235294119,  0.100000001
   7610,  0.771428585, -0.176470593,  0.100000001
   7611,  0.771428585, -0.117647059,  0.100000001
   7612,  0.771428585, -0.0588235296,  0.100000001
   7613,  0.771428585,           0.,  0.100000001
   7614,  0.771428585, 0.0588235296,  0.100000001
   7615,  0.771428585,  0.117647059,  0.100000001
   7616,  0.771428585,  0.176470593,  0.100000001
   7617,  0.771428585,  0.235294119,  0.100000001
   7618,  0.771428585,  0.294117659,  0.100000001
   7619,  0.771428585,  0.352941185,  0.100000001
   7620,  0.771428585,  0.411764711,  0.100000001
   7621,  0.771428585,  0.470588237,  0.100000001
   7622,  0.771428585,  0.529411793,  0.100000001
   7623,  0.771428585,  0.588235319,  0.100000001
   7624,  0.771428585,  0.647058845,  0.100000001
   7625,  0.771428585,   0.70588237,  0.100000001
   7626,  0.771428585,  0.764705896,  0.100000001
   7627,  0.771428585,  0.823529422,  0.100000001
   7628,  0.771428585,  0.882352948,  0.100000001
   7629,  0.771428585,  0.941176474,  0.100000001
   7630,  0.771428585,           1.,  0.100000001
   7631,  0.771428585,          -1., 0.0833333358
   7632,  0.771428585, -0.941176474, 0.0833333358
   7633,  0.771428585, -0.882352948, 0.0833333358
   7634,  0.771428585, -0.823529422, 0.0833333358
   7635,  0.771428585, -0.764705896, 0.0833333358
   7636,  0.771428585,  -0.70588237, 0.0833333358
   7637,  0.771428585, -0.647058845, 0.0833333358
   7638,  0.771428585, -0.588235319, 0.0833333358
   7639,  0.771428585, -0.529411793, 0.0833333358
   7640,  0.771428585, -0.470588237, 0.0833333358
   7641,  0.771428585, -0.411764711, 0.0833333358
   7642,  0.771428585, -0.352941185, 0.0833333358
   7643,  0.771428585, -0.294117659, 0.0833333358
   7644,  0.771428585, -0.235294119, 0.0833333358
   7645,  0.771428585, -0.176470593, 0.0833333358
   7646,  0.771428585, -0.117647059, 0.0833333358
   7647,  0.771428585, -0.0588235296, 0.0833333358
   7648,  0.771428585,           0., 0.0833333358
   7649,  0.771428585, 0.0588235296, 0.0833333358
   7650,  0.771428585,  0.117647059, 0.0833333358
   7651,  0.771428585,  0.176470593, 0.0833333358
   7652,  0.771428585,  0.235294119, 0.0833333358
   7653,  0.771428585,  0.294117659, 0.0833333358
   7654,  0.771428585,  0.352941185, 0.0833333358
   7655,  0.771428585,  0.411764711, 0.0833333358
   7656,  0.771428585,  0.470588237, 0.0833333358
   7657,  0.771428585,  0.529411793, 0.0833333358
   7658,  0.771428585,  0.588235319, 0.0833333358
   7659,  0.771428585,  0.647058845, 0.0833333358
   7660,  0.771428585,   0.70588237, 0.0833333358
   7661,  0.771428585,  0.764705896, 0.0833333358
   7662,  0.771428585,  0.823529422, 0.0833333358
   7663,  0.771428585,  0.882352948, 0.0833333358
   7664,  0.771428585,  0.941176474, 0.0833333358
   7665,  0.771428585,           1., 0.0833333358
   7666,  0.771428585,          -1., 0.0666666701
   7667,  0.771428585, -0.941176474, 0.0666666701
   7668,  0.771428585, -0.882352948, 0.0666666701
   7669,  0.771428585, -0.823529422, 0.0666666701
   7670,  0.771428585, -0.764705896, 0.0666666701
   7671,  0.771428585,  -0.70588237, 0.0666666701
   7672,  0.771428585, -0.647058845, 0.0666666701
   7673,  0.771428585, -0.588235319, 0.0666666701
   7674,  0.771428585, -0.529411793, 0.0666666701
   7675,  0.771428585, -0.470588237, 0.0666666701
   7676,  0.771428585, -0.411764711, 0.0666666701
   7677,  0.771428585, -0.352941185, 0.0666666701
   7678,  0.771428585, -0.294117659, 0.0666666701
   7679,  0.771428585, -0.235294119, 0.0666666701
   7680,  0.771428585, -0.176470593, 0.0666666701
   7681,  0.771428585, -0.117647059, 0.0666666701
   7682,  0.771428585, -0.0588235296, 0.0666666701
   7683,  0.771428585,           0., 0.0666666701
   7684,  0.771428585, 0.0588235296, 0.0666666701
   7685,  0.771428585,  0.117647059, 0.0666666701
   7686,  0.771428585,  0.176470593, 0.0666666701
   7687,  0.771428585,  0.235294119, 0.0666666701
   7688,  0.771428585,  0.294117659, 0.0666666701
   7689,  0.771428585,  0.352941185, 0.0666666701
   7690,  0.771428585,  0.411764711, 0.0666666701
   7691,  0.771428585,  0.470588237, 0.0666666701
   7692,  0.771428585,  0.529411793, 0.0666666701
   7693,  0.771428585,  0.588235319, 0.0666666701
   7694,  0.771428585,  0.647058845, 0.0666666701
   7695,  0.771428585,   0.70588237, 0.0666666701
   7696,  0.771428585,  0.764705896, 0.0666666701
   7697,  0.771428585,  0.823529422, 0.0666666701
   7698,  0.771428585,  0.882352948, 0.0666666701
   7699,  0.771428585,  0.941176474, 0.0666666701
   7700,  0.771428585,           1., 0.0666666701
   7701,  0.771428585,          -1., 0.0500000007
   7702,  0.771428585, -0.941176474, 0.0500000007
   7703,  0.771428585, -0.882352948, 0.0500000007
   7704,  0.771428585, -0.823529422, 0.0500000007
   7705,  0.771428585, -0.764705896, 0.0500000007
   7706,  0.771428585,  -0.70588237, 0.0500000007
   7707,  0.771428585, -0.647058845, 0.0500000007
   7708,  0.771428585, -0.588235319, 0.0500000007
   7709,  0.771428585, -0.529411793, 0.0500000007
   7710,  0.771428585, -0.470588237, 0.0500000007
   7711,  0.771428585, -0.411764711, 0.0500000007
   7712,  0.771428585, -0.352941185, 0.0500000007
   7713,  0.771428585, -0.294117659, 0.0500000007
   7714,  0.771428585, -0.235294119, 0.0500000007
   7715,  0.771428585, -0.176470593, 0.0500000007
   7716,  0.771428585, -0.117647059, 0.0500000007
   7717,  0.771428585, -0.0588235296, 0.0500000007
   7718,  0.771428585,           0., 0.0500000007
   7719,  0.771428585, 0.0588235296, 0.0500000007
   7720,  0.771428585,  0.117647059, 0.0500000007
   7721,  0.771428585,  0.176470593, 0.0500000007
   7722,  0.771428585,  0.235294119, 0.0500000007
   7723,  0.771428585,  0.294117659, 0.0500000007
   7724,  0.771428585,  0.352941185, 0.0500000007
   7725,  0.771428585,  0.411764711, 0.0500000007
   7726,  0.771428585,  0.470588237, 0.0500000007
   7727,  0.771428585,  0.529411793, 0.0500000007
   7728,  0.771428585,  0.588235319, 0.0500000007
   7729,  0.771428585,  0.647058845, 0.0500000007
   7730,  0.771428585,   0.70588237, 0.0500000007
   7731,  0.771428585,  0.764705896, 0.0500000007
   7732,  0.771428585,  0.823529422, 0.0500000007
   7733,  0.771428585,  0.882352948, 0.0500000007
   7734,  0.771428585,  0.941176474, 0.0500000007
   7735,  0.771428585,           1., 0.0500000007
   7736,  0.771428585,          -1., 0.0333333351
   7737,  0.771428585, -0.941176474, 0.0333333351
   7738,  0.771428585, -0.882352948, 0.0333333351
   7739,  0.771428585, -0.823529422, 0.0333333351
   7740,  0.771428585, -0.764705896, 0.0333333351
   7741,  0.771428585,  -0.70588237, 0.0333333351
   7742,  0.771428585, -0.647058845, 0.0333333351
   7743,  0.771428585, -0.588235319, 0.0333333351
   7744,  0.771428585, -0.529411793, 0.0333333351
   7745,  0.771428585, -0.470588237, 0.0333333351
   7746,  0.771428585, -0.411764711, 0.0333333351
   7747,  0.771428585, -0.352941185, 0.0333333351
   7748,  0.771428585, -0.294117659, 0.0333333351
   7749,  0.771428585, -0.235294119, 0.0333333351
   7750,  0.771428585, -0.176470593, 0.0333333351
   7751,  0.771428585, -0.117647059, 0.0333333351
   7752,  0.771428585, -0.0588235296, 0.0333333351
   7753,  0.771428585,           0., 0.0333333351
   7754,  0.771428585, 0.0588235296, 0.0333333351
   7755,  0.771428585,  0.117647059, 0.0333333351
   7756,  0.771428585,  0.176470593, 0.0333333351
   7757,  0.771428585,  0.235294119, 0.0333333351
   7758,  0.771428585,  0.294117659, 0.0333333351
   7759,  0.771428585,  0.352941185, 0.0333333351
   7760,  0.771428585,  0.411764711, 0.0333333351
   7761,  0.771428585,  0.470588237, 0.0333333351
   7762,  0.771428585,  0.529411793, 0.0333333351
   7763,  0.771428585,  0.588235319, 0.0333333351
   7764,  0.771428585,  0.647058845, 0.0333333351
   7765,  0.771428585,   0.70588237, 0.0333333351
   7766,  0.771428585,  0.764705896, 0.0333333351
   7767,  0.771428585,  0.823529422, 0.0333333351
   7768,  0.771428585,  0.882352948, 0.0333333351
   7769,  0.771428585,  0.941176474, 0.0333333351
   7770,  0.771428585,           1., 0.0333333351
   7771,  0.771428585,          -1., 0.0166666675
   7772,  0.771428585, -0.941176474, 0.0166666675
   7773,  0.771428585, -0.882352948, 0.0166666675
   7774,  0.771428585, -0.823529422, 0.0166666675
   7775,  0.771428585, -0.764705896, 0.0166666675
   7776,  0.771428585,  -0.70588237, 0.0166666675
   7777,  0.771428585, -0.647058845, 0.0166666675
   7778,  0.771428585, -0.588235319, 0.0166666675
   7779,  0.771428585, -0.529411793, 0.0166666675
   7780,  0.771428585, -0.470588237, 0.0166666675
   7781,  0.771428585, -0.411764711, 0.0166666675
   7782,  0.771428585, -0.352941185, 0.0166666675
   7783,  0.771428585, -0.294117659, 0.0166666675
   7784,  0.771428585, -0.235294119, 0.0166666675
   7785,  0.771428585, -0.176470593, 0.0166666675
   7786,  0.771428585, -0.117647059, 0.0166666675
   7787,  0.771428585, -0.0588235296, 0.0166666675
   7788,  0.771428585,           0., 0.0166666675
   7789,  0.771428585, 0.0588235296, 0.0166666675
   7790,  0.771428585,  0.117647059, 0.0166666675
   7791,  0.771428585,  0.176470593, 0.0166666675
   7792,  0.771428585,  0.235294119, 0.0166666675
   7793,  0.771428585,  0.294117659, 0.0166666675
   7794,  0.771428585,  0.352941185, 0.0166666675
   7795,  0.771428585,  0.411764711, 0.0166666675
   7796,  0.771428585,  0.470588237, 0.0166666675
   7797,  0.771428585,  0.529411793, 0.0166666675
   7798,  0.771428585,  0.588235319, 0.0166666675
   7799,  0.771428585,  0.647058845, 0.0166666675
   7800,  0.771428585,   0.70588237, 0.0166666675
   7801,  0.771428585,  0.764705896, 0.0166666675
   7802,  0.771428585,  0.823529422, 0.0166666675
   7803,  0.771428585,  0.882352948, 0.0166666675
   7804,  0.771428585,  0.941176474, 0.0166666675
   7805,  0.771428585,           1., 0.0166666675
   7806,  0.771428585,          -1.,           0.
   7807,  0.771428585, -0.941176474,           0.
   7808,  0.771428585, -0.882352948,           0.
   7809,  0.771428585, -0.823529422,           0.
   7810,  0.771428585, -0.764705896,           0.
   7811,  0.771428585,  -0.70588237,           0.
   7812,  0.771428585, -0.647058845,           0.
   7813,  0.771428585, -0.588235319,           0.
   7814,  0.771428585, -0.529411793,           0.
   7815,  0.771428585, -0.470588237,           0.
   7816,  0.771428585, -0.411764711,           0.
   7817,  0.771428585, -0.352941185,           0.
   7818,  0.771428585, -0.294117659,           0.
   7819,  0.771428585, -0.235294119,           0.
   7820,  0.771428585, -0.176470593,           0.
   7821,  0.771428585, -0.117647059,           0.
   7822,  0.771428585, -0.0588235296,           0.
   7823,  0.771428585,           0.,           0.
   7824,  0.771428585, 0.0588235296,           0.
   7825,  0.771428585,  0.117647059,           0.
   7826,  0.771428585,  0.176470593,           0.
   7827,  0.771428585,  0.235294119,           0.
   7828,  0.771428585,  0.294117659,           0.
   7829,  0.771428585,  0.352941185,           0.
   7830,  0.771428585,  0.411764711,           0.
   7831,  0.771428585,  0.470588237,           0.
   7832,  0.771428585,  0.529411793,           0.
   7833,  0.771428585,  0.588235319,           0.
   7834,  0.771428585,  0.647058845,           0.
   7835,  0.771428585,   0.70588237,           0.
   7836,  0.771428585,  0.764705896,           0.
   7837,  0.771428585,  0.823529422,           0.
   7838,  0.771428585,  0.882352948,           0.
   7839,  0.771428585,  0.941176474,           0.
   7840,  0.771428585,           1.,           0.
   7841,  0.828571439,          -1.,  0.100000001
   7842,  0.828571439, -0.941176474,  0.100000001
   7843,  0.828571439, -0.882352948,  0.100000001
   7844,  0.828571439, -0.823529422,  0.100000001
   7845,  0.828571439, -0.764705896,  0.100000001
   7846,  0.828571439,  -0.70588237,  0.100000001
   7847,  0.828571439, -0.647058845,  0.100000001
   7848,  0.828571439, -0.588235319,  0.100000001
   7849,  0.828571439, -0.529411793,  0.100000001
   7850,  0.828571439, -0.470588237,  0.100000001
   7851,  0.828571439, -0.411764711,  0.100000001
   7852,  0.828571439, -0.352941185,  0.100000001
   7853,  0.828571439, -0.294117659,  0.100000001
   7854,  0.828571439, -0.235294119,  0.100000001
   7855,  0.828571439, -0.176470593,  0.100000001
   7856,  0.828571439, -0.117647059,  0.100000001
   7857,  0.828571439, -0.0588235296,  0.100000001
   7858,  0.828571439,           0.,  0.100000001
   7859,  0.828571439, 0.0588235296,  0.100000001
   7860,  0.828571439,  0.117647059,  0.100000001
   7861,  0.828571439,  0.176470593,  0.100000001
   7862,  0.828571439,  0.235294119,  0.100000001
   7863,  0.828571439,  0.294117659,  0.100000001
   7864,  0.828571439,  0.352941185,  0.100000001
   7865,  0.828571439,  0.411764711,  0.100000001
   7866,  0.828571439,  0.470588237,  0.100000001
   7867,  0.828571439,  0.529411793,  0.100000001
   7868,  0.828571439,  0.588235319,  0.100000001
   7869,  0.828571439,  0.647058845,  0.100000001
   7870,  0.828571439,   0.70588237,  0.100000001
   7871,  0.828571439,  0.764705896,  0.100000001
   7872,  0.828571439,  0.823529422,  0.100000001
   7873,  0.828571439,  0.882352948,  0.100000001
   7874,  0.828571439,  0.941176474,  0.100000001
   7875,  0.828571439,           1.,  0.100000001
   7876,  0.828571439,          -1., 0.0833333358
   7877,  0.828571439, -0.941176474, 0.0833333358
   7878,  0.828571439, -0.882352948, 0.0833333358
   7879,  0.828571439, -0.823529422, 0.0833333358
   7880,  0.828571439, -0.764705896, 0.0833333358
   7881,  0.828571439,  -0.70588237, 0.0833333358
   7882,  0.828571439, -0.647058845, 0.0833333358
   7883,  0.828571439, -0.588235319, 0.0833333358
   7884,  0.828571439, -0.529411793, 0.0833333358
   7885,  0.828571439, -0.470588237, 0.0833333358
   7886,  0.828571439, -0.411764711, 0.0833333358
   7887,  0.828571439, -0.352941185, 0.0833333358
   7888,  0.828571439, -0.294117659, 0.0833333358
   7889,  0.828571439, -0.235294119, 0.0833333358
   7890,  0.828571439, -0.176470593, 0.0833333358
   7891,  0.828571439, -0.117647059, 0.0833333358
   7892,  0.828571439, -0.0588235296, 0.0833333358
   7893,  0.828571439,           0., 0.0833333358
   7894,  0.828571439, 0.0588235296, 0.0833333358
   7895,  0.828571439,  0.117647059, 0.0833333358
   7896,  0.828571439,  0.176470593, 0.0833333358
   7897,  0.828571439,  0.235294119, 0.0833333358
   7898,  0.828571439,  0.294117659, 0.0833333358
   7899,  0.828571439,  0.352941185, 0.0833333358
   7900,  0.828571439,  0.411764711, 0.0833333358
   7901,  0.828571439,  0.470588237, 0.0833333358
   7902,  0.828571439,  0.529411793, 0.0833333358
   7903,  0.828571439,  0.588235319, 0.0833333358
   7904,  0.828571439,  0.647058845, 0.0833333358
   7905,  0.828571439,   0.70588237, 0.0833333358
   7906,  0.828571439,  0.764705896, 0.0833333358
   7907,  0.828571439,  0.823529422, 0.0833333358
   7908,  0.828571439,  0.882352948, 0.0833333358
   7909,  0.828571439,  0.941176474, 0.0833333358
   7910,  0.828571439,           1., 0.0833333358
   7911,  0.828571439,          -1., 0.0666666701
   7912,  0.828571439, -0.941176474, 0.0666666701
   7913,  0.828571439, -0.882352948, 0.0666666701
   7914,  0.828571439, -0.823529422, 0.0666666701
   7915,  0.828571439, -0.764705896, 0.0666666701
   7916,  0.828571439,  -0.70588237, 0.0666666701
   7917,  0.828571439, -0.647058845, 0.0666666701
   7918,  0.828571439, -0.588235319, 0.0666666701
   7919,  0.828571439, -0.529411793, 0.0666666701
   7920,  0.828571439, -0.470588237, 0.0666666701
   7921,  0.828571439, -0.411764711, 0.0666666701
   7922,  0.828571439, -0.352941185, 0.0666666701
   7923,  0.828571439, -0.294117659, 0.0666666701
   7924,  0.828571439, -0.235294119, 0.0666666701
   7925,  0.828571439, -0.176470593, 0.0666666701
   7926,  0.828571439, -0.117647059, 0.0666666701
   7927,  0.828571439, -0.0588235296, 0.0666666701
   7928,  0.828571439,           0., 0.0666666701
   7929,  0.828571439, 0.0588235296, 0.0666666701
   7930,  0.828571439,  0.117647059, 0.0666666701
   7931,  0.828571439,  0.176470593, 0.0666666701
   7932,  0.828571439,  0.235294119, 0.0666666701
   7933,  0.828571439,  0.294117659, 0.0666666701
   7934,  0.828571439,  0.352941185, 0.0666666701
   7935,  0.828571439,  0.411764711, 0.0666666701
   7936,  0.828571439,  0.470588237, 0.0666666701
   7937,  0.828571439,  0.529411793, 0.0666666701
   7938,  0.828571439,  0.588235319, 0.0666666701
   7939,  0.828571439,  0.647058845, 0.0666666701
   7940,  0.828571439,   0.70588237, 0.0666666701
   7941,  0.828571439,  0.764705896, 0.0666666701
   7942,  0.828571439,  0.823529422, 0.0666666701
   7943,  0.828571439,  0.882352948, 0.0666666701
   7944,  0.828571439,  0.941176474, 0.0666666701
   7945,  0.828571439,           1., 0.0666666701
   7946,  0.828571439,          -1., 0.0500000007
   7947,  0.828571439, -0.941176474, 0.0500000007
   7948,  0.828571439, -0.882352948, 0.0500000007
   7949,  0.828571439, -0.823529422, 0.0500000007
   7950,  0.828571439, -0.764705896, 0.0500000007
   7951,  0.828571439,  -0.70588237, 0.0500000007
   7952,  0.828571439, -0.647058845, 0.0500000007
   7953,  0.828571439, -0.588235319, 0.0500000007
   7954,  0.828571439, -0.529411793, 0.0500000007
   7955,  0.828571439, -0.470588237, 0.0500000007
   7956,  0.828571439, -0.411764711, 0.0500000007
   7957,  0.828571439, -0.352941185, 0.0500000007
   7958,  0.828571439, -0.294117659, 0.0500000007
   7959,  0.828571439, -0.235294119, 0.0500000007
   7960,  0.828571439, -0.176470593, 0.0500000007
   7961,  0.828571439, -0.117647059, 0.0500000007
   7962,  0.828571439, -0.0588235296, 0.0500000007
   7963,  0.828571439,           0., 0.0500000007
   7964,  0.828571439, 0.0588235296, 0.0500000007
   7965,  0.828571439,  0.117647059, 0.0500000007
   7966,  0.828571439,  0.176470593, 0.0500000007
   7967,  0.828571439,  0.235294119, 0.0500000007
   7968,  0.828571439,  0.294117659, 0.0500000007
   7969,  0.828571439,  0.352941185, 0.0500000007
   7970,  0.828571439,  0.411764711, 0.0500000007
   7971,  0.828571439,  0.470588237, 0.0500000007
   7972,  0.828571439,  0.529411793, 0.0500000007
   7973,  0.828571439,  0.588235319, 0.0500000007
   7974,  0.828571439,  0.647058845, 0.0500000007
   7975,  0.828571439,   0.70588237, 0.0500000007
   7976,  0.828571439,  0.764705896, 0.0500000007
   7977,  0.828571439,  0.823529422, 0.0500000007
   7978,  0.828571439,  0.882352948, 0.0500000007
   7979,  0.828571439,  0.941176474, 0.0500000007
   7980,  0.828571439,           1., 0.0500000007
   7981,  0.828571439,          -1., 0.0333333351
   7982,  0.828571439, -0.941176474, 0.0333333351
   7983,  0.828571439, -0.882352948, 0.0333333351
   7984,  0.828571439, -0.823529422, 0.0333333351
   7985,  0.828571439, -0.764705896, 0.0333333351
   7986,  0.828571439,  -0.70588237, 0.0333333351
   7987,  0.828571439, -0.647058845, 0.0333333351
   7988,  0.828571439, -0.588235319, 0.0333333351
   7989,  0.828571439, -0.529411793, 0.0333333351
   7990,  0.828571439, -0.470588237, 0.0333333351
   7991,  0.828571439, -0.411764711, 0.0333333351
   7992,  0.828571439, -0.352941185, 0.0333333351
   7993,  0.828571439, -0.294117659, 0.0333333351
   7994,  0.828571439, -0.235294119, 0.0333333351
   7995,  0.828571439, -0.176470593, 0.0333333351
   7996,  0.828571439, -0.117647059, 0.0333333351
   7997,  0.828571439, -0.0588235296, 0.0333333351
   7998,  0.828571439,           0., 0.0333333351
   7999,  0.828571439, 0.0588235296, 0.0333333351
   8000,  0.828571439,  0.117647059, 0.0333333351
   8001,  0.828571439,  0.176470593, 0.0333333351
   8002,  0.828571439,  0.235294119, 0.0333333351
   8003,  0.828571439,  0.294117659, 0.0333333351
   8004,  0.828571439,  0.352941185, 0.0333333351
   8005,  0.828571439,  0.411764711, 0.0333333351
   8006,  0.828571439,  0.470588237, 0.0333333351
   8007,  0.828571439,  0.529411793, 0.0333333351
   8008,  0.828571439,  0.588235319, 0.0333333351
   8009,  0.828571439,  0.647058845, 0.0333333351
   8010,  0.828571439,   0.70588237, 0.0333333351
   8011,  0.828571439,  0.764705896, 0.0333333351
   8012,  0.828571439,  0.823529422, 0.0333333351
   8013,  0.828571439,  0.882352948, 0.0333333351
   8014,  0.828571439,  0.941176474, 0.0333333351
   8015,  0.828571439,           1., 0.0333333351
   8016,  0.828571439,          -1., 0.0166666675
   8017,  0.828571439, -0.941176474, 0.0166666675
   8018,  0.828571439, -0.882352948, 0.0166666675
   8019,  0.828571439, -0.823529422, 0.0166666675
   8020,  0.828571439, -0.764705896, 0.0166666675
   8021,  0.828571439,  -0.70588237, 0.0166666675
   8022,  0.828571439, -0.647058845, 0.0166666675
   8023,  0.828571439, -0.588235319, 0.0166666675
   8024,  0.828571439, -0.529411793, 0.0166666675
   8025,  0.828571439, -0.470588237, 0.0166666675
   8026,  0.828571439, -0.411764711, 0.0166666675
   8027,  0.828571439, -0.352941185, 0.0166666675
   8028,  0.828571439, -0.294117659, 0.0166666675
   8029,  0.828571439, -0.235294119, 0.0166666675
   8030,  0.828571439, -0.176470593, 0.0166666675
   8031,  0.828571439, -0.117647059, 0.0166666675
   8032,  0.828571439, -0.0588235296, 0.0166666675
   8033,  0.828571439,           0., 0.0166666675
   8034,  0.828571439, 0.0588235296, 0.0166666675
   8035,  0.828571439,  0.117647059, 0.0166666675
   8036,  0.828571439,  0.176470593, 0.0166666675
   8037,  0.828571439,  0.235294119, 0.0166666675
   8038,  0.828571439,  0.294117659, 0.0166666675
   8039,  0.828571439,  0.352941185, 0.0166666675
   8040,  0.828571439,  0.411764711, 0.0166666675
   8041,  0.828571439,  0.470588237, 0.0166666675
   8042,  0.828571439,  0.529411793, 0.0166666675
   8043,  0.828571439,  0.588235319, 0.0166666675
   8044,  0.828571439,  0.647058845, 0.0166666675
   8045,  0.828571439,   0.70588237, 0.0166666675
   8046,  0.828571439,  0.764705896, 0.0166666675
   8047,  0.828571439,  0.823529422, 0.0166666675
   8048,  0.828571439,  0.882352948, 0.0166666675
   8049,  0.828571439,  0.941176474, 0.0166666675
   8050,  0.828571439,           1., 0.0166666675
   8051,  0.828571439,          -1.,           0.
   8052,  0.828571439, -0.941176474,           0.
   8053,  0.828571439, -0.882352948,           0.
   8054,  0.828571439, -0.823529422,           0.
   8055,  0.828571439, -0.764705896,           0.
   8056,  0.828571439,  -0.70588237,           0.
   8057,  0.828571439, -0.647058845,           0.
   8058,  0.828571439, -0.588235319,           0.
   8059,  0.828571439, -0.529411793,           0.
   8060,  0.828571439, -0.470588237,           0.
   8061,  0.828571439, -0.411764711,           0.
   8062,  0.828571439, -0.352941185,           0.
   8063,  0.828571439, -0.294117659,           0.
   8064,  0.828571439, -0.235294119,           0.
   8065,  0.828571439, -0.176470593,           0.
   8066,  0.828571439, -0.117647059,           0.
   8067,  0.828571439, -0.0588235296,           0.
   8068,  0.828571439,           0.,           0.
   8069,  0.828571439, 0.0588235296,           0.
   8070,  0.828571439,  0.117647059,           0.
   8071,  0.828571439,  0.176470593,           0.
   8072,  0.828571439,  0.235294119,           0.
   8073,  0.828571439,  0.294117659,           0.
   8074,  0.828571439,  0.352941185,           0.
   8075,  0.828571439,  0.411764711,           0.
   8076,  0.828571439,  0.470588237,           0.
   8077,  0.828571439,  0.529411793,           0.
   8078,  0.828571439,  0.588235319,           0.
   8079,  0.828571439,  0.647058845,           0.
   8080,  0.828571439,   0.70588237,           0.
   8081,  0.828571439,  0.764705896,           0.
   8082,  0.828571439,  0.823529422,           0.
   8083,  0.828571439,  0.882352948,           0.
   8084,  0.828571439,  0.941176474,           0.
   8085,  0.828571439,           1.,           0.
   8086,  0.885714293,          -1.,  0.100000001
   8087,  0.885714293, -0.941176474,  0.100000001
   8088,  0.885714293, -0.882352948,  0.100000001
   8089,  0.885714293, -0.823529422,  0.100000001
   8090,  0.885714293, -0.764705896,  0.100000001
   8091,  0.885714293,  -0.70588237,  0.100000001
   8092,  0.885714293, -0.647058845,  0.100000001
   8093,  0.885714293, -0.588235319,  0.100000001
   8094,  0.885714293, -0.529411793,  0.100000001
   8095,  0.885714293, -0.470588237,  0.100000001
   8096,  0.885714293, -0.411764711,  0.100000001
   8097,  0.885714293, -0.352941185,  0.100000001
   8098,  0.885714293, -0.294117659,  0.100000001
   8099,  0.885714293, -0.235294119,  0.100000001
   8100,  0.885714293, -0.176470593,  0.100000001
   8101,  0.885714293, -0.117647059,  0.100000001
   8102,  0.885714293, -0.0588235296,  0.100000001
   8103,  0.885714293,           0.,  0.100000001
   8104,  0.885714293, 0.0588235296,  0.100000001
   8105,  0.885714293,  0.117647059,  0.100000001
   8106,  0.885714293,  0.176470593,  0.100000001
   8107,  0.885714293,  0.235294119,  0.100000001
   8108,  0.885714293,  0.294117659,  0.100000001
   8109,  0.885714293,  0.352941185,  0.100000001
   8110,  0.885714293,  0.411764711,  0.100000001
   8111,  0.885714293,  0.470588237,  0.100000001
   8112,  0.885714293,  0.529411793,  0.100000001
   8113,  0.885714293,  0.588235319,  0.100000001
   8114,  0.885714293,  0.647058845,  0.100000001
   8115,  0.885714293,   0.70588237,  0.100000001
   8116,  0.885714293,  0.764705896,  0.100000001
   8117,  0.885714293,  0.823529422,  0.100000001
   8118,  0.885714293,  0.882352948,  0.100000001
   8119,  0.885714293,  0.941176474,  0.100000001
   8120,  0.885714293,           1.,  0.100000001
   8121,  0.885714293,          -1., 0.0833333358
   8122,  0.885714293, -0.941176474, 0.0833333358
   8123,  0.885714293, -0.882352948, 0.0833333358
   8124,  0.885714293, -0.823529422, 0.0833333358
   8125,  0.885714293, -0.764705896, 0.0833333358
   8126,  0.885714293,  -0.70588237, 0.0833333358
   8127,  0.885714293, -0.647058845, 0.0833333358
   8128,  0.885714293, -0.588235319, 0.0833333358
   8129,  0.885714293, -0.529411793, 0.0833333358
   8130,  0.885714293, -0.470588237, 0.0833333358
   8131,  0.885714293, -0.411764711, 0.0833333358
   8132,  0.885714293, -0.352941185, 0.0833333358
   8133,  0.885714293, -0.294117659, 0.0833333358
   8134,  0.885714293, -0.235294119, 0.0833333358
   8135,  0.885714293, -0.176470593, 0.0833333358
   8136,  0.885714293, -0.117647059, 0.0833333358
   8137,  0.885714293, -0.0588235296, 0.0833333358
   8138,  0.885714293,           0., 0.0833333358
   8139,  0.885714293, 0.0588235296, 0.0833333358
   8140,  0.885714293,  0.117647059, 0.0833333358
   8141,  0.885714293,  0.176470593, 0.0833333358
   8142,  0.885714293,  0.235294119, 0.0833333358
   8143,  0.885714293,  0.294117659, 0.0833333358
   8144,  0.885714293,  0.352941185, 0.0833333358
   8145,  0.885714293,  0.411764711, 0.0833333358
   8146,  0.885714293,  0.470588237, 0.0833333358
   8147,  0.885714293,  0.529411793, 0.0833333358
   8148,  0.885714293,  0.588235319, 0.0833333358
   8149,  0.885714293,  0.647058845, 0.0833333358
   8150,  0.885714293,   0.70588237, 0.0833333358
   8151,  0.885714293,  0.764705896, 0.0833333358
   8152,  0.885714293,  0.823529422, 0.0833333358
   8153,  0.885714293,  0.882352948, 0.0833333358
   8154,  0.885714293,  0.941176474, 0.0833333358
   8155,  0.885714293,           1., 0.0833333358
   8156,  0.885714293,          -1., 0.0666666701
   8157,  0.885714293, -0.941176474, 0.0666666701
   8158,  0.885714293, -0.882352948, 0.0666666701
   8159,  0.885714293, -0.823529422, 0.0666666701
   8160,  0.885714293, -0.764705896, 0.0666666701
   8161,  0.885714293,  -0.70588237, 0.0666666701
   8162,  0.885714293, -0.647058845, 0.0666666701
   8163,  0.885714293, -0.588235319, 0.0666666701
   8164,  0.885714293, -0.529411793, 0.0666666701
   8165,  0.885714293, -0.470588237, 0.0666666701
   8166,  0.885714293, -0.411764711, 0.0666666701
   8167,  0.885714293, -0.352941185, 0.0666666701
   8168,  0.885714293, -0.294117659, 0.0666666701
   8169,  0.885714293, -0.235294119, 0.0666666701
   8170,  0.885714293, -0.176470593, 0.0666666701
   8171,  0.885714293, -0.117647059, 0.0666666701
   8172,  0.885714293, -0.0588235296, 0.0666666701
   8173,  0.885714293,           0., 0.0666666701
   8174,  0.885714293, 0.0588235296, 0.0666666701
   8175,  0.885714293,  0.117647059, 0.0666666701
   8176,  0.885714293,  0.176470593, 0.0666666701
   8177,  0.885714293,  0.235294119, 0.0666666701
   8178,  0.885714293,  0.294117659, 0.0666666701
   8179,  0.885714293,  0.352941185, 0.0666666701
   8180,  0.885714293,  0.411764711, 0.0666666701
   8181,  0.885714293,  0.470588237, 0.0666666701
   8182,  0.885714293,  0.529411793, 0.0666666701
   8183,  0.885714293,  0.588235319, 0.0666666701
   8184,  0.885714293,  0.647058845, 0.0666666701
   8185,  0.885714293,   0.70588237, 0.0666666701
   8186,  0.885714293,  0.764705896, 0.0666666701
   8187,  0.885714293,  0.823529422, 0.0666666701
   8188,  0.885714293,  0.882352948, 0.0666666701
   8189,  0.885714293,  0.941176474, 0.0666666701
   8190,  0.885714293,           1., 0.0666666701
   8191,  0.885714293,          -1., 0.0500000007
   8192,  0.885714293, -0.941176474, 0.0500000007
   8193,  0.885714293, -0.882352948, 0.0500000007
   8194,  0.885714293, -0.823529422, 0.0500000007
   8195,  0.885714293, -0.764705896, 0.0500000007
   8196,  0.885714293,  -0.70588237, 0.0500000007
   8197,  0.885714293, -0.647058845, 0.0500000007
   8198,  0.885714293, -0.588235319, 0.0500000007
   8199,  0.885714293, -0.529411793, 0.0500000007
   8200,  0.885714293, -0.470588237, 0.0500000007
   8201,  0.885714293, -0.411764711, 0.0500000007
   8202,  0.885714293, -0.352941185, 0.0500000007
   8203,  0.885714293, -0.294117659, 0.0500000007
   8204,  0.885714293, -0.235294119, 0.0500000007
   8205,  0.885714293, -0.176470593, 0.0500000007
   8206,  0.885714293, -0.117647059, 0.0500000007
   8207,  0.885714293, -0.0588235296, 0.0500000007
   8208,  0.885714293,           0., 0.0500000007
   8209,  0.885714293, 0.0588235296, 0.0500000007
   8210,  0.885714293,  0.117647059, 0.0500000007
   8211,  0.885714293,  0.176470593, 0.0500000007
   8212,  0.885714293,  0.235294119, 0.0500000007
   8213,  0.885714293,  0.294117659, 0.0500000007
   8214,  0.885714293,  0.352941185, 0.0500000007
   8215,  0.885714293,  0.411764711, 0.0500000007
   8216,  0.885714293,  0.470588237, 0.0500000007
   8217,  0.885714293,  0.529411793, 0.0500000007
   8218,  0.885714293,  0.588235319, 0.0500000007
   8219,  0.885714293,  0.647058845, 0.0500000007
   8220,  0.885714293,   0.70588237, 0.0500000007
   8221,  0.885714293,  0.764705896, 0.0500000007
   8222,  0.885714293,  0.823529422, 0.0500000007
   8223,  0.885714293,  0.882352948, 0.0500000007
   8224,  0.885714293,  0.941176474, 0.0500000007
   8225,  0.885714293,           1., 0.0500000007
   8226,  0.885714293,          -1., 0.0333333351
   8227,  0.885714293, -0.941176474, 0.0333333351
   8228,  0.885714293, -0.882352948, 0.0333333351
   8229,  0.885714293, -0.823529422, 0.0333333351
   8230,  0.885714293, -0.764705896, 0.0333333351
   8231,  0.885714293,  -0.70588237, 0.0333333351
   8232,  0.885714293, -0.647058845, 0.0333333351
   8233,  0.885714293, -0.588235319, 0.0333333351
   8234,  0.885714293, -0.529411793, 0.0333333351
   8235,  0.885714293, -0.470588237, 0.0333333351
   8236,  0.885714293, -0.411764711, 0.0333333351
   8237,  0.885714293, -0.352941185, 0.0333333351
   8238,  0.885714293, -0.294117659, 0.0333333351
   8239,  0.885714293, -0.235294119, 0.0333333351
   8240,  0.885714293, -0.176470593, 0.0333333351
   8241,  0.885714293, -0.117647059, 0.0333333351
   8242,  0.885714293, -0.0588235296, 0.0333333351
   8243,  0.885714293,           0., 0.0333333351
   8244,  0.885714293, 0.0588235296, 0.0333333351
   8245,  0.885714293,  0.117647059, 0.0333333351
   8246,  0.885714293,  0.176470593, 0.0333333351
   8247,  0.885714293,  0.235294119, 0.0333333351
   8248,  0.885714293,  0.294117659, 0.0333333351
   8249,  0.885714293,  0.352941185, 0.0333333351
   8250,  0.885714293,  0.411764711, 0.0333333351
   8251,  0.885714293,  0.470588237, 0.0333333351
   8252,  0.885714293,  0.529411793, 0.0333333351
   8253,  0.885714293,  0.588235319, 0.0333333351
   8254,  0.885714293,  0.647058845, 0.0333333351
   8255,  0.885714293,   0.70588237, 0.0333333351
   8256,  0.885714293,  0.764705896, 0.0333333351
   8257,  0.885714293,  0.823529422, 0.0333333351
   8258,  0.885714293,  0.882352948, 0.0333333351
   8259,  0.885714293,  0.941176474, 0.0333333351
   8260,  0.885714293,           1., 0.0333333351
   8261,  0.885714293,          -1., 0.0166666675
   8262,  0.885714293, -0.941176474, 0.0166666675
   8263,  0.885714293, -0.882352948, 0.0166666675
   8264,  0.885714293, -0.823529422, 0.0166666675
   8265,  0.885714293, -0.764705896, 0.0166666675
   8266,  0.885714293,  -0.70588237, 0.0166666675
   8267,  0.885714293, -0.647058845, 0.0166666675
   8268,  0.885714293, -0.588235319, 0.0166666675
   8269,  0.885714293, -0.529411793, 0.0166666675
   8270,  0.885714293, -0.470588237, 0.0166666675
   8271,  0.885714293, -0.411764711, 0.0166666675
   8272,  0.885714293, -0.352941185, 0.0166666675
   8273,  0.885714293, -0.294117659, 0.0166666675
   8274,  0.885714293, -0.235294119, 0.0166666675
   8275,  0.885714293, -0.176470593, 0.0166666675
   8276,  0.885714293, -0.117647059, 0.0166666675
   8277,  0.885714293, -0.0588235296, 0.0166666675
   8278,  0.885714293,           0., 0.0166666675
   8279,  0.885714293, 0.0588235296, 0.0166666675
   8280,  0.885714293,  0.117647059, 0.0166666675
   8281,  0.885714293,  0.176470593, 0.0166666675
   8282,  0.885714293,  0.235294119, 0.0166666675
   8283,  0.885714293,  0.294117659, 0.0166666675
   8284,  0.885714293,  0.352941185, 0.0166666675
   8285,  0.885714293,  0.411764711, 0.0166666675
   8286,  0.885714293,  0.470588237, 0.0166666675
   8287,  0.885714293,  0.529411793, 0.0166666675
   8288,  0.885714293,  0.588235319, 0.0166666675
   8289,  0.885714293,  0.647058845, 0.0166666675
   8290,  0.885714293,   0.70588237, 0.0166666675
   8291,  0.885714293,  0.764705896, 0.0166666675
   8292,  0.885714293,  0.823529422, 0.0166666675
   8293,  0.885714293,  0.882352948, 0.0166666675
   8294,  0.885714293,  0.941176474, 0.0166666675
   8295,  0.885714293,           1., 0.0166666675
   8296,  0.885714293,          -1.,           0.
   8297,  0.885714293, -0.941176474,           0.
   8298,  0.885714293, -0.882352948,           0.
   8299,  0.885714293, -0.823529422,           0.
   8300,  0.885714293, -0.764705896,           0.
   8301,  0.885714293,  -0.70588237,           0.
   8302,  0.885714293, -0.647058845,           0.
   8303,  0.885714293, -0.588235319,           0.
   8304,  0.885714293, -0.529411793,           0.
   8305,  0.885714293, -0.470588237,           0.
   8306,  0.885714293, -0.411764711,           0.
   8307,  0.885714293, -0.352941185,           0.
   8308,  0.885714293, -0.294117659,           0.
   8309,  0.885714293, -0.235294119,           0.
   8310,  0.885714293, -0.176470593,           0.
   8311,  0.885714293, -0.117647059,           0.
   8312,  0.885714293, -0.0588235296,           0.
   8313,  0.885714293,           0.,           0.
   8314,  0.885714293, 0.0588235296,           0.
   8315,  0.885714293,  0.117647059,           0.
   8316,  0.885714293,  0.176470593,           0.
   8317,  0.885714293,  0.235294119,           0.
   8318,  0.885714293,  0.294117659,           0.
   8319,  0.885714293,  0.352941185,           0.
   8320,  0.885714293,  0.411764711,           0.
   8321,  0.885714293,  0.470588237,           0.
   8322,  0.885714293,  0.529411793,           0.
   8323,  0.885714293,  0.588235319,           0.
   8324,  0.885714293,  0.647058845,           0.
   8325,  0.885714293,   0.70588237,           0.
   8326,  0.885714293,  0.764705896,           0.
   8327,  0.885714293,  0.823529422,           0.
   8328,  0.885714293,  0.882352948,           0.
   8329,  0.885714293,  0.941176474,           0.
   8330,  0.885714293,           1.,           0.
   8331,  0.942857146,          -1.,  0.100000001
   8332,  0.942857146, -0.941176474,  0.100000001
   8333,  0.942857146, -0.882352948,  0.100000001
   8334,  0.942857146, -0.823529422,  0.100000001
   8335,  0.942857146, -0.764705896,  0.100000001
   8336,  0.942857146,  -0.70588237,  0.100000001
   8337,  0.942857146, -0.647058845,  0.100000001
   8338,  0.942857146, -0.588235319,  0.100000001
   8339,  0.942857146, -0.529411793,  0.100000001
   8340,  0.942857146, -0.470588237,  0.100000001
   8341,  0.942857146, -0.411764711,  0.100000001
   8342,  0.942857146, -0.352941185,  0.100000001
   8343,  0.942857146, -0.294117659,  0.100000001
   8344,  0.942857146, -0.235294119,  0.100000001
   8345,  0.942857146, -0.176470593,  0.100000001
   8346,  0.942857146, -0.117647059,  0.100000001
   8347,  0.942857146, -0.0588235296,  0.100000001
   8348,  0.942857146,           0.,  0.100000001
   8349,  0.942857146, 0.0588235296,  0.100000001
   8350,  0.942857146,  0.117647059,  0.100000001
   8351,  0.942857146,  0.176470593,  0.100000001
   8352,  0.942857146,  0.235294119,  0.100000001
   8353,  0.942857146,  0.294117659,  0.100000001
   8354,  0.942857146,  0.352941185,  0.100000001
   8355,  0.942857146,  0.411764711,  0.100000001
   8356,  0.942857146,  0.470588237,  0.100000001
   8357,  0.942857146,  0.529411793,  0.100000001
   8358,  0.942857146,  0.588235319,  0.100000001
   8359,  0.942857146,  0.647058845,  0.100000001
   8360,  0.942857146,   0.70588237,  0.100000001
   8361,  0.942857146,  0.764705896,  0.100000001
   8362,  0.942857146,  0.823529422,  0.100000001
   8363,  0.942857146,  0.882352948,  0.100000001
   8364,  0.942857146,  0.941176474,  0.100000001
   8365,  0.942857146,           1.,  0.100000001
   8366,  0.942857146,          -1., 0.0833333358
   8367,  0.942857146, -0.941176474, 0.0833333358
   8368,  0.942857146, -0.882352948, 0.0833333358
   8369,  0.942857146, -0.823529422, 0.0833333358
   8370,  0.942857146, -0.764705896, 0.0833333358
   8371,  0.942857146,  -0.70588237, 0.0833333358
   8372,  0.942857146, -0.647058845, 0.0833333358
   8373,  0.942857146, -0.588235319, 0.0833333358
   8374,  0.942857146, -0.529411793, 0.0833333358
   8375,  0.942857146, -0.470588237, 0.0833333358
   8376,  0.942857146, -0.411764711, 0.0833333358
   8377,  0.942857146, -0.352941185, 0.0833333358
   8378,  0.942857146, -0.294117659, 0.0833333358
   8379,  0.942857146, -0.235294119, 0.0833333358
   8380,  0.942857146, -0.176470593, 0.0833333358
   8381,  0.942857146, -0.117647059, 0.0833333358
   8382,  0.942857146, -0.0588235296, 0.0833333358
   8383,  0.942857146,           0., 0.0833333358
   8384,  0.942857146, 0.0588235296, 0.0833333358
   8385,  0.942857146,  0.117647059, 0.0833333358
   8386,  0.942857146,  0.176470593, 0.0833333358
   8387,  0.942857146,  0.235294119, 0.0833333358
   8388,  0.942857146,  0.294117659, 0.0833333358
   8389,  0.942857146,  0.352941185, 0.0833333358
   8390,  0.942857146,  0.411764711, 0.0833333358
   8391,  0.942857146,  0.470588237, 0.0833333358
   8392,  0.942857146,  0.529411793, 0.0833333358
   8393,  0.942857146,  0.588235319, 0.0833333358
   8394,  0.942857146,  0.647058845, 0.0833333358
   8395,  0.942857146,   0.70588237, 0.0833333358
   8396,  0.942857146,  0.764705896, 0.0833333358
   8397,  0.942857146,  0.823529422, 0.0833333358
   8398,  0.942857146,  0.882352948, 0.0833333358
   8399,  0.942857146,  0.941176474, 0.0833333358
   8400,  0.942857146,           1., 0.0833333358
   8401,  0.942857146,          -1., 0.0666666701
   8402,  0.942857146, -0.941176474, 0.0666666701
   8403,  0.942857146, -0.882352948, 0.0666666701
   8404,  0.942857146, -0.823529422, 0.0666666701
   8405,  0.942857146, -0.764705896, 0.0666666701
   8406,  0.942857146,  -0.70588237, 0.0666666701
   8407,  0.942857146, -0.647058845, 0.0666666701
   8408,  0.942857146, -0.588235319, 0.0666666701
   8409,  0.942857146, -0.529411793, 0.0666666701
   8410,  0.942857146, -0.470588237, 0.0666666701
   8411,  0.942857146, -0.411764711, 0.0666666701
   8412,  0.942857146, -0.352941185, 0.0666666701
   8413,  0.942857146, -0.294117659, 0.0666666701
   8414,  0.942857146, -0.235294119, 0.0666666701
   8415,  0.942857146, -0.176470593, 0.0666666701
   8416,  0.942857146, -0.117647059, 0.0666666701
   8417,  0.942857146, -0.0588235296, 0.0666666701
   8418,  0.942857146,           0., 0.0666666701
   8419,  0.942857146, 0.0588235296, 0.0666666701
   8420,  0.942857146,  0.117647059, 0.0666666701
   8421,  0.942857146,  0.176470593, 0.0666666701
   8422,  0.942857146,  0.235294119, 0.0666666701
   8423,  0.942857146,  0.294117659, 0.0666666701
   8424,  0.942857146,  0.352941185, 0.0666666701
   8425,  0.942857146,  0.411764711, 0.0666666701
   8426,  0.942857146,  0.470588237, 0.0666666701
   8427,  0.942857146,  0.529411793, 0.0666666701
   8428,  0.942857146,  0.588235319, 0.0666666701
   8429,  0.942857146,  0.647058845, 0.0666666701
   8430,  0.942857146,   0.70588237, 0.0666666701
   8431,  0.942857146,  0.764705896, 0.0666666701
   8432,  0.942857146,  0.823529422, 0.0666666701
   8433,  0.942857146,  0.882352948, 0.0666666701
   8434,  0.942857146,  0.941176474, 0.0666666701
   8435,  0.942857146,           1., 0.0666666701
   8436,  0.942857146,          -1., 0.0500000007
   8437,  0.942857146, -0.941176474, 0.0500000007
   8438,  0.942857146, -0.882352948, 0.0500000007
   8439,  0.942857146, -0.823529422, 0.0500000007
   8440,  0.942857146, -0.764705896, 0.0500000007
   8441,  0.942857146,  -0.70588237, 0.0500000007
   8442,  0.942857146, -0.647058845, 0.0500000007
   8443,  0.942857146, -0.588235319, 0.0500000007
   8444,  0.942857146, -0.529411793, 0.0500000007
   8445,  0.942857146, -0.470588237, 0.0500000007
   8446,  0.942857146, -0.411764711, 0.0500000007
   8447,  0.942857146, -0.352941185, 0.0500000007
   8448,  0.942857146, -0.294117659, 0.0500000007
   8449,  0.942857146, -0.235294119, 0.0500000007
   8450,  0.942857146, -0.176470593, 0.0500000007
   8451,  0.942857146, -0.117647059, 0.0500000007
   8452,  0.942857146, -0.0588235296, 0.0500000007
   8453,  0.942857146,           0., 0.0500000007
   8454,  0.942857146, 0.0588235296, 0.0500000007
   8455,  0.942857146,  0.117647059, 0.0500000007
   8456,  0.942857146,  0.176470593, 0.0500000007
   8457,  0.942857146,  0.235294119, 0.0500000007
   8458,  0.942857146,  0.294117659, 0.0500000007
   8459,  0.942857146,  0.352941185, 0.0500000007
   8460,  0.942857146,  0.411764711, 0.0500000007
   8461,  0.942857146,  0.470588237, 0.0500000007
   8462,  0.942857146,  0.529411793, 0.0500000007
   8463,  0.942857146,  0.588235319, 0.0500000007
   8464,  0.942857146,  0.647058845, 0.0500000007
   8465,  0.942857146,   0.70588237, 0.0500000007
   8466,  0.942857146,  0.764705896, 0.0500000007
   8467,  0.942857146,  0.823529422, 0.0500000007
   8468,  0.942857146,  0.882352948, 0.0500000007
   8469,  0.942857146,  0.941176474, 0.0500000007
   8470,  0.942857146,           1., 0.0500000007
   8471,  0.942857146,          -1., 0.0333333351
   8472,  0.942857146, -0.941176474, 0.0333333351
   8473,  0.942857146, -0.882352948, 0.0333333351
   8474,  0.942857146, -0.823529422, 0.0333333351
   8475,  0.942857146, -0.764705896, 0.0333333351
   8476,  0.942857146,  -0.70588237, 0.0333333351
   8477,  0.942857146, -0.647058845, 0.0333333351
   8478,  0.942857146, -0.588235319, 0.0333333351
   8479,  0.942857146, -0.529411793, 0.0333333351
   8480,  0.942857146, -0.470588237, 0.0333333351
   8481,  0.942857146, -0.411764711, 0.0333333351
   8482,  0.942857146, -0.352941185, 0.0333333351
   8483,  0.942857146, -0.294117659, 0.0333333351
   8484,  0.942857146, -0.235294119, 0.0333333351
   8485,  0.942857146, -0.176470593, 0.0333333351
   8486,  0.942857146, -0.117647059, 0.0333333351
   8487,  0.942857146, -0.0588235296, 0.0333333351
   8488,  0.942857146,           0., 0.0333333351
   8489,  0.942857146, 0.0588235296, 0.0333333351
   8490,  0.942857146,  0.117647059, 0.0333333351
   8491,  0.942857146,  0.176470593, 0.0333333351
   8492,  0.942857146,  0.235294119, 0.0333333351
   8493,  0.942857146,  0.294117659, 0.0333333351
   8494,  0.942857146,  0.352941185, 0.0333333351
   8495,  0.942857146,  0.411764711, 0.0333333351
   8496,  0.942857146,  0.470588237, 0.0333333351
   8497,  0.942857146,  0.529411793, 0.0333333351
   8498,  0.942857146,  0.588235319, 0.0333333351
   8499,  0.942857146,  0.647058845, 0.0333333351
   8500,  0.942857146,   0.70588237, 0.0333333351
   8501,  0.942857146,  0.764705896, 0.0333333351
   8502,  0.942857146,  0.823529422, 0.0333333351
   8503,  0.942857146,  0.882352948, 0.0333333351
   8504,  0.942857146,  0.941176474, 0.0333333351
   8505,  0.942857146,           1., 0.0333333351
   8506,  0.942857146,          -1., 0.0166666675
   8507,  0.942857146, -0.941176474, 0.0166666675
   8508,  0.942857146, -0.882352948, 0.0166666675
   8509,  0.942857146, -0.823529422, 0.0166666675
   8510,  0.942857146, -0.764705896, 0.0166666675
   8511,  0.942857146,  -0.70588237, 0.0166666675
   8512,  0.942857146, -0.647058845, 0.0166666675
   8513,  0.942857146, -0.588235319, 0.0166666675
   8514,  0.942857146, -0.529411793, 0.0166666675
   8515,  0.942857146, -0.470588237, 0.0166666675
   8516,  0.942857146, -0.411764711, 0.0166666675
   8517,  0.942857146, -0.352941185, 0.0166666675
   8518,  0.942857146, -0.294117659, 0.0166666675
   8519,  0.942857146, -0.235294119, 0.0166666675
   8520,  0.942857146, -0.176470593, 0.0166666675
   8521,  0.942857146, -0.117647059, 0.0166666675
   8522,  0.942857146, -0.0588235296, 0.0166666675
   8523,  0.942857146,           0., 0.0166666675
   8524,  0.942857146, 0.0588235296, 0.0166666675
   8525,  0.942857146,  0.117647059, 0.0166666675
   8526,  0.942857146,  0.176470593, 0.0166666675
   8527,  0.942857146,  0.235294119, 0.0166666675
   8528,  0.942857146,  0.294117659, 0.0166666675
   8529,  0.942857146,  0.352941185, 0.0166666675
   8530,  0.942857146,  0.411764711, 0.0166666675
   8531,  0.942857146,  0.470588237, 0.0166666675
   8532,  0.942857146,  0.529411793, 0.0166666675
   8533,  0.942857146,  0.588235319, 0.0166666675
   8534,  0.942857146,  0.647058845, 0.0166666675
   8535,  0.942857146,   0.70588237, 0.0166666675
   8536,  0.942857146,  0.764705896, 0.0166666675
   8537,  0.942857146,  0.823529422, 0.0166666675
   8538,  0.942857146,  0.882352948, 0.0166666675
   8539,  0.942857146,  0.941176474, 0.0166666675
   8540,  0.942857146,           1., 0.0166666675
   8541,  0.942857146,          -1.,           0.
   8542,  0.942857146, -0.941176474,           0.
   8543,  0.942857146, -0.882352948,           0.
   8544,  0.942857146, -0.823529422,           0.
   8545,  0.942857146, -0.764705896,           0.
   8546,  0.942857146,  -0.70588237,           0.
   8547,  0.942857146, -0.647058845,           0.
   8548,  0.942857146, -0.588235319,           0.
   8549,  0.942857146, -0.529411793,           0.
   8550,  0.942857146, -0.470588237,           0.
   8551,  0.942857146, -0.411764711,           0.
   8552,  0.942857146, -0.352941185,           0.
   8553,  0.942857146, -0.294117659,           0.
   8554,  0.942857146, -0.235294119,           0.
   8555,  0.942857146, -0.176470593,           0.
   8556,  0.942857146, -0.117647059,           0.
   8557,  0.942857146, -0.0588235296,           0.
   8558,  0.942857146,           0.,           0.
   8559,  0.942857146, 0.0588235296,           0.
   8560,  0.942857146,  0.117647059,           0.
   8561,  0.942857146,  0.176470593,           0.
   8562,  0.942857146,  0.235294119,           0.
   8563,  0.942857146,  0.294117659,           0.
   8564,  0.942857146,  0.352941185,           0.
   8565,  0.942857146,  0.411764711,           0.
   8566,  0.942857146,  0.470588237,           0.
   8567,  0.942857146,  0.529411793,           0.
   8568,  0.942857146,  0.588235319,           0.
   8569,  0.942857146,  0.647058845,           0.
   8570,  0.942857146,   0.70588237,           0.
   8571,  0.942857146,  0.764705896,           0.
   8572,  0.942857146,  0.823529422,           0.
   8573,  0.942857146,  0.882352948,           0.
   8574,  0.942857146,  0.941176474,           0.
   8575,  0.942857146,           1.,           0.
   8576,           1.,          -1.,  0.100000001
   8577,           1., -0.941176474,  0.100000001
   8578,           1., -0.882352948,  0.100000001
   8579,           1., -0.823529422,  0.100000001
   8580,           1., -0.764705896,  0.100000001
   8581,           1.,  -0.70588237,  0.100000001
   8582,           1., -0.647058845,  0.100000001
   8583,           1., -0.588235319,  0.100000001
   8584,           1., -0.529411793,  0.100000001
   8585,           1., -0.470588237,  0.100000001
   8586,           1., -0.411764711,  0.100000001
   8587,           1., -0.352941185,  0.100000001
   8588,           1., -0.294117659,  0.100000001
   8589,           1., -0.235294119,  0.100000001
   8590,           1., -0.176470593,  0.100000001
   8591,           1., -0.117647059,  0.100000001
   8592,           1., -0.0588235296,  0.100000001
   8593,           1.,           0.,  0.100000001
   8594,           1., 0.0588235296,  0.100000001
   8595,           1.,  0.117647059,  0.100000001
   8596,           1.,  0.176470593,  0.100000001
   8597,           1.,  0.235294119,  0.100000001
   8598,           1.,  0.294117659,  0.100000001
   8599,           1.,  0.352941185,  0.100000001
   8600,           1.,  0.411764711,  0.100000001
   8601,           1.,  0.470588237,  0.100000001
   8602,           1.,  0.529411793,  0.100000001
   8603,           1.,  0.588235319,  0.100000001
   8604,           1.,  0.647058845,  0.100000001
   8605,           1.,   0.70588237,  0.100000001
   8606,           1.,  0.764705896,  0.100000001
   8607,           1.,  0.823529422,  0.100000001
   8608,           1.,  0.882352948,  0.100000001
   8609,           1.,  0.941176474,  0.100000001
   8610,           1.,           1.,  0.100000001
   8611,           1.,          -1., 0.0833333358
   8612,           1., -0.941176474, 0.0833333358
   8613,           1., -0.882352948, 0.0833333358
   8614,           1., -0.823529422, 0.0833333358
   8615,           1., -0.764705896, 0.0833333358
   8616,           1.,  -0.70588237, 0.0833333358
   8617,           1., -0.647058845, 0.0833333358
   8618,           1., -0.588235319, 0.0833333358
   8619,           1., -0.529411793, 0.0833333358
   8620,           1., -0.470588237, 0.0833333358
   8621,           1., -0.411764711, 0.0833333358
   8622,           1., -0.352941185, 0.0833333358
   8623,           1., -0.294117659, 0.0833333358
   8624,           1., -0.235294119, 0.0833333358
   8625,           1., -0.176470593, 0.0833333358
   8626,           1., -0.117647059, 0.0833333358
   8627,           1., -0.0588235296, 0.0833333358
   8628,           1.,           0., 0.0833333358
   8629,           1., 0.0588235296, 0.0833333358
   8630,           1.,  0.117647059, 0.0833333358
   8631,           1.,  0.176470593, 0.0833333358
   8632,           1.,  0.235294119, 0.0833333358
   8633,           1.,  0.294117659, 0.0833333358
   8634,           1.,  0.352941185, 0.0833333358
   8635,           1.,  0.411764711, 0.0833333358
   8636,           1.,  0.470588237, 0.0833333358
   8637,           1.,  0.529411793, 0.0833333358
   8638,           1.,  0.588235319, 0.0833333358
   8639,           1.,  0.647058845, 0.0833333358
   8640,           1.,   0.70588237, 0.0833333358
   8641,           1.,  0.764705896, 0.0833333358
   8642,           1.,  0.823529422, 0.0833333358
   8643,           1.,  0.882352948, 0.0833333358
   8644,           1.,  0.941176474, 0.0833333358
   8645,           1.,           1., 0.0833333358
   8646,           1.,          -1., 0.0666666701
   8647,           1., -0.941176474, 0.0666666701
   8648,           1., -0.882352948, 0.0666666701
   8649,           1., -0.823529422, 0.0666666701
   8650,           1., -0.764705896, 0.0666666701
   8651,           1.,  -0.70588237, 0.0666666701
   8652,           1., -0.647058845, 0.0666666701
   8653,           1., -0.588235319, 0.0666666701
   8654,           1., -0.529411793, 0.0666666701
   8655,           1., -0.470588237, 0.0666666701
   8656,           1., -0.411764711, 0.0666666701
   8657,           1., -0.352941185, 0.0666666701
   8658,           1., -0.294117659, 0.0666666701
   8659,           1., -0.235294119, 0.0666666701
   8660,           1., -0.176470593, 0.0666666701
   8661,           1., -0.117647059, 0.0666666701
   8662,           1., -0.0588235296, 0.0666666701
   8663,           1.,           0., 0.0666666701
   8664,           1., 0.0588235296, 0.0666666701
   8665,           1.,  0.117647059, 0.0666666701
   8666,           1.,  0.176470593, 0.0666666701
   8667,           1.,  0.235294119, 0.0666666701
   8668,           1.,  0.294117659, 0.0666666701
   8669,           1.,  0.352941185, 0.0666666701
   8670,           1.,  0.411764711, 0.0666666701
   8671,           1.,  0.470588237, 0.0666666701
   8672,           1.,  0.529411793, 0.0666666701
   8673,           1.,  0.588235319, 0.0666666701
   8674,           1.,  0.647058845, 0.0666666701
   8675,           1.,   0.70588237, 0.0666666701
   8676,           1.,  0.764705896, 0.0666666701
   8677,           1.,  0.823529422, 0.0666666701
   8678,           1.,  0.882352948, 0.0666666701
   8679,           1.,  0.941176474, 0.0666666701
   8680,           1.,           1., 0.0666666701
   8681,           1.,          -1., 0.0500000007
   8682,           1., -0.941176474, 0.0500000007
   8683,           1., -0.882352948, 0.0500000007
   8684,           1., -0.823529422, 0.0500000007
   8685,           1., -0.764705896, 0.0500000007
   8686,           1.,  -0.70588237, 0.0500000007
   8687,           1., -0.647058845, 0.0500000007
   8688,           1., -0.588235319, 0.0500000007
   8689,           1., -0.529411793, 0.0500000007
   8690,           1., -0.470588237, 0.0500000007
   8691,           1., -0.411764711, 0.0500000007
   8692,           1., -0.352941185, 0.0500000007
   8693,           1., -0.294117659, 0.0500000007
   8694,           1., -0.235294119, 0.0500000007
   8695,           1., -0.176470593, 0.0500000007
   8696,           1., -0.117647059, 0.0500000007
   8697,           1., -0.0588235296, 0.0500000007
   8698,           1.,           0., 0.0500000007
   8699,           1., 0.0588235296, 0.0500000007
   8700,           1.,  0.117647059, 0.0500000007
   8701,           1.,  0.176470593, 0.0500000007
   8702,           1.,  0.235294119, 0.0500000007
   8703,           1.,  0.294117659, 0.0500000007
   8704,           1.,  0.352941185, 0.0500000007
   8705,           1.,  0.411764711, 0.0500000007
   8706,           1.,  0.470588237, 0.0500000007
   8707,           1.,  0.529411793, 0.0500000007
   8708,           1.,  0.588235319, 0.0500000007
   8709,           1.,  0.647058845, 0.0500000007
   8710,           1.,   0.70588237, 0.0500000007
   8711,           1.,  0.764705896, 0.0500000007
   8712,           1.,  0.823529422, 0.0500000007
   8713,           1.,  0.882352948, 0.0500000007
   8714,           1.,  0.941176474, 0.0500000007
   8715,           1.,           1., 0.0500000007
   8716,           1.,          -1., 0.0333333351
   8717,           1., -0.941176474, 0.0333333351
   8718,           1., -0.882352948, 0.0333333351
   8719,           1., -0.823529422, 0.0333333351
   8720,           1., -0.764705896, 0.0333333351
   8721,           1.,  -0.70588237, 0.0333333351
   8722,           1., -0.647058845, 0.0333333351
   8723,           1., -0.588235319, 0.0333333351
   8724,           1., -0.529411793, 0.0333333351
   8725,           1., -0.470588237, 0.0333333351
   8726,           1., -0.411764711, 0.0333333351
   8727,           1., -0.352941185, 0.0333333351
   8728,           1., -0.294117659, 0.0333333351
   8729,           1., -0.235294119, 0.0333333351
   8730,           1., -0.176470593, 0.0333333351
   8731,           1., -0.117647059, 0.0333333351
   8732,           1., -0.0588235296, 0.0333333351
   8733,           1.,           0., 0.0333333351
   8734,           1., 0.0588235296, 0.0333333351
   8735,           1.,  0.117647059, 0.0333333351
   8736,           1.,  0.176470593, 0.0333333351
   8737,           1.,  0.235294119, 0.0333333351
   8738,           1.,  0.294117659, 0.0333333351
   8739,           1.,  0.352941185, 0.0333333351
   8740,           1.,  0.411764711, 0.0333333351
   8741,           1.,  0.470588237, 0.0333333351
   8742,           1.,  0.529411793, 0.0333333351
   8743,           1.,  0.588235319, 0.0333333351
   8744,           1.,  0.647058845, 0.0333333351
   8745,           1.,   0.70588237, 0.0333333351
   8746,           1.,  0.764705896, 0.0333333351
   8747,           1.,  0.823529422, 0.0333333351
   8748,           1.,  0.882352948, 0.0333333351
   8749,           1.,  0.941176474, 0.0333333351
   8750,           1.,           1., 0.0333333351
   8751,           1.,          -1., 0.0166666675
   8752,           1., -0.941176474, 0.0166666675
   8753,           1., -0.882352948, 0.0166666675
   8754,           1., -0.823529422, 0.0166666675
   8755,           1., -0.764705896, 0.0166666675
   8756,           1.,  -0.70588237, 0.0166666675
   8757,           1., -0.647058845, 0.0166666675
   8758,           1., -0.588235319, 0.0166666675
   8759,           1., -0.529411793, 0.0166666675
   8760,           1., -0.470588237, 0.0166666675
   8761,           1., -0.411764711, 0.0166666675
   8762,           1., -0.352941185, 0.0166666675
   8763,           1., -0.294117659, 0.0166666675
   8764,           1., -0.235294119, 0.0166666675
   8765,           1., -0.176470593, 0.0166666675
   8766,           1., -0.117647059, 0.0166666675
   8767,           1., -0.0588235296, 0.0166666675
   8768,           1.,           0., 0.0166666675
   8769,           1., 0.0588235296, 0.0166666675
   8770,           1.,  0.117647059, 0.0166666675
   8771,           1.,  0.176470593, 0.0166666675
   8772,           1.,  0.235294119, 0.0166666675
   8773,           1.,  0.294117659, 0.0166666675
   8774,           1.,  0.352941185, 0.0166666675
   8775,           1.,  0.411764711, 0.0166666675
   8776,           1.,  0.470588237, 0.0166666675
   8777,           1.,  0.529411793, 0.0166666675
   8778,           1.,  0.588235319, 0.0166666675
   8779,           1.,  0.647058845, 0.0166666675
   8780,           1.,   0.70588237, 0.0166666675
   8781,           1.,  0.764705896, 0.0166666675
   8782,           1.,  0.823529422, 0.0166666675
   8783,           1.,  0.882352948, 0.0166666675
   8784,           1.,  0.941176474, 0.0166666675
   8785,           1.,           1., 0.0166666675
   8786,           1.,          -1.,           0.
   8787,           1., -0.941176474,           0.
   8788,           1., -0.882352948,           0.
   8789,           1., -0.823529422,           0.
   8790,           1., -0.764705896,           0.
   8791,           1.,  -0.70588237,           0.
   8792,           1., -0.647058845,           0.
   8793,           1., -0.588235319,           0.
   8794,           1., -0.529411793,           0.
   8795,           1., -0.470588237,           0.
   8796,           1., -0.411764711,           0.
   8797,           1., -0.352941185,           0.
   8798,           1., -0.294117659,           0.
   8799,           1., -0.235294119,           0.
   8800,           1., -0.176470593,           0.
   8801,           1., -0.117647059,           0.
   8802,           1., -0.0588235296,           0.
   8803,           1.,           0.,           0.
   8804,           1., 0.0588235296,           0.
   8805,           1.,  0.117647059,           0.
   8806,           1.,  0.176470593,           0.
   8807,           1.,  0.235294119,           0.
   8808,           1.,  0.294117659,           0.
   8809,           1.,  0.352941185,           0.
   8810,           1.,  0.411764711,           0.
   8811,           1.,  0.470588237,           0.
   8812,           1.,  0.529411793,           0.
   8813,           1.,  0.588235319,           0.
   8814,           1.,  0.647058845,           0.
   8815,           1.,   0.70588237,           0.
   8816,           1.,  0.764705896,           0.
   8817,           1.,  0.823529422,           0.
   8818,           1.,  0.882352948,           0.
   8819,           1.,  0.941176474,           0.
   8820,           1.,           1.,           0.
*Element, type=C3D8R
   1,  246,  247,  282,  281,    1,    2,   37,   36
   2,  247,  248,  283,  282,    2,    3,   38,   37
   3,  248,  249,  284,  283,    3,    4,   39,   38
   4,  249,  250,  285,  284,    4,    5,   40,   39
   5,  250,  251,  286,  285,    5,    6,   41,   40
   6,  251,  252,  287,  286,    6,    7,   42,   41
   7,  252,  253,  288,  287,    7,    8,   43,   42
   8,  253,  254,  289,  288,    8,    9,   44,   43
   9,  254,  255,  290,  289,    9,   10,   45,   44
  10,  255,  256,  291,  290,   10,   11,   46,   45
  11,  256,  257,  292,  291,   11,   12,   47,   46
  12,  257,  258,  293,  292,   12,   13,   48,   47
  13,  258,  259,  294,  293,   13,   14,   49,   48
  14,  259,  260,  295,  294,   14,   15,   50,   49
  15,  260,  261,  296,  295,   15,   16,   51,   50
  16,  261,  262,  297,  296,   16,   17,   52,   51
  17,  262,  263,  298,  297,   17,   18,   53,   52
  18,  263,  264,  299,  298,   18,   19,   54,   53
  19,  264,  265,  300,  299,   19,   20,   55,   54
  20,  265,  266,  301,  300,   20,   21,   56,   55
  21,  266,  267,  302,  301,   21,   22,   57,   56
  22,  267,  268,  303,  302,   22,   23,   58,   57
  23,  268,  269,  304,  303,   23,   24,   59,   58
  24,  269,  270,  305,  304,   24,   25,   60,   59
  25,  270,  271,  306,  305,   25,   26,   61,   60
  26,  271,  272,  307,  306,   26,   27,   62,   61
  27,  272,  273,  308,  307,   27,   28,   63,   62
  28,  273,  274,  309,  308,   28,   29,   64,   63
  29,  274,  275,  310,  309,   29,   30,   65,   64
  30,  275,  276,  311,  310,   30,   31,   66,   65
  31,  276,  277,  312,  311,   31,   32,   67,   66
  32,  277,  278,  313,  312,   32,   33,   68,   67
  33,  278,  279,  314,  313,   33,   34,   69,   68
  34,  279,  280,  315,  314,   34,   35,   70,   69
  35,  281,  282,  317,  316,   36,   37,   72,   71
  36,  282,  283,  318,  317,   37,   38,   73,   72
  37,  283,  284,  319,  318,   38,   39,   74,   73
  38,  284,  285,  320,  319,   39,   40,   75,   74
  39,  285,  286,  321,  320,   40,   41,   76,   75
  40,  286,  287,  322,  321,   41,   42,   77,   76
  41,  287,  288,  323,  322,   42,   43,   78,   77
  42,  288,  289,  324,  323,   43,   44,   79,   78
  43,  289,  290,  325,  324,   44,   45,   80,   79
  44,  290,  291,  326,  325,   45,   46,   81,   80
  45,  291,  292,  327,  326,   46,   47,   82,   81
  46,  292,  293,  328,  327,   47,   48,   83,   82
  47,  293,  294,  329,  328,   48,   49,   84,   83
  48,  294,  295,  330,  329,   49,   50,   85,   84
  49,  295,  296,  331,  330,   50,   51,   86,   85
  50,  296,  297,  332,  331,   51,   52,   87,   86
  51,  297,  298,  333,  332,   52,   53,   88,   87
  52,  298,  299,  334,  333,   53,   54,   89,   88
  53,  299,  300,  335,  334,   54,   55,   90,   89
  54,  300,  301,  336,  335,   55,   56,   91,   90
  55,  301,  302,  337,  336,   56,   57,   92,   91
  56,  302,  303,  338,  337,   57,   58,   93,   92
  57,  303,  304,  339,  338,   58,   59,   94,   93
  58,  304,  305,  340,  339,   59,   60,   95,   94
  59,  305,  306,  341,  340,   60,   61,   96,   95
  60,  306,  307,  342,  341,   61,   62,   97,   96
  61,  307,  308,  343,  342,   62,   63,   98,   97
  62,  308,  309,  344,  343,   63,   64,   99,   98
  63,  309,  310,  345,  344,   64,   65,  100,   99
  64,  310,  311,  346,  345,   65,   66,  101,  100
  65,  311,  312,  347,  346,   66,   67,  102,  101
  66,  312,  313,  348,  347,   67,   68,  103,  102
  67,  313,  314,  349,  348,   68,   69,  104,  103
  68,  314,  315,  350,  349,   69,   70,  105,  104
  69,  316,  317,  352,  351,   71,   72,  107,  106
  70,  317,  318,  353,  352,   72,   73,  108,  107
  71,  318,  319,  354,  353,   73,   74,  109,  108
  72,  319,  320,  355,  354,   74,   75,  110,  109
  73,  320,  321,  356,  355,   75,   76,  111,  110
  74,  321,  322,  357,  356,   76,   77,  112,  111
  75,  322,  323,  358,  357,   77,   78,  113,  112
  76,  323,  324,  359,  358,   78,   79,  114,  113
  77,  324,  325,  360,  359,   79,   80,  115,  114
  78,  325,  326,  361,  360,   80,   81,  116,  115
  79,  326,  327,  362,  361,   81,   82,  117,  116
  80,  327,  328,  363,  362,   82,   83,  118,  117
  81,  328,  329,  364,  363,   83,   84,  119,  118
  82,  329,  330,  365,  364,   84,   85,  120,  119
  83,  330,  331,  366,  365,   85,   86,  121,  120
  84,  331,  332,  367,  366,   86,   87,  122,  121
  85,  332,  333,  368,  367,   87,   88,  123,  122
  86,  333,  334,  369,  368,   88,   89,  124,  123
  87,  334,  335,  370,  369,   89,   90,  125,  124
  88,  335,  336,  371,  370,   90,   91,  126,  125
  89,  336,  337,  372,  371,   91,   92,  127,  126
  90,  337,  338,  373,  372,   92,   93,  128,  127
  91,  338,  339,  374,  373,   93,   94,  129,  128
  92,  339,  340,  375,  374,   94,   95,  130,  129
  93,  340,  341,  376,  375,   95,   96,  131,  130
  94,  341,  342,  377,  376,   96,   97,  132,  131
  95,  342,  343,  378,  377,   97,   98,  133,  132
  96,  343,  344,  379,  378,   98,   99,  134,  133
  97,  344,  345,  380,  379,   99,  100,  135,  134
  98,  345,  346,  381,  380,  100,  101,  136,  135
  99,  346,  347,  382,  381,  101,  102,  137,  136
 100,  347,  348,  383,  382,  102,  103,  138,  137
 101,  348,  349,  384,  383,  103,  104,  139,  138
 102,  349,  350,  385,  384,  104,  105,  140,  139
 103,  351,  352,  387,  386,  106,  107,  142,  141
 104,  352,  353,  388,  387,  107,  108,  143,  142
 105,  353,  354,  389,  388,  108,  109,  144,  143
 106,  354,  355,  390,  389,  109,  110,  145,  144
 107,  355,  356,  391,  390,  110,  111,  146,  145
 108,  356,  357,  392,  391,  111,  112,  147,  146
 109,  357,  358,  393,  392,  112,  113,  148,  147
 110,  358,  359,  394,  393,  113,  114,  149,  148
 111,  359,  360,  395,  394,  114,  115,  150,  149
 112,  360,  361,  396,  395,  115,  116,  151,  150
 113,  361,  362,  397,  396,  116,  117,  152,  151
 114,  362,  363,  398,  397,  117,  118,  153,  152
 115,  363,  364,  399,  398,  118,  119,  154,  153
 116,  364,  365,  400,  399,  119,  120,  155,  154
 117,  365,  366,  401,  400,  120,  121,  156,  155
 118,  366,  367,  402,  401,  121,  122,  157,  156
 119,  367,  368,  403,  402,  122,  123,  158,  157
 120,  368,  369,  404,  403,  123,  124,  159,  158
 121,  369,  370,  405,  404,  124,  125,  160,  159
 122,  370,  371,  406,  405,  125,  126,  161,  160
 123,  371,  372,  407,  406,  126,  127,  162,  161
 124,  372,  373,  408,  407,  127,  128,  163,  162
 125,  373,  374,  409,  408,  128,  129,  164,  163
 126,  374,  375,  410,  409,  129,  130,  165,  164
 127,  375,  376,  411,  410,  130,  131,  166,  165
 128,  376,  377,  412,  411,  131,  132,  167,  166
 129,  377,  378,  413,  412,  132,  133,  168,  167
 130,  378,  379,  414,  413,  133,  134,  169,  168
 131,  379,  380,  415,  414,  134,  135,  170,  169
 132,  380,  381,  416,  415,  135,  136,  171,  170
 133,  381,  382,  417,  416,  136,  137,  172,  171
 134,  382,  383,  418,  417,  137,  138,  173,  172
 135,  383,  384,  419,  418,  138,  139,  174,  173
 136,  384,  385,  420,  419,  139,  140,  175,  174
 137,  386,  387,  422,  421,  141,  142,  177,  176
 138,  387,  388,  423,  422,  142,  143,  178,  177
 139,  388,  389,  424,  423,  143,  144,  179,  178
 140,  389,  390,  425,  424,  144,  145,  180,  179
 141,  390,  391,  426,  425,  145,  146,  181,  180
 142,  391,  392,  427,  426,  146,  147,  182,  181
 143,  392,  393,  428,  427,  147,  148,  183,  182
 144,  393,  394,  429,  428,  148,  149,  184,  183
 145,  394,  395,  430,  429,  149,  150,  185,  184
 146,  395,  396,  431,  430,  150,  151,  186,  185
 147,  396,  397,  432,  431,  151,  152,  187,  186
 148,  397,  398,  433,  432,  152,  153,  188,  187
 149,  398,  399,  434,  433,  153,  154,  189,  188
 150,  399,  400,  435,  434,  154,  155,  190,  189
 151,  400,  401,  436,  435,  155,  156,  191,  190
 152,  401,  402,  437,  436,  156,  157,  192,  191
 153,  402,  403,  438,  437,  157,  158,  193,  192
 154,  403,  404,  439,  438,  158,  159,  194,  193
 155,  404,  405,  440,  439,  159,  160,  195,  194
 156,  405,  406,  441,  440,  160,  161,  196,  195
 157,  406,  407,  442,  441,  161,  162,  197,  196
 158,  407,  408,  443,  442,  162,  163,  198,  197
 159,  408,  409,  444,  443,  163,  164,  199,  198
 160,  409,  410,  445,  444,  164,  165,  200,  199
 161,  410,  411,  446,  445,  165,  166,  201,  200
 162,  411,  412,  447,  446,  166,  167,  202,  201
 163,  412,  413,  448,  447,  167,  168,  203,  202
 164,  413,  414,  449,  448,  168,  169,  204,  203
 165,  414,  415,  450,  449,  169,  170,  205,  204
 166,  415,  416,  451,  450,  170,  171,  206,  205
 167,  416,  417,  452,  451,  171,  172,  207,  206
 168,  417,  418,  453,  452,  172,  173,  208,  207
 169,  418,  419,  454,  453,  173,  174,  209,  208
 170,  419,  420,  455,  454,  174,  175,  210,  209
 171,  421,  422,  457,  456,  176,  177,  212,  211
 172,  422,  423,  458,  457,  177,  178,  213,  212
 173,  423,  424,  459,  458,  178,  179,  214,  213
 174,  424,  425,  460,  459,  179,  180,  215,  214
 175,  425,  426,  461,  460,  180,  181,  216,  215
 176,  426,  427,  462,  461,  181,  182,  217,  216
 177,  427,  428,  463,  462,  182,  183,  218,  217
 178,  428,  429,  464,  463,  183,  184,  219,  218
 179,  429,  430,  465,  464,  184,  185,  220,  219
 180,  430,  431,  466,  465,  185,  186,  221,  220
 181,  431,  432,  467,  466,  186,  187,  222,  221
 182,  432,  433,  468,  467,  187,  188,  223,  222
 183,  433,  434,  469,  468,  188,  189,  224,  223
 184,  434,  435,  470,  469,  189,  190,  225,  224
 185,  435,  436,  471,  470,  190,  191,  226,  225
 186,  436,  437,  472,  471,  191,  192,  227,  226
 187,  437,  438,  473,  472,  192,  193,  228,  227
 188,  438,  439,  474,  473,  193,  194,  229,  228
 189,  439,  440,  475,  474,  194,  195,  230,  229
 190,  440,  441,  476,  475,  195,  196,  231,  230
 191,  441,  442,  477,  476,  196,  197,  232,  231
 192,  442,  443,  478,  477,  197,  198,  233,  232
 193,  443,  444,  479,  478,  198,  199,  234,  233
 194,  444,  445,  480,  479,  199,  200,  235,  234
 195,  445,  446,  481,  480,  200,  201,  236,  235
 196,  446,  447,  482,  481,  201,  202,  237,  236
 197,  447,  448,  483,  482,  202,  203,  238,  237
 198,  448,  449,  484,  483,  203,  204,  239,  238
 199,  449,  450,  485,  484,  204,  205,  240,  239
 200,  450,  451,  486,  485,  205,  206,  241,  240
 201,  451,  452,  487,  486,  206,  207,  242,  241
 202,  452,  453,  488,  487,  207,  208,  243,  242
 203,  453,  454,  489,  488,  208,  209,  244,  243
 204,  454,  455,  490,  489,  209,  210,  245,  244
 205,  491,  492,  527,  526,  246,  247,  282,  281
 206,  492,  493,  528,  527,  247,  248,  283,  282
 207,  493,  494,  529,  528,  248,  249,  284,  283
 208,  494,  495,  530,  529,  249,  250,  285,  284
 209,  495,  496,  531,  530,  250,  251,  286,  285
 210,  496,  497,  532,  531,  251,  252,  287,  286
 211,  497,  498,  533,  532,  252,  253,  288,  287
 212,  498,  499,  534,  533,  253,  254,  289,  288
 213,  499,  500,  535,  534,  254,  255,  290,  289
 214,  500,  501,  536,  535,  255,  256,  291,  290
 215,  501,  502,  537,  536,  256,  257,  292,  291
 216,  502,  503,  538,  537,  257,  258,  293,  292
 217,  503,  504,  539,  538,  258,  259,  294,  293
 218,  504,  505,  540,  539,  259,  260,  295,  294
 219,  505,  506,  541,  540,  260,  261,  296,  295
 220,  506,  507,  542,  541,  261,  262,  297,  296
 221,  507,  508,  543,  542,  262,  263,  298,  297
 222,  508,  509,  544,  543,  263,  264,  299,  298
 223,  509,  510,  545,  544,  264,  265,  300,  299
 224,  510,  511,  546,  545,  265,  266,  301,  300
 225,  511,  512,  547,  546,  266,  267,  302,  301
 226,  512,  513,  548,  547,  267,  268,  303,  302
 227,  513,  514,  549,  548,  268,  269,  304,  303
 228,  514,  515,  550,  549,  269,  270,  305,  304
 229,  515,  516,  551,  550,  270,  271,  306,  305
 230,  516,  517,  552,  551,  271,  272,  307,  306
 231,  517,  518,  553,  552,  272,  273,  308,  307
 232,  518,  519,  554,  553,  273,  274,  309,  308
 233,  519,  520,  555,  554,  274,  275,  310,  309
 234,  520,  521,  556,  555,  275,  276,  311,  310
 235,  521,  522,  557,  556,  276,  277,  312,  311
 236,  522,  523,  558,  557,  277,  278,  313,  312
 237,  523,  524,  559,  558,  278,  279,  314,  313
 238,  524,  525,  560,  559,  279,  280,  315,  314
 239,  526,  527,  562,  561,  281,  282,  317,  316
 240,  527,  528,  563,  562,  282,  283,  318,  317
 241,  528,  529,  564,  563,  283,  284,  319,  318
 242,  529,  530,  565,  564,  284,  285,  320,  319
 243,  530,  531,  566,  565,  285,  286,  321,  320
 244,  531,  532,  567,  566,  286,  287,  322,  321
 245,  532,  533,  568,  567,  287,  288,  323,  322
 246,  533,  534,  569,  568,  288,  289,  324,  323
 247,  534,  535,  570,  569,  289,  290,  325,  324
 248,  535,  536,  571,  570,  290,  291,  326,  325
 249,  536,  537,  572,  571,  291,  292,  327,  326
 250,  537,  538,  573,  572,  292,  293,  328,  327
 251,  538,  539,  574,  573,  293,  294,  329,  328
 252,  539,  540,  575,  574,  294,  295,  330,  329
 253,  540,  541,  576,  575,  295,  296,  331,  330
 254,  541,  542,  577,  576,  296,  297,  332,  331
 255,  542,  543,  578,  577,  297,  298,  333,  332
 256,  543,  544,  579,  578,  298,  299,  334,  333
 257,  544,  545,  580,  579,  299,  300,  335,  334
 258,  545,  546,  581,  580,  300,  301,  336,  335
 259,  546,  547,  582,  581,  301,  302,  337,  336
 260,  547,  548,  583,  582,  302,  303,  338,  337
 261,  548,  549,  584,  583,  303,  304,  339,  338
 262,  549,  550,  585,  584,  304,  305,  340,  339
 263,  550,  551,  586,  585,  305,  306,  341,  340
 264,  551,  552,  587,  586,  306,  307,  342,  341
 265,  552,  553,  588,  587,  307,  308,  343,  342
 266,  553,  554,  589,  588,  308,  309,  344,  343
 267,  554,  555,  590,  589,  309,  310,  345,  344
 268,  555,  556,  591,  590,  310,  311,  346,  345
 269,  556,  557,  592,  591,  311,  312,  347,  346
 270,  557,  558,  593,  592,  312,  313,  348,  347
 271,  558,  559,  594,  593,  313,  314,  349,  348
 272,  559,  560,  595,  594,  314,  315,  350,  349
 273,  561,  562,  597,  596,  316,  317,  352,  351
 274,  562,  563,  598,  597,  317,  318,  353,  352
 275,  563,  564,  599,  598,  318,  319,  354,  353
 276,  564,  565,  600,  599,  319,  320,  355,  354
 277,  565,  566,  601,  600,  320,  321,  356,  355
 278,  566,  567,  602,  601,  321,  322,  357,  356
 279,  567,  568,  603,  602,  322,  323,  358,  357
 280,  568,  569,  604,  603,  323,  324,  359,  358
 281,  569,  570,  605,  604,  324,  325,  360,  359
 282,  570,  571,  606,  605,  325,  326,  361,  360
 283,  571,  572,  607,  606,  326,  327,  362,  361
 284,  572,  573,  608,  607,  327,  328,  363,  362
 285,  573,  574,  609,  608,  328,  329,  364,  363
 286,  574,  575,  610,  609,  329,  330,  365,  364
 287,  575,  576,  611,  610,  330,  331,  366,  365
 288,  576,  577,  612,  611,  331,  332,  367,  366
 289,  577,  578,  613,  612,  332,  333,  368,  367
 290,  578,  579,  614,  613,  333,  334,  369,  368
 291,  579,  580,  615,  614,  334,  335,  370,  369
 292,  580,  581,  616,  615,  335,  336,  371,  370
 293,  581,  582,  617,  616,  336,  337,  372,  371
 294,  582,  583,  618,  617,  337,  338,  373,  372
 295,  583,  584,  619,  618,  338,  339,  374,  373
 296,  584,  585,  620,  619,  339,  340,  375,  374
 297,  585,  586,  621,  620,  340,  341,  376,  375
 298,  586,  587,  622,  621,  341,  342,  377,  376
 299,  587,  588,  623,  622,  342,  343,  378,  377
 300,  588,  589,  624,  623,  343,  344,  379,  378
 301,  589,  590,  625,  624,  344,  345,  380,  379
 302,  590,  591,  626,  625,  345,  346,  381,  380
 303,  591,  592,  627,  626,  346,  347,  382,  381
 304,  592,  593,  628,  627,  347,  348,  383,  382
 305,  593,  594,  629,  628,  348,  349,  384,  383
 306,  594,  595,  630,  629,  349,  350,  385,  384
 307,  596,  597,  632,  631,  351,  352,  387,  386
 308,  597,  598,  633,  632,  352,  353,  388,  387
 309,  598,  599,  634,  633,  353,  354,  389,  388
 310,  599,  600,  635,  634,  354,  355,  390,  389
 311,  600,  601,  636,  635,  355,  356,  391,  390
 312,  601,  602,  637,  636,  356,  357,  392,  391
 313,  602,  603,  638,  637,  357,  358,  393,  392
 314,  603,  604,  639,  638,  358,  359,  394,  393
 315,  604,  605,  640,  639,  359,  360,  395,  394
 316,  605,  606,  641,  640,  360,  361,  396,  395
 317,  606,  607,  642,  641,  361,  362,  397,  396
 318,  607,  608,  643,  642,  362,  363,  398,  397
 319,  608,  609,  644,  643,  363,  364,  399,  398
 320,  609,  610,  645,  644,  364,  365,  400,  399
 321,  610,  611,  646,  645,  365,  366,  401,  400
 322,  611,  612,  647,  646,  366,  367,  402,  401
 323,  612,  613,  648,  647,  367,  368,  403,  402
 324,  613,  614,  649,  648,  368,  369,  404,  403
 325,  614,  615,  650,  649,  369,  370,  405,  404
 326,  615,  616,  651,  650,  370,  371,  406,  405
 327,  616,  617,  652,  651,  371,  372,  407,  406
 328,  617,  618,  653,  652,  372,  373,  408,  407
 329,  618,  619,  654,  653,  373,  374,  409,  408
 330,  619,  620,  655,  654,  374,  375,  410,  409
 331,  620,  621,  656,  655,  375,  376,  411,  410
 332,  621,  622,  657,  656,  376,  377,  412,  411
 333,  622,  623,  658,  657,  377,  378,  413,  412
 334,  623,  624,  659,  658,  378,  379,  414,  413
 335,  624,  625,  660,  659,  379,  380,  415,  414
 336,  625,  626,  661,  660,  380,  381,  416,  415
 337,  626,  627,  662,  661,  381,  382,  417,  416
 338,  627,  628,  663,  662,  382,  383,  418,  417
 339,  628,  629,  664,  663,  383,  384,  419,  418
 340,  629,  630,  665,  664,  384,  385,  420,  419
 341,  631,  632,  667,  666,  386,  387,  422,  421
 342,  632,  633,  668,  667,  387,  388,  423,  422
 343,  633,  634,  669,  668,  388,  389,  424,  423
 344,  634,  635,  670,  669,  389,  390,  425,  424
 345,  635,  636,  671,  670,  390,  391,  426,  425
 346,  636,  637,  672,  671,  391,  392,  427,  426
 347,  637,  638,  673,  672,  392,  393,  428,  427
 348,  638,  639,  674,  673,  393,  394,  429,  428
 349,  639,  640,  675,  674,  394,  395,  430,  429
 350,  640,  641,  676,  675,  395,  396,  431,  430
 351,  641,  642,  677,  676,  396,  397,  432,  431
 352,  642,  643,  678,  677,  397,  398,  433,  432
 353,  643,  644,  679,  678,  398,  399,  434,  433
 354,  644,  645,  680,  679,  399,  400,  435,  434
 355,  645,  646,  681,  680,  400,  401,  436,  435
 356,  646,  647,  682,  681,  401,  402,  437,  436
 357,  647,  648,  683,  682,  402,  403,  438,  437
 358,  648,  649,  684,  683,  403,  404,  439,  438
 359,  649,  650,  685,  684,  404,  405,  440,  439
 360,  650,  651,  686,  685,  405,  406,  441,  440
 361,  651,  652,  687,  686,  406,  407,  442,  441
 362,  652,  653,  688,  687,  407,  408,  443,  442
 363,  653,  654,  689,  688,  408,  409,  444,  443
 364,  654,  655,  690,  689,  409,  410,  445,  444
 365,  655,  656,  691,  690,  410,  411,  446,  445
 366,  656,  657,  692,  691,  411,  412,  447,  446
 367,  657,  658,  693,  692,  412,  413,  448,  447
 368,  658,  659,  694,  693,  413,  414,  449,  448
 369,  659,  660,  695,  694,  414,  415,  450,  449
 370,  660,  661,  696,  695,  415,  416,  451,  450
 371,  661,  662,  697,  696,  416,  417,  452,  451
 372,  662,  663,  698,  697,  417,  418,  453,  452
 373,  663,  664,  699,  698,  418,  419,  454,  453
 374,  664,  665,  700,  699,  419,  420,  455,  454
 375,  666,  667,  702,  701,  421,  422,  457,  456
 376,  667,  668,  703,  702,  422,  423,  458,  457
 377,  668,  669,  704,  703,  423,  424,  459,  458
 378,  669,  670,  705,  704,  424,  425,  460,  459
 379,  670,  671,  706,  705,  425,  426,  461,  460
 380,  671,  672,  707,  706,  426,  427,  462,  461
 381,  672,  673,  708,  707,  427,  428,  463,  462
 382,  673,  674,  709,  708,  428,  429,  464,  463
 383,  674,  675,  710,  709,  429,  430,  465,  464
 384,  675,  676,  711,  710,  430,  431,  466,  465
 385,  676,  677,  712,  711,  431,  432,  467,  466
 386,  677,  678,  713,  712,  432,  433,  468,  467
 387,  678,  679,  714,  713,  433,  434,  469,  468
 388,  679,  680,  715,  714,  434,  435,  470,  469
 389,  680,  681,  716,  715,  435,  436,  471,  470
 390,  681,  682,  717,  716,  436,  437,  472,  471
 391,  682,  683,  718,  717,  437,  438,  473,  472
 392,  683,  684,  719,  718,  438,  439,  474,  473
 393,  684,  685,  720,  719,  439,  440,  475,  474
 394,  685,  686,  721,  720,  440,  441,  476,  475
 395,  686,  687,  722,  721,  441,  442,  477,  476
 396,  687,  688,  723,  722,  442,  443,  478,  477
 397,  688,  689,  724,  723,  443,  444,  479,  478
 398,  689,  690,  725,  724,  444,  445,  480,  479
 399,  690,  691,  726,  725,  445,  446,  481,  480
 400,  691,  692,  727,  726,  446,  447,  482,  481
 401,  692,  693,  728,  727,  447,  448,  483,  482
 402,  693,  694,  729,  728,  448,  449,  484,  483
 403,  694,  695,  730,  729,  449,  450,  485,  484
 404,  695,  696,  731,  730,  450,  451,  486,  485
 405,  696,  697,  732,  731,  451,  452,  487,  486
 406,  697,  698,  733,  732,  452,  453,  488,  487
 407,  698,  699,  734,  733,  453,  454,  489,  488
 408,  699,  700,  735,  734,  454,  455,  490,  489
 409,  736,  737,  772,  771,  491,  492,  527,  526
 410,  737,  738,  773,  772,  492,  493,  528,  527
 411,  738,  739,  774,  773,  493,  494,  529,  528
 412,  739,  740,  775,  774,  494,  495,  530,  529
 413,  740,  741,  776,  775,  495,  496,  531,  530
 414,  741,  742,  777,  776,  496,  497,  532,  531
 415,  742,  743,  778,  777,  497,  498,  533,  532
 416,  743,  744,  779,  778,  498,  499,  534,  533
 417,  744,  745,  780,  779,  499,  500,  535,  534
 418,  745,  746,  781,  780,  500,  501,  536,  535
 419,  746,  747,  782,  781,  501,  502,  537,  536
 420,  747,  748,  783,  782,  502,  503,  538,  537
 421,  748,  749,  784,  783,  503,  504,  539,  538
 422,  749,  750,  785,  784,  504,  505,  540,  539
 423,  750,  751,  786,  785,  505,  506,  541,  540
 424,  751,  752,  787,  786,  506,  507,  542,  541
 425,  752,  753,  788,  787,  507,  508,  543,  542
 426,  753,  754,  789,  788,  508,  509,  544,  543
 427,  754,  755,  790,  789,  509,  510,  545,  544
 428,  755,  756,  791,  790,  510,  511,  546,  545
 429,  756,  757,  792,  791,  511,  512,  547,  546
 430,  757,  758,  793,  792,  512,  513,  548,  547
 431,  758,  759,  794,  793,  513,  514,  549,  548
 432,  759,  760,  795,  794,  514,  515,  550,  549
 433,  760,  761,  796,  795,  515,  516,  551,  550
 434,  761,  762,  797,  796,  516,  517,  552,  551
 435,  762,  763,  798,  797,  517,  518,  553,  552
 436,  763,  764,  799,  798,  518,  519,  554,  553
 437,  764,  765,  800,  799,  519,  520,  555,  554
 438,  765,  766,  801,  800,  520,  521,  556,  555
 439,  766,  767,  802,  801,  521,  522,  557,  556
 440,  767,  768,  803,  802,  522,  523,  558,  557
 441,  768,  769,  804,  803,  523,  524,  559,  558
 442,  769,  770,  805,  804,  524,  525,  560,  559
 443,  771,  772,  807,  806,  526,  527,  562,  561
 444,  772,  773,  808,  807,  527,  528,  563,  562
 445,  773,  774,  809,  808,  528,  529,  564,  563
 446,  774,  775,  810,  809,  529,  530,  565,  564
 447,  775,  776,  811,  810,  530,  531,  566,  565
 448,  776,  777,  812,  811,  531,  532,  567,  566
 449,  777,  778,  813,  812,  532,  533,  568,  567
 450,  778,  779,  814,  813,  533,  534,  569,  568
 451,  779,  780,  815,  814,  534,  535,  570,  569
 452,  780,  781,  816,  815,  535,  536,  571,  570
 453,  781,  782,  817,  816,  536,  537,  572,  571
 454,  782,  783,  818,  817,  537,  538,  573,  572
 455,  783,  784,  819,  818,  538,  539,  574,  573
 456,  784,  785,  820,  819,  539,  540,  575,  574
 457,  785,  786,  821,  820,  540,  541,  576,  575
 458,  786,  787,  822,  821,  541,  542,  577,  576
 459,  787,  788,  823,  822,  542,  543,  578,  577
 460,  788,  789,  824,  823,  543,  544,  579,  578
 461,  789,  790,  825,  824,  544,  545,  580,  579
 462,  790,  791,  826,  825,  545,  546,  581,  580
 463,  791,  792,  827,  826,  546,  547,  582,  581
 464,  792,  793,  828,  827,  547,  548,  583,  582
 465,  793,  794,  829,  828,  548,  549,  584,  583
 466,  794,  795,  830,  829,  549,  550,  585,  584
 467,  795,  796,  831,  830,  550,  551,  586,  585
 468,  796,  797,  832,  831,  551,  552,  587,  586
 469,  797,  798,  833,  832,  552,  553,  588,  587
 470,  798,  799,  834,  833,  553,  554,  589,  588
 471,  799,  800,  835,  834,  554,  555,  590,  589
 472,  800,  801,  836,  835,  555,  556,  591,  590
 473,  801,  802,  837,  836,  556,  557,  592,  591
 474,  802,  803,  838,  837,  557,  558,  593,  592
 475,  803,  804,  839,  838,  558,  559,  594,  593
 476,  804,  805,  840,  839,  559,  560,  595,  594
 477,  806,  807,  842,  841,  561,  562,  597,  596
 478,  807,  808,  843,  842,  562,  563,  598,  597
 479,  808,  809,  844,  843,  563,  564,  599,  598
 480,  809,  810,  845,  844,  564,  565,  600,  599
 481,  810,  811,  846,  845,  565,  566,  601,  600
 482,  811,  812,  847,  846,  566,  567,  602,  601
 483,  812,  813,  848,  847,  567,  568,  603,  602
 484,  813,  814,  849,  848,  568,  569,  604,  603
 485,  814,  815,  850,  849,  569,  570,  605,  604
 486,  815,  816,  851,  850,  570,  571,  606,  605
 487,  816,  817,  852,  851,  571,  572,  607,  606
 488,  817,  818,  853,  852,  572,  573,  608,  607
 489,  818,  819,  854,  853,  573,  574,  609,  608
 490,  819,  820,  855,  854,  574,  575,  610,  609
 491,  820,  821,  856,  855,  575,  576,  611,  610
 492,  821,  822,  857,  856,  576,  577,  612,  611
 493,  822,  823,  858,  857,  577,  578,  613,  612
 494,  823,  824,  859,  858,  578,  579,  614,  613
 495,  824,  825,  860,  859,  579,  580,  615,  614
 496,  825,  826,  861,  860,  580,  581,  616,  615
 497,  826,  827,  862,  861,  581,  582,  617,  616
 498,  827,  828,  863,  862,  582,  583,  618,  617
 499,  828,  829,  864,  863,  583,  584,  619,  618
 500,  829,  830,  865,  864,  584,  585,  620,  619
 501,  830,  831,  866,  865,  585,  586,  621,  620
 502,  831,  832,  867,  866,  586,  587,  622,  621
 503,  832,  833,  868,  867,  587,  588,  623,  622
 504,  833,  834,  869,  868,  588,  589,  624,  623
 505,  834,  835,  870,  869,  589,  590,  625,  624
 506,  835,  836,  871,  870,  590,  591,  626,  625
 507,  836,  837,  872,  871,  591,  592,  627,  626
 508,  837,  838,  873,  872,  592,  593,  628,  627
 509,  838,  839,  874,  873,  593,  594,  629,  628
 510,  839,  840,  875,  874,  594,  595,  630,  629
 511,  841,  842,  877,  876,  596,  597,  632,  631
 512,  842,  843,  878,  877,  597,  598,  633,  632
 513,  843,  844,  879,  878,  598,  599,  634,  633
 514,  844,  845,  880,  879,  599,  600,  635,  634
 515,  845,  846,  881,  880,  600,  601,  636,  635
 516,  846,  847,  882,  881,  601,  602,  637,  636
 517,  847,  848,  883,  882,  602,  603,  638,  637
 518,  848,  849,  884,  883,  603,  604,  639,  638
 519,  849,  850,  885,  884,  604,  605,  640,  639
 520,  850,  851,  886,  885,  605,  606,  641,  640
 521,  851,  852,  887,  886,  606,  607,  642,  641
 522,  852,  853,  888,  887,  607,  608,  643,  642
 523,  853,  854,  889,  888,  608,  609,  644,  643
 524,  854,  855,  890,  889,  609,  610,  645,  644
 525,  855,  856,  891,  890,  610,  611,  646,  645
 526,  856,  857,  892,  891,  611,  612,  647,  646
 527,  857,  858,  893,  892,  612,  613,  648,  647
 528,  858,  859,  894,  893,  613,  614,  649,  648
 529,  859,  860,  895,  894,  614,  615,  650,  649
 530,  860,  861,  896,  895,  615,  616,  651,  650
 531,  861,  862,  897,  896,  616,  617,  652,  651
 532,  862,  863,  898,  897,  617,  618,  653,  652
 533,  863,  864,  899,  898,  618,  619,  654,  653
 534,  864,  865,  900,  899,  619,  620,  655,  654
 535,  865,  866,  901,  900,  620,  621,  656,  655
 536,  866,  867,  902,  901,  621,  622,  657,  656
 537,  867,  868,  903,  902,  622,  623,  658,  657
 538,  868,  869,  904,  903,  623,  624,  659,  658
 539,  869,  870,  905,  904,  624,  625,  660,  659
 540,  870,  871,  906,  905,  625,  626,  661,  660
 541,  871,  872,  907,  906,  626,  627,  662,  661
 542,  872,  873,  908,  907,  627,  628,  663,  662
 543,  873,  874,  909,  908,  628,  629,  664,  663
 544,  874,  875,  910,  909,  629,  630,  665,  664
 545,  876,  877,  912,  911,  631,  632,  667,  666
 546,  877,  878,  913,  912,  632,  633,  668,  667
 547,  878,  879,  914,  913,  633,  634,  669,  668
 548,  879,  880,  915,  914,  634,  635,  670,  669
 549,  880,  881,  916,  915,  635,  636,  671,  670
 550,  881,  882,  917,  916,  636,  637,  672,  671
 551,  882,  883,  918,  917,  637,  638,  673,  672
 552,  883,  884,  919,  918,  638,  639,  674,  673
 553,  884,  885,  920,  919,  639,  640,  675,  674
 554,  885,  886,  921,  920,  640,  641,  676,  675
 555,  886,  887,  922,  921,  641,  642,  677,  676
 556,  887,  888,  923,  922,  642,  643,  678,  677
 557,  888,  889,  924,  923,  643,  644,  679,  678
 558,  889,  890,  925,  924,  644,  645,  680,  679
 559,  890,  891,  926,  925,  645,  646,  681,  680
 560,  891,  892,  927,  926,  646,  647,  682,  681
 561,  892,  893,  928,  927,  647,  648,  683,  682
 562,  893,  894,  929,  928,  648,  649,  684,  683
 563,  894,  895,  930,  929,  649,  650,  685,  684
 564,  895,  896,  931,  930,  650,  651,  686,  685
 565,  896,  897,  932,  931,  651,  652,  687,  686
 566,  897,  898,  933,  932,  652,  653,  688,  687
 567,  898,  899,  934,  933,  653,  654,  689,  688
 568,  899,  900,  935,  934,  654,  655,  690,  689
 569,  900,  901,  936,  935,  655,  656,  691,  690
 570,  901,  902,  937,  936,  656,  657,  692,  691
 571,  902,  903,  938,  937,  657,  658,  693,  692
 572,  903,  904,  939,  938,  658,  659,  694,  693
 573,  904,  905,  940,  939,  659,  660,  695,  694
 574,  905,  906,  941,  940,  660,  661,  696,  695
 575,  906,  907,  942,  941,  661,  662,  697,  696
 576,  907,  908,  943,  942,  662,  663,  698,  697
 577,  908,  909,  944,  943,  663,  664,  699,  698
 578,  909,  910,  945,  944,  664,  665,  700,  699
 579,  911,  912,  947,  946,  666,  667,  702,  701
 580,  912,  913,  948,  947,  667,  668,  703,  702
 581,  913,  914,  949,  948,  668,  669,  704,  703
 582,  914,  915,  950,  949,  669,  670,  705,  704
 583,  915,  916,  951,  950,  670,  671,  706,  705
 584,  916,  917,  952,  951,  671,  672,  707,  706
 585,  917,  918,  953,  952,  672,  673,  708,  707
 586,  918,  919,  954,  953,  673,  674,  709,  708
 587,  919,  920,  955,  954,  674,  675,  710,  709
 588,  920,  921,  956,  955,  675,  676,  711,  710
 589,  921,  922,  957,  956,  676,  677,  712,  711
 590,  922,  923,  958,  957,  677,  678,  713,  712
 591,  923,  924,  959,  958,  678,  679,  714,  713
 592,  924,  925,  960,  959,  679,  680,  715,  714
 593,  925,  926,  961,  960,  680,  681,  716,  715
 594,  926,  927,  962,  961,  681,  682,  717,  716
 595,  927,  928,  963,  962,  682,  683,  718,  717
 596,  928,  929,  964,  963,  683,  684,  719,  718
 597,  929,  930,  965,  964,  684,  685,  720,  719
 598,  930,  931,  966,  965,  685,  686,  721,  720
 599,  931,  932,  967,  966,  686,  687,  722,  721
 600,  932,  933,  968,  967,  687,  688,  723,  722
 601,  933,  934,  969,  968,  688,  689,  724,  723
 602,  934,  935,  970,  969,  689,  690,  725,  724
 603,  935,  936,  971,  970,  690,  691,  726,  725
 604,  936,  937,  972,  971,  691,  692,  727,  726
 605,  937,  938,  973,  972,  692,  693,  728,  727
 606,  938,  939,  974,  973,  693,  694,  729,  728
 607,  939,  940,  975,  974,  694,  695,  730,  729
 608,  940,  941,  976,  975,  695,  696,  731,  730
 609,  941,  942,  977,  976,  696,  697,  732,  731
 610,  942,  943,  978,  977,  697,  698,  733,  732
 611,  943,  944,  979,  978,  698,  699,  734,  733
 612,  944,  945,  980,  979,  699,  700,  735,  734
 613,  981,  982, 1017, 1016,  736,  737,  772,  771
 614,  982,  983, 1018, 1017,  737,  738,  773,  772
 615,  983,  984, 1019, 1018,  738,  739,  774,  773
 616,  984,  985, 1020, 1019,  739,  740,  775,  774
 617,  985,  986, 1021, 1020,  740,  741,  776,  775
 618,  986,  987, 1022, 1021,  741,  742,  777,  776
 619,  987,  988, 1023, 1022,  742,  743,  778,  777
 620,  988,  989, 1024, 1023,  743,  744,  779,  778
 621,  989,  990, 1025, 1024,  744,  745,  780,  779
 622,  990,  991, 1026, 1025,  745,  746,  781,  780
 623,  991,  992, 1027, 1026,  746,  747,  782,  781
 624,  992,  993, 1028, 1027,  747,  748,  783,  782
 625,  993,  994, 1029, 1028,  748,  749,  784,  783
 626,  994,  995, 1030, 1029,  749,  750,  785,  784
 627,  995,  996, 1031, 1030,  750,  751,  786,  785
 628,  996,  997, 1032, 1031,  751,  752,  787,  786
 629,  997,  998, 1033, 1032,  752,  753,  788,  787
 630,  998,  999, 1034, 1033,  753,  754,  789,  788
 631,  999, 1000, 1035, 1034,  754,  755,  790,  789
 632, 1000, 1001, 1036, 1035,  755,  756,  791,  790
 633, 1001, 1002, 1037, 1036,  756,  757,  792,  791
 634, 1002, 1003, 1038, 1037,  757,  758,  793,  792
 635, 1003, 1004, 1039, 1038,  758,  759,  794,  793
 636, 1004, 1005, 1040, 1039,  759,  760,  795,  794
 637, 1005, 1006, 1041, 1040,  760,  761,  796,  795
 638, 1006, 1007, 1042, 1041,  761,  762,  797,  796
 639, 1007, 1008, 1043, 1042,  762,  763,  798,  797
 640, 1008, 1009, 1044, 1043,  763,  764,  799,  798
 641, 1009, 1010, 1045, 1044,  764,  765,  800,  799
 642, 1010, 1011, 1046, 1045,  765,  766,  801,  800
 643, 1011, 1012, 1047, 1046,  766,  767,  802,  801
 644, 1012, 1013, 1048, 1047,  767,  768,  803,  802
 645, 1013, 1014, 1049, 1048,  768,  769,  804,  803
 646, 1014, 1015, 1050, 1049,  769,  770,  805,  804
 647, 1016, 1017, 1052, 1051,  771,  772,  807,  806
 648, 1017, 1018, 1053, 1052,  772,  773,  808,  807
 649, 1018, 1019, 1054, 1053,  773,  774,  809,  808
 650, 1019, 1020, 1055, 1054,  774,  775,  810,  809
 651, 1020, 1021, 1056, 1055,  775,  776,  811,  810
 652, 1021, 1022, 1057, 1056,  776,  777,  812,  811
 653, 1022, 1023, 1058, 1057,  777,  778,  813,  812
 654, 1023, 1024, 1059, 1058,  778,  779,  814,  813
 655, 1024, 1025, 1060, 1059,  779,  780,  815,  814
 656, 1025, 1026, 1061, 1060,  780,  781,  816,  815
 657, 1026, 1027, 1062, 1061,  781,  782,  817,  816
 658, 1027, 1028, 1063, 1062,  782,  783,  818,  817
 659, 1028, 1029, 1064, 1063,  783,  784,  819,  818
 660, 1029, 1030, 1065, 1064,  784,  785,  820,  819
 661, 1030, 1031, 1066, 1065,  785,  786,  821,  820
 662, 1031, 1032, 1067, 1066,  786,  787,  822,  821
 663, 1032, 1033, 1068, 1067,  787,  788,  823,  822
 664, 1033, 1034, 1069, 1068,  788,  789,  824,  823
 665, 1034, 1035, 1070, 1069,  789,  790,  825,  824
 666, 1035, 1036, 1071, 1070,  790,  791,  826,  825
 667, 1036, 1037, 1072, 1071,  791,  792,  827,  826
 668, 1037, 1038, 1073, 1072,  792,  793,  828,  827
 669, 1038, 1039, 1074, 1073,  793,  794,  829,  828
 670, 1039, 1040, 1075, 1074,  794,  795,  830,  829
 671, 1040, 1041, 1076, 1075,  795,  796,  831,  830
 672, 1041, 1042, 1077, 1076,  796,  797,  832,  831
 673, 1042, 1043, 1078, 1077,  797,  798,  833,  832
 674, 1043, 1044, 1079, 1078,  798,  799,  834,  833
 675, 1044, 1045, 1080, 1079,  799,  800,  835,  834
 676, 1045, 1046, 1081, 1080,  800,  801,  836,  835
 677, 1046, 1047, 1082, 1081,  801,  802,  837,  836
 678, 1047, 1048, 1083, 1082,  802,  803,  838,  837
 679, 1048, 1049, 1084, 1083,  803,  804,  839,  838
 680, 1049, 1050, 1085, 1084,  804,  805,  840,  839
 681, 1051, 1052, 1087, 1086,  806,  807,  842,  841
 682, 1052, 1053, 1088, 1087,  807,  808,  843,  842
 683, 1053, 1054, 1089, 1088,  808,  809,  844,  843
 684, 1054, 1055, 1090, 1089,  809,  810,  845,  844
 685, 1055, 1056, 1091, 1090,  810,  811,  846,  845
 686, 1056, 1057, 1092, 1091,  811,  812,  847,  846
 687, 1057, 1058, 1093, 1092,  812,  813,  848,  847
 688, 1058, 1059, 1094, 1093,  813,  814,  849,  848
 689, 1059, 1060, 1095, 1094,  814,  815,  850,  849
 690, 1060, 1061, 1096, 1095,  815,  816,  851,  850
 691, 1061, 1062, 1097, 1096,  816,  817,  852,  851
 692, 1062, 1063, 1098, 1097,  817,  818,  853,  852
 693, 1063, 1064, 1099, 1098,  818,  819,  854,  853
 694, 1064, 1065, 1100, 1099,  819,  820,  855,  854
 695, 1065, 1066, 1101, 1100,  820,  821,  856,  855
 696, 1066, 1067, 1102, 1101,  821,  822,  857,  856
 697, 1067, 1068, 1103, 1102,  822,  823,  858,  857
 698, 1068, 1069, 1104, 1103,  823,  824,  859,  858
 699, 1069, 1070, 1105, 1104,  824,  825,  860,  859
 700, 1070, 1071, 1106, 1105,  825,  826,  861,  860
 701, 1071, 1072, 1107, 1106,  826,  827,  862,  861
 702, 1072, 1073, 1108, 1107,  827,  828,  863,  862
 703, 1073, 1074, 1109, 1108,  828,  829,  864,  863
 704, 1074, 1075, 1110, 1109,  829,  830,  865,  864
 705, 1075, 1076, 1111, 1110,  830,  831,  866,  865
 706, 1076, 1077, 1112, 1111,  831,  832,  867,  866
 707, 1077, 1078, 1113, 1112,  832,  833,  868,  867
 708, 1078, 1079, 1114, 1113,  833,  834,  869,  868
 709, 1079, 1080, 1115, 1114,  834,  835,  870,  869
 710, 1080, 1081, 1116, 1115,  835,  836,  871,  870
 711, 1081, 1082, 1117, 1116,  836,  837,  872,  871
 712, 1082, 1083, 1118, 1117,  837,  838,  873,  872
 713, 1083, 1084, 1119, 1118,  838,  839,  874,  873
 714, 1084, 1085, 1120, 1119,  839,  840,  875,  874
 715, 1086, 1087, 1122, 1121,  841,  842,  877,  876
 716, 1087, 1088, 1123, 1122,  842,  843,  878,  877
 717, 1088, 1089, 1124, 1123,  843,  844,  879,  878
 718, 1089, 1090, 1125, 1124,  844,  845,  880,  879
 719, 1090, 1091, 1126, 1125,  845,  846,  881,  880
 720, 1091, 1092, 1127, 1126,  846,  847,  882,  881
 721, 1092, 1093, 1128, 1127,  847,  848,  883,  882
 722, 1093, 1094, 1129, 1128,  848,  849,  884,  883
 723, 1094, 1095, 1130, 1129,  849,  850,  885,  884
 724, 1095, 1096, 1131, 1130,  850,  851,  886,  885
 725, 1096, 1097, 1132, 1131,  851,  852,  887,  886
 726, 1097, 1098, 1133, 1132,  852,  853,  888,  887
 727, 1098, 1099, 1134, 1133,  853,  854,  889,  888
 728, 1099, 1100, 1135, 1134,  854,  855,  890,  889
 729, 1100, 1101, 1136, 1135,  855,  856,  891,  890
 730, 1101, 1102, 1137, 1136,  856,  857,  892,  891
 731, 1102, 1103, 1138, 1137,  857,  858,  893,  892
 732, 1103, 1104, 1139, 1138,  858,  859,  894,  893
 733, 1104, 1105, 1140, 1139,  859,  860,  895,  894
 734, 1105, 1106, 1141, 1140,  860,  861,  896,  895
 735, 1106, 1107, 1142, 1141,  861,  862,  897,  896
 736, 1107, 1108, 1143, 1142,  862,  863,  898,  897
 737, 1108, 1109, 1144, 1143,  863,  864,  899,  898
 738, 1109, 1110, 1145, 1144,  864,  865,  900,  899
 739, 1110, 1111, 1146, 1145,  865,  866,  901,  900
 740, 1111, 1112, 1147, 1146,  866,  867,  902,  901
 741, 1112, 1113, 1148, 1147,  867,  868,  903,  902
 742, 1113, 1114, 1149, 1148,  868,  869,  904,  903
 743, 1114, 1115, 1150, 1149,  869,  870,  905,  904
 744, 1115, 1116, 1151, 1150,  870,  871,  906,  905
 745, 1116, 1117, 1152, 1151,  871,  872,  907,  906
 746, 1117, 1118, 1153, 1152,  872,  873,  908,  907
 747, 1118, 1119, 1154, 1153,  873,  874,  909,  908
 748, 1119, 1120, 1155, 1154,  874,  875,  910,  909
 749, 1121, 1122, 1157, 1156,  876,  877,  912,  911
 750, 1122, 1123, 1158, 1157,  877,  878,  913,  912
 751, 1123, 1124, 1159, 1158,  878,  879,  914,  913
 752, 1124, 1125, 1160, 1159,  879,  880,  915,  914
 753, 1125, 1126, 1161, 1160,  880,  881,  916,  915
 754, 1126, 1127, 1162, 1161,  881,  882,  917,  916
 755, 1127, 1128, 1163, 1162,  882,  883,  918,  917
 756, 1128, 1129, 1164, 1163,  883,  884,  919,  918
 757, 1129, 1130, 1165, 1164,  884,  885,  920,  919
 758, 1130, 1131, 1166, 1165,  885,  886,  921,  920
 759, 1131, 1132, 1167, 1166,  886,  887,  922,  921
 760, 1132, 1133, 1168, 1167,  887,  888,  923,  922
 761, 1133, 1134, 1169, 1168,  888,  889,  924,  923
 762, 1134, 1135, 1170, 1169,  889,  890,  925,  924
 763, 1135, 1136, 1171, 1170,  890,  891,  926,  925
 764, 1136, 1137, 1172, 1171,  891,  892,  927,  926
 765, 1137, 1138, 1173, 1172,  892,  893,  928,  927
 766, 1138, 1139, 1174, 1173,  893,  894,  929,  928
 767, 1139, 1140, 1175, 1174,  894,  895,  930,  929
 768, 1140, 1141, 1176, 1175,  895,  896,  931,  930
 769, 1141, 1142, 1177, 1176,  896,  897,  932,  931
 770, 1142, 1143, 1178, 1177,  897,  898,  933,  932
 771, 1143, 1144, 1179, 1178,  898,  899,  934,  933
 772, 1144, 1145, 1180, 1179,  899,  900,  935,  934
 773, 1145, 1146, 1181, 1180,  900,  901,  936,  935
 774, 1146, 1147, 1182, 1181,  901,  902,  937,  936
 775, 1147, 1148, 1183, 1182,  902,  903,  938,  937
 776, 1148, 1149, 1184, 1183,  903,  904,  939,  938
 777, 1149, 1150, 1185, 1184,  904,  905,  940,  939
 778, 1150, 1151, 1186, 1185,  905,  906,  941,  940
 779, 1151, 1152, 1187, 1186,  906,  907,  942,  941
 780, 1152, 1153, 1188, 1187,  907,  908,  943,  942
 781, 1153, 1154, 1189, 1188,  908,  909,  944,  943
 782, 1154, 1155, 1190, 1189,  909,  910,  945,  944
 783, 1156, 1157, 1192, 1191,  911,  912,  947,  946
 784, 1157, 1158, 1193, 1192,  912,  913,  948,  947
 785, 1158, 1159, 1194, 1193,  913,  914,  949,  948
 786, 1159, 1160, 1195, 1194,  914,  915,  950,  949
 787, 1160, 1161, 1196, 1195,  915,  916,  951,  950
 788, 1161, 1162, 1197, 1196,  916,  917,  952,  951
 789, 1162, 1163, 1198, 1197,  917,  918,  953,  952
 790, 1163, 1164, 1199, 1198,  918,  919,  954,  953
 791, 1164, 1165, 1200, 1199,  919,  920,  955,  954
 792, 1165, 1166, 1201, 1200,  920,  921,  956,  955
 793, 1166, 1167, 1202, 1201,  921,  922,  957,  956
 794, 1167, 1168, 1203, 1202,  922,  923,  958,  957
 795, 1168, 1169, 1204, 1203,  923,  924,  959,  958
 796, 1169, 1170, 1205, 1204,  924,  925,  960,  959
 797, 1170, 1171, 1206, 1205,  925,  926,  961,  960
 798, 1171, 1172, 1207, 1206,  926,  927,  962,  961
 799, 1172, 1173, 1208, 1207,  927,  928,  963,  962
 800, 1173, 1174, 1209, 1208,  928,  929,  964,  963
 801, 1174, 1175, 1210, 1209,  929,  930,  965,  964
 802, 1175, 1176, 1211, 1210,  930,  931,  966,  965
 803, 1176, 1177, 1212, 1211,  931,  932,  967,  966
 804, 1177, 1178, 1213, 1212,  932,  933,  968,  967
 805, 1178, 1179, 1214, 1213,  933,  934,  969,  968
 806, 1179, 1180, 1215, 1214,  934,  935,  970,  969
 807, 1180, 1181, 1216, 1215,  935,  936,  971,  970
 808, 1181, 1182, 1217, 1216,  936,  937,  972,  971
 809, 1182, 1183, 1218, 1217,  937,  938,  973,  972
 810, 1183, 1184, 1219, 1218,  938,  939,  974,  973
 811, 1184, 1185, 1220, 1219,  939,  940,  975,  974
 812, 1185, 1186, 1221, 1220,  940,  941,  976,  975
 813, 1186, 1187, 1222, 1221,  941,  942,  977,  976
 814, 1187, 1188, 1223, 1222,  942,  943,  978,  977
 815, 1188, 1189, 1224, 1223,  943,  944,  979,  978
 816, 1189, 1190, 1225, 1224,  944,  945,  980,  979
 817, 1226, 1227, 1262, 1261,  981,  982, 1017, 1016
 818, 1227, 1228, 1263, 1262,  982,  983, 1018, 1017
 819, 1228, 1229, 1264, 1263,  983,  984, 1019, 1018
 820, 1229, 1230, 1265, 1264,  984,  985, 1020, 1019
 821, 1230, 1231, 1266, 1265,  985,  986, 1021, 1020
 822, 1231, 1232, 1267, 1266,  986,  987, 1022, 1021
 823, 1232, 1233, 1268, 1267,  987,  988, 1023, 1022
 824, 1233, 1234, 1269, 1268,  988,  989, 1024, 1023
 825, 1234, 1235, 1270, 1269,  989,  990, 1025, 1024
 826, 1235, 1236, 1271, 1270,  990,  991, 1026, 1025
 827, 1236, 1237, 1272, 1271,  991,  992, 1027, 1026
 828, 1237, 1238, 1273, 1272,  992,  993, 1028, 1027
 829, 1238, 1239, 1274, 1273,  993,  994, 1029, 1028
 830, 1239, 1240, 1275, 1274,  994,  995, 1030, 1029
 831, 1240, 1241, 1276, 1275,  995,  996, 1031, 1030
 832, 1241, 1242, 1277, 1276,  996,  997, 1032, 1031
 833, 1242, 1243, 1278, 1277,  997,  998, 1033, 1032
 834, 1243, 1244, 1279, 1278,  998,  999, 1034, 1033
 835, 1244, 1245, 1280, 1279,  999, 1000, 1035, 1034
 836, 1245, 1246, 1281, 1280, 1000, 1001, 1036, 1035
 837, 1246, 1247, 1282, 1281, 1001, 1002, 1037, 1036
 838, 1247, 1248, 1283, 1282, 1002, 1003, 1038, 1037
 839, 1248, 1249, 1284, 1283, 1003, 1004, 1039, 1038
 840, 1249, 1250, 1285, 1284, 1004, 1005, 1040, 1039
 841, 1250, 1251, 1286, 1285, 1005, 1006, 1041, 1040
 842, 1251, 1252, 1287, 1286, 1006, 1007, 1042, 1041
 843, 1252, 1253, 1288, 1287, 1007, 1008, 1043, 1042
 844, 1253, 1254, 1289, 1288, 1008, 1009, 1044, 1043
 845, 1254, 1255, 1290, 1289, 1009, 1010, 1045, 1044
 846, 1255, 1256, 1291, 1290, 1010, 1011, 1046, 1045
 847, 1256, 1257, 1292, 1291, 1011, 1012, 1047, 1046
 848, 1257, 1258, 1293, 1292, 1012, 1013, 1048, 1047
 849, 1258, 1259, 1294, 1293, 1013, 1014, 1049, 1048
 850, 1259, 1260, 1295, 1294, 1014, 1015, 1050, 1049
 851, 1261, 1262, 1297, 1296, 1016, 1017, 1052, 1051
 852, 1262, 1263, 1298, 1297, 1017, 1018, 1053, 1052
 853, 1263, 1264, 1299, 1298, 1018, 1019, 1054, 1053
 854, 1264, 1265, 1300, 1299, 1019, 1020, 1055, 1054
 855, 1265, 1266, 1301, 1300, 1020, 1021, 1056, 1055
 856, 1266, 1267, 1302, 1301, 1021, 1022, 1057, 1056
 857, 1267, 1268, 1303, 1302, 1022, 1023, 1058, 1057
 858, 1268, 1269, 1304, 1303, 1023, 1024, 1059, 1058
 859, 1269, 1270, 1305, 1304, 1024, 1025, 1060, 1059
 860, 1270, 1271, 1306, 1305, 1025, 1026, 1061, 1060
 861, 1271, 1272, 1307, 1306, 1026, 1027, 1062, 1061
 862, 1272, 1273, 1308, 1307, 1027, 1028, 1063, 1062
 863, 1273, 1274, 1309, 1308, 1028, 1029, 1064, 1063
 864, 1274, 1275, 1310, 1309, 1029, 1030, 1065, 1064
 865, 1275, 1276, 1311, 1310, 1030, 1031, 1066, 1065
 866, 1276, 1277, 1312, 1311, 1031, 1032, 1067, 1066
 867, 1277, 1278, 1313, 1312, 1032, 1033, 1068, 1067
 868, 1278, 1279, 1314, 1313, 1033, 1034, 1069, 1068
 869, 1279, 1280, 1315, 1314, 1034, 1035, 1070, 1069
 870, 1280, 1281, 1316, 1315, 1035, 1036, 1071, 1070
 871, 1281, 1282, 1317, 1316, 1036, 1037, 1072, 1071
 872, 1282, 1283, 1318, 1317, 1037, 1038, 1073, 1072
 873, 1283, 1284, 1319, 1318, 1038, 1039, 1074, 1073
 874, 1284, 1285, 1320, 1319, 1039, 1040, 1075, 1074
 875, 1285, 1286, 1321, 1320, 1040, 1041, 1076, 1075
 876, 1286, 1287, 1322, 1321, 1041, 1042, 1077, 1076
 877, 1287, 1288, 1323, 1322, 1042, 1043, 1078, 1077
 878, 1288, 1289, 1324, 1323, 1043, 1044, 1079, 1078
 879, 1289, 1290, 1325, 1324, 1044, 1045, 1080, 1079
 880, 1290, 1291, 1326, 1325, 1045, 1046, 1081, 1080
 881, 1291, 1292, 1327, 1326, 1046, 1047, 1082, 1081
 882, 1292, 1293, 1328, 1327, 1047, 1048, 1083, 1082
 883, 1293, 1294, 1329, 1328, 1048, 1049, 1084, 1083
 884, 1294, 1295, 1330, 1329, 1049, 1050, 1085, 1084
 885, 1296, 1297, 1332, 1331, 1051, 1052, 1087, 1086
 886, 1297, 1298, 1333, 1332, 1052, 1053, 1088, 1087
 887, 1298, 1299, 1334, 1333, 1053, 1054, 1089, 1088
 888, 1299, 1300, 1335, 1334, 1054, 1055, 1090, 1089
 889, 1300, 1301, 1336, 1335, 1055, 1056, 1091, 1090
 890, 1301, 1302, 1337, 1336, 1056, 1057, 1092, 1091
 891, 1302, 1303, 1338, 1337, 1057, 1058, 1093, 1092
 892, 1303, 1304, 1339, 1338, 1058, 1059, 1094, 1093
 893, 1304, 1305, 1340, 1339, 1059, 1060, 1095, 1094
 894, 1305, 1306, 1341, 1340, 1060, 1061, 1096, 1095
 895, 1306, 1307, 1342, 1341, 1061, 1062, 1097, 1096
 896, 1307, 1308, 1343, 1342, 1062, 1063, 1098, 1097
 897, 1308, 1309, 1344, 1343, 1063, 1064, 1099, 1098
 898, 1309, 1310, 1345, 1344, 1064, 1065, 1100, 1099
 899, 1310, 1311, 1346, 1345, 1065, 1066, 1101, 1100
 900, 1311, 1312, 1347, 1346, 1066, 1067, 1102, 1101
 901, 1312, 1313, 1348, 1347, 1067, 1068, 1103, 1102
 902, 1313, 1314, 1349, 1348, 1068, 1069, 1104, 1103
 903, 1314, 1315, 1350, 1349, 1069, 1070, 1105, 1104
 904, 1315, 1316, 1351, 1350, 1070, 1071, 1106, 1105
 905, 1316, 1317, 1352, 1351, 1071, 1072, 1107, 1106
 906, 1317, 1318, 1353, 1352, 1072, 1073, 1108, 1107
 907, 1318, 1319, 1354, 1353, 1073, 1074, 1109, 1108
 908, 1319, 1320, 1355, 1354, 1074, 1075, 1110, 1109
 909, 1320, 1321, 1356, 1355, 1075, 1076, 1111, 1110
 910, 1321, 1322, 1357, 1356, 1076, 1077, 1112, 1111
 911, 1322, 1323, 1358, 1357, 1077, 1078, 1113, 1112
 912, 1323, 1324, 1359, 1358, 1078, 1079, 1114, 1113
 913, 1324, 1325, 1360, 1359, 1079, 1080, 1115, 1114
 914, 1325, 1326, 1361, 1360, 1080, 1081, 1116, 1115
 915, 1326, 1327, 1362, 1361, 1081, 1082, 1117, 1116
 916, 1327, 1328, 1363, 1362, 1082, 1083, 1118, 1117
 917, 1328, 1329, 1364, 1363, 1083, 1084, 1119, 1118
 918, 1329, 1330, 1365, 1364, 1084, 1085, 1120, 1119
 919, 1331, 1332, 1367, 1366, 1086, 1087, 1122, 1121
 920, 1332, 1333, 1368, 1367, 1087, 1088, 1123, 1122
 921, 1333, 1334, 1369, 1368, 1088, 1089, 1124, 1123
 922, 1334, 1335, 1370, 1369, 1089, 1090, 1125, 1124
 923, 1335, 1336, 1371, 1370, 1090, 1091, 1126, 1125
 924, 1336, 1337, 1372, 1371, 1091, 1092, 1127, 1126
 925, 1337, 1338, 1373, 1372, 1092, 1093, 1128, 1127
 926, 1338, 1339, 1374, 1373, 1093, 1094, 1129, 1128
 927, 1339, 1340, 1375, 1374, 1094, 1095, 1130, 1129
 928, 1340, 1341, 1376, 1375, 1095, 1096, 1131, 1130
 929, 1341, 1342, 1377, 1376, 1096, 1097, 1132, 1131
 930, 1342, 1343, 1378, 1377, 1097, 1098, 1133, 1132
 931, 1343, 1344, 1379, 1378, 1098, 1099, 1134, 1133
 932, 1344, 1345, 1380, 1379, 1099, 1100, 1135, 1134
 933, 1345, 1346, 1381, 1380, 1100, 1101, 1136, 1135
 934, 1346, 1347, 1382, 1381, 1101, 1102, 1137, 1136
 935, 1347, 1348, 1383, 1382, 1102, 1103, 1138, 1137
 936, 1348, 1349, 1384, 1383, 1103, 1104, 1139, 1138
 937, 1349, 1350, 1385, 1384, 1104, 1105, 1140, 1139
 938, 1350, 1351, 1386, 1385, 1105, 1106, 1141, 1140
 939, 1351, 1352, 1387, 1386, 1106, 1107, 1142, 1141
 940, 1352, 1353, 1388, 1387, 1107, 1108, 1143, 1142
 941, 1353, 1354, 1389, 1388, 1108, 1109, 1144, 1143
 942, 1354, 1355, 1390, 1389, 1109, 1110, 1145, 1144
 943, 1355, 1356, 1391, 1390, 1110, 1111, 1146, 1145
 944, 1356, 1357, 1392, 1391, 1111, 1112, 1147, 1146
 945, 1357, 1358, 1393, 1392, 1112, 1113, 1148, 1147
 946, 1358, 1359, 1394, 1393, 1113, 1114, 1149, 1148
 947, 1359, 1360, 1395, 1394, 1114, 1115, 1150, 1149
 948, 1360, 1361, 1396, 1395, 1115, 1116, 1151, 1150
 949, 1361, 1362, 1397, 1396, 1116, 1117, 1152, 1151
 950, 1362, 1363, 1398, 1397, 1117, 1118, 1153, 1152
 951, 1363, 1364, 1399, 1398, 1118, 1119, 1154, 1153
 952, 1364, 1365, 1400, 1399, 1119, 1120, 1155, 1154
 953, 1366, 1367, 1402, 1401, 1121, 1122, 1157, 1156
 954, 1367, 1368, 1403, 1402, 1122, 1123, 1158, 1157
 955, 1368, 1369, 1404, 1403, 1123, 1124, 1159, 1158
 956, 1369, 1370, 1405, 1404, 1124, 1125, 1160, 1159
 957, 1370, 1371, 1406, 1405, 1125, 1126, 1161, 1160
 958, 1371, 1372, 1407, 1406, 1126, 1127, 1162, 1161
 959, 1372, 1373, 1408, 1407, 1127, 1128, 1163, 1162
 960, 1373, 1374, 1409, 1408, 1128, 1129, 1164, 1163
 961, 1374, 1375, 1410, 1409, 1129, 1130, 1165, 1164
 962, 1375, 1376, 1411, 1410, 1130, 1131, 1166, 1165
 963, 1376, 1377, 1412, 1411, 1131, 1132, 1167, 1166
 964, 1377, 1378, 1413, 1412, 1132, 1133, 1168, 1167
 965, 1378, 1379, 1414, 1413, 1133, 1134, 1169, 1168
 966, 1379, 1380, 1415, 1414, 1134, 1135, 1170, 1169
 967, 1380, 1381, 1416, 1415, 1135, 1136, 1171, 1170
 968, 1381, 1382, 1417, 1416, 1136, 1137, 1172, 1171
 969, 1382, 1383, 1418, 1417, 1137, 1138, 1173, 1172
 970, 1383, 1384, 1419, 1418, 1138, 1139, 1174, 1173
 971, 1384, 1385, 1420, 1419, 1139, 1140, 1175, 1174
 972, 1385, 1386, 1421, 1420, 1140, 1141, 1176, 1175
 973, 1386, 1387, 1422, 1421, 1141, 1142, 1177, 1176
 974, 1387, 1388, 1423, 1422, 1142, 1143, 1178, 1177
 975, 1388, 1389, 1424, 1423, 1143, 1144, 1179, 1178
 976, 1389, 1390, 1425, 1424, 1144, 1145, 1180, 1179
 977, 1390, 1391, 1426, 1425, 1145, 1146, 1181, 1180
 978, 1391, 1392, 1427, 1426, 1146, 1147, 1182, 1181
 979, 1392, 1393, 1428, 1427, 1147, 1148, 1183, 1182
 980, 1393, 1394, 1429, 1428, 1148, 1149, 1184, 1183
 981, 1394, 1395, 1430, 1429, 1149, 1150, 1185, 1184
 982, 1395, 1396, 1431, 1430, 1150, 1151, 1186, 1185
 983, 1396, 1397, 1432, 1431, 1151, 1152, 1187, 1186
 984, 1397, 1398, 1433, 1432, 1152, 1153, 1188, 1187
 985, 1398, 1399, 1434, 1433, 1153, 1154, 1189, 1188
 986, 1399, 1400, 1435, 1434, 1154, 1155, 1190, 1189
 987, 1401, 1402, 1437, 1436, 1156, 1157, 1192, 1191
 988, 1402, 1403, 1438, 1437, 1157, 1158, 1193, 1192
 989, 1403, 1404, 1439, 1438, 1158, 1159, 1194, 1193
 990, 1404, 1405, 1440, 1439, 1159, 1160, 1195, 1194
 991, 1405, 1406, 1441, 1440, 1160, 1161, 1196, 1195
 992, 1406, 1407, 1442, 1441, 1161, 1162, 1197, 1196
 993, 1407, 1408, 1443, 1442, 1162, 1163, 1198, 1197
 994, 1408, 1409, 1444, 1443, 1163, 1164, 1199, 1198
 995, 1409, 1410, 1445, 1444, 1164, 1165, 1200, 1199
 996, 1410, 1411, 1446, 1445, 1165, 1166, 1201, 1200
 997, 1411, 1412, 1447, 1446, 1166, 1167, 1202, 1201
 998, 1412, 1413, 1448, 1447, 1167, 1168, 1203, 1202
 999, 1413, 1414, 1449, 1448, 1168, 1169, 1204, 1203
1000, 1414, 1415, 1450, 1449, 1169, 1170, 1205, 1204
1001, 1415, 1416, 1451, 1450, 1170, 1171, 1206, 1205
1002, 1416, 1417, 1452, 1451, 1171, 1172, 1207, 1206
1003, 1417, 1418, 1453, 1452, 1172, 1173, 1208, 1207
1004, 1418, 1419, 1454, 1453, 1173, 1174, 1209, 1208
1005, 1419, 1420, 1455, 1454, 1174, 1175, 1210, 1209
1006, 1420, 1421, 1456, 1455, 1175, 1176, 1211, 1210
1007, 1421, 1422, 1457, 1456, 1176, 1177, 1212, 1211
1008, 1422, 1423, 1458, 1457, 1177, 1178, 1213, 1212
1009, 1423, 1424, 1459, 1458, 1178, 1179, 1214, 1213
1010, 1424, 1425, 1460, 1459, 1179, 1180, 1215, 1214
1011, 1425, 1426, 1461, 1460, 1180, 1181, 1216, 1215
1012, 1426, 1427, 1462, 1461, 1181, 1182, 1217, 1216
1013, 1427, 1428, 1463, 1462, 1182, 1183, 1218, 1217
1014, 1428, 1429, 1464, 1463, 1183, 1184, 1219, 1218
1015, 1429, 1430, 1465, 1464, 1184, 1185, 1220, 1219
1016, 1430, 1431, 1466, 1465, 1185, 1186, 1221, 1220
1017, 1431, 1432, 1467, 1466, 1186, 1187, 1222, 1221
1018, 1432, 1433, 1468, 1467, 1187, 1188, 1223, 1222
1019, 1433, 1434, 1469, 1468, 1188, 1189, 1224, 1223
1020, 1434, 1435, 1470, 1469, 1189, 1190, 1225, 1224
1021, 1471, 1472, 1507, 1506, 1226, 1227, 1262, 1261
1022, 1472, 1473, 1508, 1507, 1227, 1228, 1263, 1262
1023, 1473, 1474, 1509, 1508, 1228, 1229, 1264, 1263
1024, 1474, 1475, 1510, 1509, 1229, 1230, 1265, 1264
1025, 1475, 1476, 1511, 1510, 1230, 1231, 1266, 1265
1026, 1476, 1477, 1512, 1511, 1231, 1232, 1267, 1266
1027, 1477, 1478, 1513, 1512, 1232, 1233, 1268, 1267
1028, 1478, 1479, 1514, 1513, 1233, 1234, 1269, 1268
1029, 1479, 1480, 1515, 1514, 1234, 1235, 1270, 1269
1030, 1480, 1481, 1516, 1515, 1235, 1236, 1271, 1270
1031, 1481, 1482, 1517, 1516, 1236, 1237, 1272, 1271
1032, 1482, 1483, 1518, 1517, 1237, 1238, 1273, 1272
1033, 1483, 1484, 1519, 1518, 1238, 1239, 1274, 1273
1034, 1484, 1485, 1520, 1519, 1239, 1240, 1275, 1274
1035, 1485, 1486, 1521, 1520, 1240, 1241, 1276, 1275
1036, 1486, 1487, 1522, 1521, 1241, 1242, 1277, 1276
1037, 1487, 1488, 1523, 1522, 1242, 1243, 1278, 1277
1038, 1488, 1489, 1524, 1523, 1243, 1244, 1279, 1278
1039, 1489, 1490, 1525, 1524, 1244, 1245, 1280, 1279
1040, 1490, 1491, 1526, 1525, 1245, 1246, 1281, 1280
1041, 1491, 1492, 1527, 1526, 1246, 1247, 1282, 1281
1042, 1492, 1493, 1528, 1527, 1247, 1248, 1283, 1282
1043, 1493, 1494, 1529, 1528, 1248, 1249, 1284, 1283
1044, 1494, 1495, 1530, 1529, 1249, 1250, 1285, 1284
1045, 1495, 1496, 1531, 1530, 1250, 1251, 1286, 1285
1046, 1496, 1497, 1532, 1531, 1251, 1252, 1287, 1286
1047, 1497, 1498, 1533, 1532, 1252, 1253, 1288, 1287
1048, 1498, 1499, 1534, 1533, 1253, 1254, 1289, 1288
1049, 1499, 1500, 1535, 1534, 1254, 1255, 1290, 1289
1050, 1500, 1501, 1536, 1535, 1255, 1256, 1291, 1290
1051, 1501, 1502, 1537, 1536, 1256, 1257, 1292, 1291
1052, 1502, 1503, 1538, 1537, 1257, 1258, 1293, 1292
1053, 1503, 1504, 1539, 1538, 1258, 1259, 1294, 1293
1054, 1504, 1505, 1540, 1539, 1259, 1260, 1295, 1294
1055, 1506, 1507, 1542, 1541, 1261, 1262, 1297, 1296
1056, 1507, 1508, 1543, 1542, 1262, 1263, 1298, 1297
1057, 1508, 1509, 1544, 1543, 1263, 1264, 1299, 1298
1058, 1509, 1510, 1545, 1544, 1264, 1265, 1300, 1299
1059, 1510, 1511, 1546, 1545, 1265, 1266, 1301, 1300
1060, 1511, 1512, 1547, 1546, 1266, 1267, 1302, 1301
1061, 1512, 1513, 1548, 1547, 1267, 1268, 1303, 1302
1062, 1513, 1514, 1549, 1548, 1268, 1269, 1304, 1303
1063, 1514, 1515, 1550, 1549, 1269, 1270, 1305, 1304
1064, 1515, 1516, 1551, 1550, 1270, 1271, 1306, 1305
1065, 1516, 1517, 1552, 1551, 1271, 1272, 1307, 1306
1066, 1517, 1518, 1553, 1552, 1272, 1273, 1308, 1307
1067, 1518, 1519, 1554, 1553, 1273, 1274, 1309, 1308
1068, 1519, 1520, 1555, 1554, 1274, 1275, 1310, 1309
1069, 1520, 1521, 1556, 1555, 1275, 1276, 1311, 1310
1070, 1521, 1522, 1557, 1556, 1276, 1277, 1312, 1311
1071, 1522, 1523, 1558, 1557, 1277, 1278, 1313, 1312
1072, 1523, 1524, 1559, 1558, 1278, 1279, 1314, 1313
1073, 1524, 1525, 1560, 1559, 1279, 1280, 1315, 1314
1074, 1525, 1526, 1561, 1560, 1280, 1281, 1316, 1315
1075, 1526, 1527, 1562, 1561, 1281, 1282, 1317, 1316
1076, 1527, 1528, 1563, 1562, 1282, 1283, 1318, 1317
1077, 1528, 1529, 1564, 1563, 1283, 1284, 1319, 1318
1078, 1529, 1530, 1565, 1564, 1284, 1285, 1320, 1319
1079, 1530, 1531, 1566, 1565, 1285, 1286, 1321, 1320
1080, 1531, 1532, 1567, 1566, 1286, 1287, 1322, 1321
1081, 1532, 1533, 1568, 1567, 1287, 1288, 1323, 1322
1082, 1533, 1534, 1569, 1568, 1288, 1289, 1324, 1323
1083, 1534, 1535, 1570, 1569, 1289, 1290, 1325, 1324
1084, 1535, 1536, 1571, 1570, 1290, 1291, 1326, 1325
1085, 1536, 1537, 1572, 1571, 1291, 1292, 1327, 1326
1086, 1537, 1538, 1573, 1572, 1292, 1293, 1328, 1327
1087, 1538, 1539, 1574, 1573, 1293, 1294, 1329, 1328
1088, 1539, 1540, 1575, 1574, 1294, 1295, 1330, 1329
1089, 1541, 1542, 1577, 1576, 1296, 1297, 1332, 1331
1090, 1542, 1543, 1578, 1577, 1297, 1298, 1333, 1332
1091, 1543, 1544, 1579, 1578, 1298, 1299, 1334, 1333
1092, 1544, 1545, 1580, 1579, 1299, 1300, 1335, 1334
1093, 1545, 1546, 1581, 1580, 1300, 1301, 1336, 1335
1094, 1546, 1547, 1582, 1581, 1301, 1302, 1337, 1336
1095, 1547, 1548, 1583, 1582, 1302, 1303, 1338, 1337
1096, 1548, 1549, 1584, 1583, 1303, 1304, 1339, 1338
1097, 1549, 1550, 1585, 1584, 1304, 1305, 1340, 1339
1098, 1550, 1551, 1586, 1585, 1305, 1306, 1341, 1340
1099, 1551, 1552, 1587, 1586, 1306, 1307, 1342, 1341
1100, 1552, 1553, 1588, 1587, 1307, 1308, 1343, 1342
1101, 1553, 1554, 1589, 1588, 1308, 1309, 1344, 1343
1102, 1554, 1555, 1590, 1589, 1309, 1310, 1345, 1344
1103, 1555, 1556, 1591, 1590, 1310, 1311, 1346, 1345
1104, 1556, 1557, 1592, 1591, 1311, 1312, 1347, 1346
1105, 1557, 1558, 1593, 1592, 1312, 1313, 1348, 1347
1106, 1558, 1559, 1594, 1593, 1313, 1314, 1349, 1348
1107, 1559, 1560, 1595, 1594, 1314, 1315, 1350, 1349
1108, 1560, 1561, 1596, 1595, 1315, 1316, 1351, 1350
1109, 1561, 1562, 1597, 1596, 1316, 1317, 1352, 1351
1110, 1562, 1563, 1598, 1597, 1317, 1318, 1353, 1352
1111, 1563, 1564, 1599, 1598, 1318, 1319, 1354, 1353
1112, 1564, 1565, 1600, 1599, 1319, 1320, 1355, 1354
1113, 1565, 1566, 1601, 1600, 1320, 1321, 1356, 1355
1114, 1566, 1567, 1602, 1601, 1321, 1322, 1357, 1356
1115, 1567, 1568, 1603, 1602, 1322, 1323, 1358, 1357
1116, 1568, 1569, 1604, 1603, 1323, 1324, 1359, 1358
1117, 1569, 1570, 1605, 1604, 1324, 1325, 1360, 1359
1118, 1570, 1571, 1606, 1605, 1325, 1326, 1361, 1360
1119, 1571, 1572, 1607, 1606, 1326, 1327, 1362, 1361
1120, 1572, 1573, 1608, 1607, 1327, 1328, 1363, 1362
1121, 1573, 1574, 1609, 1608, 1328, 1329, 1364, 1363
1122, 1574, 1575, 1610, 1609, 1329, 1330, 1365, 1364
1123, 1576, 1577, 1612, 1611, 1331, 1332, 1367, 1366
1124, 1577, 1578, 1613, 1612, 1332, 1333, 1368, 1367
1125, 1578, 1579, 1614, 1613, 1333, 1334, 1369, 1368
1126, 1579, 1580, 1615, 1614, 1334, 1335, 1370, 1369
1127, 1580, 1581, 1616, 1615, 1335, 1336, 1371, 1370
1128, 1581, 1582, 1617, 1616, 1336, 1337, 1372, 1371
1129, 1582, 1583, 1618, 1617, 1337, 1338, 1373, 1372
1130, 1583, 1584, 1619, 1618, 1338, 1339, 1374, 1373
1131, 1584, 1585, 1620, 1619, 1339, 1340, 1375, 1374
1132, 1585, 1586, 1621, 1620, 1340, 1341, 1376, 1375
1133, 1586, 1587, 1622, 1621, 1341, 1342, 1377, 1376
1134, 1587, 1588, 1623, 1622, 1342, 1343, 1378, 1377
1135, 1588, 1589, 1624, 1623, 1343, 1344, 1379, 1378
1136, 1589, 1590, 1625, 1624, 1344, 1345, 1380, 1379
1137, 1590, 1591, 1626, 1625, 1345, 1346, 1381, 1380
1138, 1591, 1592, 1627, 1626, 1346, 1347, 1382, 1381
1139, 1592, 1593, 1628, 1627, 1347, 1348, 1383, 1382
1140, 1593, 1594, 1629, 1628, 1348, 1349, 1384, 1383
1141, 1594, 1595, 1630, 1629, 1349, 1350, 1385, 1384
1142, 1595, 1596, 1631, 1630, 1350, 1351, 1386, 1385
1143, 1596, 1597, 1632, 1631, 1351, 1352, 1387, 1386
1144, 1597, 1598, 1633, 1632, 1352, 1353, 1388, 1387
1145, 1598, 1599, 1634, 1633, 1353, 1354, 1389, 1388
1146, 1599, 1600, 1635, 1634, 1354, 1355, 1390, 1389
1147, 1600, 1601, 1636, 1635, 1355, 1356, 1391, 1390
1148, 1601, 1602, 1637, 1636, 1356, 1357, 1392, 1391
1149, 1602, 1603, 1638, 1637, 1357, 1358, 1393, 1392
1150, 1603, 1604, 1639, 1638, 1358, 1359, 1394, 1393
1151, 1604, 1605, 1640, 1639, 1359, 1360, 1395, 1394
1152, 1605, 1606, 1641, 1640, 1360, 1361, 1396, 1395
1153, 1606, 1607, 1642, 1641, 1361, 1362, 1397, 1396
1154, 1607, 1608, 1643, 1642, 1362, 1363, 1398, 1397
1155, 1608, 1609, 1644, 1643, 1363, 1364, 1399, 1398
1156, 1609, 1610, 1645, 1644, 1364, 1365, 1400, 1399
1157, 1611, 1612, 1647, 1646, 1366, 1367, 1402, 1401
1158, 1612, 1613, 1648, 1647, 1367, 1368, 1403, 1402
1159, 1613, 1614, 1649, 1648, 1368, 1369, 1404, 1403
1160, 1614, 1615, 1650, 1649, 1369, 1370, 1405, 1404
1161, 1615, 1616, 1651, 1650, 1370, 1371, 1406, 1405
1162, 1616, 1617, 1652, 1651, 1371, 1372, 1407, 1406
1163, 1617, 1618, 1653, 1652, 1372, 1373, 1408, 1407
1164, 1618, 1619, 1654, 1653, 1373, 1374, 1409, 1408
1165, 1619, 1620, 1655, 1654, 1374, 1375, 1410, 1409
1166, 1620, 1621, 1656, 1655, 1375, 1376, 1411, 1410
1167, 1621, 1622, 1657, 1656, 1376, 1377, 1412, 1411
1168, 1622, 1623, 1658, 1657, 1377, 1378, 1413, 1412
1169, 1623, 1624, 1659, 1658, 1378, 1379, 1414, 1413
1170, 1624, 1625, 1660, 1659, 1379, 1380, 1415, 1414
1171, 1625, 1626, 1661, 1660, 1380, 1381, 1416, 1415
1172, 1626, 1627, 1662, 1661, 1381, 1382, 1417, 1416
1173, 1627, 1628, 1663, 1662, 1382, 1383, 1418, 1417
1174, 1628, 1629, 1664, 1663, 1383, 1384, 1419, 1418
1175, 1629, 1630, 1665, 1664, 1384, 1385, 1420, 1419
1176, 1630, 1631, 1666, 1665, 1385, 1386, 1421, 1420
1177, 1631, 1632, 1667, 1666, 1386, 1387, 1422, 1421
1178, 1632, 1633, 1668, 1667, 1387, 1388, 1423, 1422
1179, 1633, 1634, 1669, 1668, 1388, 1389, 1424, 1423
1180, 1634, 1635, 1670, 1669, 1389, 1390, 1425, 1424
1181, 1635, 1636, 1671, 1670, 1390, 1391, 1426, 1425
1182, 1636, 1637, 1672, 1671, 1391, 1392, 1427, 1426
1183, 1637, 1638, 1673, 1672, 1392, 1393, 1428, 1427
1184, 1638, 1639, 1674, 1673, 1393, 1394, 1429, 1428
1185, 1639, 1640, 1675, 1674, 1394, 1395, 1430, 1429
1186, 1640, 1641, 1676, 1675, 1395, 1396, 1431, 1430
1187, 1641, 1642, 1677, 1676, 1396, 1397, 1432, 1431
1188, 1642, 1643, 1678, 1677, 1397, 1398, 1433, 1432
1189, 1643, 1644, 1679, 1678, 1398, 1399, 1434, 1433
1190, 1644, 1645, 1680, 1679, 1399, 1400, 1435, 1434
1191, 1646, 1647, 1682, 1681, 1401, 1402, 1437, 1436
1192, 1647, 1648, 1683, 1682, 1402, 1403, 1438, 1437
1193, 1648, 1649, 1684, 1683, 1403, 1404, 1439, 1438
1194, 1649, 1650, 1685, 1684, 1404, 1405, 1440, 1439
1195, 1650, 1651, 1686, 1685, 1405, 1406, 1441, 1440
1196, 1651, 1652, 1687, 1686, 1406, 1407, 1442, 1441
1197, 1652, 1653, 1688, 1687, 1407, 1408, 1443, 1442
1198, 1653, 1654, 1689, 1688, 1408, 1409, 1444, 1443
1199, 1654, 1655, 1690, 1689, 1409, 1410, 1445, 1444
1200, 1655, 1656, 1691, 1690, 1410, 1411, 1446, 1445
1201, 1656, 1657, 1692, 1691, 1411, 1412, 1447, 1446
1202, 1657, 1658, 1693, 1692, 1412, 1413, 1448, 1447
1203, 1658, 1659, 1694, 1693, 1413, 1414, 1449, 1448
1204, 1659, 1660, 1695, 1694, 1414, 1415, 1450, 1449
1205, 1660, 1661, 1696, 1695, 1415, 1416, 1451, 1450
1206, 1661, 1662, 1697, 1696, 1416, 1417, 1452, 1451
1207, 1662, 1663, 1698, 1697, 1417, 1418, 1453, 1452
1208, 1663, 1664, 1699, 1698, 1418, 1419, 1454, 1453
1209, 1664, 1665, 1700, 1699, 1419, 1420, 1455, 1454
1210, 1665, 1666, 1701, 1700, 1420, 1421, 1456, 1455
1211, 1666, 1667, 1702, 1701, 1421, 1422, 1457, 1456
1212, 1667, 1668, 1703, 1702, 1422, 1423, 1458, 1457
1213, 1668, 1669, 1704, 1703, 1423, 1424, 1459, 1458
1214, 1669, 1670, 1705, 1704, 1424, 1425, 1460, 1459
1215, 1670, 1671, 1706, 1705, 1425, 1426, 1461, 1460
1216, 1671, 1672, 1707, 1706, 1426, 1427, 1462, 1461
1217, 1672, 1673, 1708, 1707, 1427, 1428, 1463, 1462
1218, 1673, 1674, 1709, 1708, 1428, 1429, 1464, 1463
1219, 1674, 1675, 1710, 1709, 1429, 1430, 1465, 1464
1220, 1675, 1676, 1711, 1710, 1430, 1431, 1466, 1465
1221, 1676, 1677, 1712, 1711, 1431, 1432, 1467, 1466
1222, 1677, 1678, 1713, 1712, 1432, 1433, 1468, 1467
1223, 1678, 1679, 1714, 1713, 1433, 1434, 1469, 1468
1224, 1679, 1680, 1715, 1714, 1434, 1435, 1470, 1469
1225, 1716, 1717, 1752, 1751, 1471, 1472, 1507, 1506
1226, 1717, 1718, 1753, 1752, 1472, 1473, 1508, 1507
1227, 1718, 1719, 1754, 1753, 1473, 1474, 1509, 1508
1228, 1719, 1720, 1755, 1754, 1474, 1475, 1510, 1509
1229, 1720, 1721, 1756, 1755, 1475, 1476, 1511, 1510
1230, 1721, 1722, 1757, 1756, 1476, 1477, 1512, 1511
1231, 1722, 1723, 1758, 1757, 1477, 1478, 1513, 1512
1232, 1723, 1724, 1759, 1758, 1478, 1479, 1514, 1513
1233, 1724, 1725, 1760, 1759, 1479, 1480, 1515, 1514
1234, 1725, 1726, 1761, 1760, 1480, 1481, 1516, 1515
1235, 1726, 1727, 1762, 1761, 1481, 1482, 1517, 1516
1236, 1727, 1728, 1763, 1762, 1482, 1483, 1518, 1517
1237, 1728, 1729, 1764, 1763, 1483, 1484, 1519, 1518
1238, 1729, 1730, 1765, 1764, 1484, 1485, 1520, 1519
1239, 1730, 1731, 1766, 1765, 1485, 1486, 1521, 1520
1240, 1731, 1732, 1767, 1766, 1486, 1487, 1522, 1521
1241, 1732, 1733, 1768, 1767, 1487, 1488, 1523, 1522
1242, 1733, 1734, 1769, 1768, 1488, 1489, 1524, 1523
1243, 1734, 1735, 1770, 1769, 1489, 1490, 1525, 1524
1244, 1735, 1736, 1771, 1770, 1490, 1491, 1526, 1525
1245, 1736, 1737, 1772, 1771, 1491, 1492, 1527, 1526
1246, 1737, 1738, 1773, 1772, 1492, 1493, 1528, 1527
1247, 1738, 1739, 1774, 1773, 1493, 1494, 1529, 1528
1248, 1739, 1740, 1775, 1774, 1494, 1495, 1530, 1529
1249, 1740, 1741, 1776, 1775, 1495, 1496, 1531, 1530
1250, 1741, 1742, 1777, 1776, 1496, 1497, 1532, 1531
1251, 1742, 1743, 1778, 1777, 1497, 1498, 1533, 1532
1252, 1743, 1744, 1779, 1778, 1498, 1499, 1534, 1533
1253, 1744, 1745, 1780, 1779, 1499, 1500, 1535, 1534
1254, 1745, 1746, 1781, 1780, 1500, 1501, 1536, 1535
1255, 1746, 1747, 1782, 1781, 1501, 1502, 1537, 1536
1256, 1747, 1748, 1783, 1782, 1502, 1503, 1538, 1537
1257, 1748, 1749, 1784, 1783, 1503, 1504, 1539, 1538
1258, 1749, 1750, 1785, 1784, 1504, 1505, 1540, 1539
1259, 1751, 1752, 1787, 1786, 1506, 1507, 1542, 1541
1260, 1752, 1753, 1788, 1787, 1507, 1508, 1543, 1542
1261, 1753, 1754, 1789, 1788, 1508, 1509, 1544, 1543
1262, 1754, 1755, 1790, 1789, 1509, 1510, 1545, 1544
1263, 1755, 1756, 1791, 1790, 1510, 1511, 1546, 1545
1264, 1756, 1757, 1792, 1791, 1511, 1512, 1547, 1546
1265, 1757, 1758, 1793, 1792, 1512, 1513, 1548, 1547
1266, 1758, 1759, 1794, 1793, 1513, 1514, 1549, 1548
1267, 1759, 1760, 1795, 1794, 1514, 1515, 1550, 1549
1268, 1760, 1761, 1796, 1795, 1515, 1516, 1551, 1550
1269, 1761, 1762, 1797, 1796, 1516, 1517, 1552, 1551
1270, 1762, 1763, 1798, 1797, 1517, 1518, 1553, 1552
1271, 1763, 1764, 1799, 1798, 1518, 1519, 1554, 1553
1272, 1764, 1765, 1800, 1799, 1519, 1520, 1555, 1554
1273, 1765, 1766, 1801, 1800, 1520, 1521, 1556, 1555
1274, 1766, 1767, 1802, 1801, 1521, 1522, 1557, 1556
1275, 1767, 1768, 1803, 1802, 1522, 1523, 1558, 1557
1276, 1768, 1769, 1804, 1803, 1523, 1524, 1559, 1558
1277, 1769, 1770, 1805, 1804, 1524, 1525, 1560, 1559
1278, 1770, 1771, 1806, 1805, 1525, 1526, 1561, 1560
1279, 1771, 1772, 1807, 1806, 1526, 1527, 1562, 1561
1280, 1772, 1773, 1808, 1807, 1527, 1528, 1563, 1562
1281, 1773, 1774, 1809, 1808, 1528, 1529, 1564, 1563
1282, 1774, 1775, 1810, 1809, 1529, 1530, 1565, 1564
1283, 1775, 1776, 1811, 1810, 1530, 1531, 1566, 1565
1284, 1776, 1777, 1812, 1811, 1531, 1532, 1567, 1566
1285, 1777, 1778, 1813, 1812, 1532, 1533, 1568, 1567
1286, 1778, 1779, 1814, 1813, 1533, 1534, 1569, 1568
1287, 1779, 1780, 1815, 1814, 1534, 1535, 1570, 1569
1288, 1780, 1781, 1816, 1815, 1535, 1536, 1571, 1570
1289, 1781, 1782, 1817, 1816, 1536, 1537, 1572, 1571
1290, 1782, 1783, 1818, 1817, 1537, 1538, 1573, 1572
1291, 1783, 1784, 1819, 1818, 1538, 1539, 1574, 1573
1292, 1784, 1785, 1820, 1819, 1539, 1540, 1575, 1574
1293, 1786, 1787, 1822, 1821, 1541, 1542, 1577, 1576
1294, 1787, 1788, 1823, 1822, 1542, 1543, 1578, 1577
1295, 1788, 1789, 1824, 1823, 1543, 1544, 1579, 1578
1296, 1789, 1790, 1825, 1824, 1544, 1545, 1580, 1579
1297, 1790, 1791, 1826, 1825, 1545, 1546, 1581, 1580
1298, 1791, 1792, 1827, 1826, 1546, 1547, 1582, 1581
1299, 1792, 1793, 1828, 1827, 1547, 1548, 1583, 1582
1300, 1793, 1794, 1829, 1828, 1548, 1549, 1584, 1583
1301, 1794, 1795, 1830, 1829, 1549, 1550, 1585, 1584
1302, 1795, 1796, 1831, 1830, 1550, 1551, 1586, 1585
1303, 1796, 1797, 1832, 1831, 1551, 1552, 1587, 1586
1304, 1797, 1798, 1833, 1832, 1552, 1553, 1588, 1587
1305, 1798, 1799, 1834, 1833, 1553, 1554, 1589, 1588
1306, 1799, 1800, 1835, 1834, 1554, 1555, 1590, 1589
1307, 1800, 1801, 1836, 1835, 1555, 1556, 1591, 1590
1308, 1801, 1802, 1837, 1836, 1556, 1557, 1592, 1591
1309, 1802, 1803, 1838, 1837, 1557, 1558, 1593, 1592
1310, 1803, 1804, 1839, 1838, 1558, 1559, 1594, 1593
1311, 1804, 1805, 1840, 1839, 1559, 1560, 1595, 1594
1312, 1805, 1806, 1841, 1840, 1560, 1561, 1596, 1595
1313, 1806, 1807, 1842, 1841, 1561, 1562, 1597, 1596
1314, 1807, 1808, 1843, 1842, 1562, 1563, 1598, 1597
1315, 1808, 1809, 1844, 1843, 1563, 1564, 1599, 1598
1316, 1809, 1810, 1845, 1844, 1564, 1565, 1600, 1599
1317, 1810, 1811, 1846, 1845, 1565, 1566, 1601, 1600
1318, 1811, 1812, 1847, 1846, 1566, 1567, 1602, 1601
1319, 1812, 1813, 1848, 1847, 1567, 1568, 1603, 1602
1320, 1813, 1814, 1849, 1848, 1568, 1569, 1604, 1603
1321, 1814, 1815, 1850, 1849, 1569, 1570, 1605, 1604
1322, 1815, 1816, 1851, 1850, 1570, 1571, 1606, 1605
1323, 1816, 1817, 1852, 1851, 1571, 1572, 1607, 1606
1324, 1817, 1818, 1853, 1852, 1572, 1573, 1608, 1607
1325, 1818, 1819, 1854, 1853, 1573, 1574, 1609, 1608
1326, 1819, 1820, 1855, 1854, 1574, 1575, 1610, 1609
1327, 1821, 1822, 1857, 1856, 1576, 1577, 1612, 1611
1328, 1822, 1823, 1858, 1857, 1577, 1578, 1613, 1612
1329, 1823, 1824, 1859, 1858, 1578, 1579, 1614, 1613
1330, 1824, 1825, 1860, 1859, 1579, 1580, 1615, 1614
1331, 1825, 1826, 1861, 1860, 1580, 1581, 1616, 1615
1332, 1826, 1827, 1862, 1861, 1581, 1582, 1617, 1616
1333, 1827, 1828, 1863, 1862, 1582, 1583, 1618, 1617
1334, 1828, 1829, 1864, 1863, 1583, 1584, 1619, 1618
1335, 1829, 1830, 1865, 1864, 1584, 1585, 1620, 1619
1336, 1830, 1831, 1866, 1865, 1585, 1586, 1621, 1620
1337, 1831, 1832, 1867, 1866, 1586, 1587, 1622, 1621
1338, 1832, 1833, 1868, 1867, 1587, 1588, 1623, 1622
1339, 1833, 1834, 1869, 1868, 1588, 1589, 1624, 1623
1340, 1834, 1835, 1870, 1869, 1589, 1590, 1625, 1624
1341, 1835, 1836, 1871, 1870, 1590, 1591, 1626, 1625
1342, 1836, 1837, 1872, 1871, 1591, 1592, 1627, 1626
1343, 1837, 1838, 1873, 1872, 1592, 1593, 1628, 1627
1344, 1838, 1839, 1874, 1873, 1593, 1594, 1629, 1628
1345, 1839, 1840, 1875, 1874, 1594, 1595, 1630, 1629
1346, 1840, 1841, 1876, 1875, 1595, 1596, 1631, 1630
1347, 1841, 1842, 1877, 1876, 1596, 1597, 1632, 1631
1348, 1842, 1843, 1878, 1877, 1597, 1598, 1633, 1632
1349, 1843, 1844, 1879, 1878, 1598, 1599, 1634, 1633
1350, 1844, 1845, 1880, 1879, 1599, 1600, 1635, 1634
1351, 1845, 1846, 1881, 1880, 1600, 1601, 1636, 1635
1352, 1846, 1847, 1882, 1881, 1601, 1602, 1637, 1636
1353, 1847, 1848, 1883, 1882, 1602, 1603, 1638, 1637
1354, 1848, 1849, 1884, 1883, 1603, 1604, 1639, 1638
1355, 1849, 1850, 1885, 1884, 1604, 1605, 1640, 1639
1356, 1850, 1851, 1886, 1885, 1605, 1606, 1641, 1640
1357, 1851, 1852, 1887, 1886, 1606, 1607, 1642, 1641
1358, 1852, 1853, 1888, 1887, 1607, 1608, 1643, 1642
1359, 1853, 1854, 1889, 1888, 1608, 1609, 1644, 1643
1360, 1854, 1855, 1890, 1889, 1609, 1610, 1645, 1644
1361, 1856, 1857, 1892, 1891, 1611, 1612, 1647, 1646
1362, 1857, 1858, 1893, 1892, 1612, 1613, 1648, 1647
1363, 1858, 1859, 1894, 1893, 1613, 1614, 1649, 1648
1364, 1859, 1860, 1895, 1894, 1614, 1615, 1650, 1649
1365, 1860, 1861, 1896, 1895, 1615, 1616, 1651, 1650
1366, 1861, 1862, 1897, 1896, 1616, 1617, 1652, 1651
1367, 1862, 1863, 1898, 1897, 1617, 1618, 1653, 1652
1368, 1863, 1864, 1899, 1898, 1618, 1619, 1654, 1653
1369, 1864, 1865, 1900, 1899, 1619, 1620, 1655, 1654
1370, 1865, 1866, 1901, 1900, 1620, 1621, 1656, 1655
1371, 1866, 1867, 1902, 1901, 1621, 1622, 1657, 1656
1372, 1867, 1868, 1903, 1902, 1622, 1623, 1658, 1657
1373, 1868, 1869, 1904, 1903, 1623, 1624, 1659, 1658
1374, 1869, 1870, 1905, 1904, 1624, 1625, 1660, 1659
1375, 1870, 1871, 1906, 1905, 1625, 1626, 1661, 1660
1376, 1871, 1872, 1907, 1906, 1626, 1627, 1662, 1661
1377, 1872, 1873, 1908, 1907, 1627, 1628, 1663, 1662
1378, 1873, 1874, 1909, 1908, 1628, 1629, 1664, 1663
1379, 1874, 1875, 1910, 1909, 1629, 1630, 1665, 1664
1380, 1875, 1876, 1911, 1910, 1630, 1631, 1666, 1665
1381, 1876, 1877, 1912, 1911, 1631, 1632, 1667, 1666
1382, 1877, 1878, 1913, 1912, 1632, 1633, 1668, 1667
1383, 1878, 1879, 1914, 1913, 1633, 1634, 1669, 1668
1384, 1879, 1880, 1915, 1914, 1634, 1635, 1670, 1669
1385, 1880, 1881, 1916, 1915, 1635, 1636, 1671, 1670
1386, 1881, 1882, 1917, 1916, 1636, 1637, 1672, 1671
1387, 1882, 1883, 1918, 1917, 1637, 1638, 1673, 1672
1388, 1883, 1884, 1919, 1918, 1638, 1639, 1674, 1673
1389, 1884, 1885, 1920, 1919, 1639, 1640, 1675, 1674
1390, 1885, 1886, 1921, 1920, 1640, 1641, 1676, 1675
1391, 1886, 1887, 1922, 1921, 1641, 1642, 1677, 1676
1392, 1887, 1888, 1923, 1922, 1642, 1643, 1678, 1677
1393, 1888, 1889, 1924, 1923, 1643, 1644, 1679, 1678
1394, 1889, 1890, 1925, 1924, 1644, 1645, 1680, 1679
1395, 1891, 1892, 1927, 1926, 1646, 1647, 1682, 1681
1396, 1892, 1893, 1928, 1927, 1647, 1648, 1683, 1682
1397, 1893, 1894, 1929, 1928, 1648, 1649, 1684, 1683
1398, 1894, 1895, 1930, 1929, 1649, 1650, 1685, 1684
1399, 1895, 1896, 1931, 1930, 1650, 1651, 1686, 1685
1400, 1896, 1897, 1932, 1931, 1651, 1652, 1687, 1686
1401, 1897, 1898, 1933, 1932, 1652, 1653, 1688, 1687
1402, 1898, 1899, 1934, 1933, 1653, 1654, 1689, 1688
1403, 1899, 1900, 1935, 1934, 1654, 1655, 1690, 1689
1404, 1900, 1901, 1936, 1935, 1655, 1656, 1691, 1690
1405, 1901, 1902, 1937, 1936, 1656, 1657, 1692, 1691
1406, 1902, 1903, 1938, 1937, 1657, 1658, 1693, 1692
1407, 1903, 1904, 1939, 1938, 1658, 1659, 1694, 1693
1408, 1904, 1905, 1940, 1939, 1659, 1660, 1695, 1694
1409, 1905, 1906, 1941, 1940, 1660, 1661, 1696, 1695
1410, 1906, 1907, 1942, 1941, 1661, 1662, 1697, 1696
1411, 1907, 1908, 1943, 1942, 1662, 1663, 1698, 1697
1412, 1908, 1909, 1944, 1943, 1663, 1664, 1699, 1698
1413, 1909, 1910, 1945, 1944, 1664, 1665, 1700, 1699
1414, 1910, 1911, 1946, 1945, 1665, 1666, 1701, 1700
1415, 1911, 1912, 1947, 1946, 1666, 1667, 1702, 1701
1416, 1912, 1913, 1948, 1947, 1667, 1668, 1703, 1702
1417, 1913, 1914, 1949, 1948, 1668, 1669, 1704, 1703
1418, 1914, 1915, 1950, 1949, 1669, 1670, 1705, 1704
1419, 1915, 1916, 1951, 1950, 1670, 1671, 1706, 1705
1420, 1916, 1917, 1952, 1951, 1671, 1672, 1707, 1706
1421, 1917, 1918, 1953, 1952, 1672, 1673, 1708, 1707
1422, 1918, 1919, 1954, 1953, 1673, 1674, 1709, 1708
1423, 1919, 1920, 1955, 1954, 1674, 1675, 1710, 1709
1424, 1920, 1921, 1956, 1955, 1675, 1676, 1711, 1710
1425, 1921, 1922, 1957, 1956, 1676, 1677, 1712, 1711
1426, 1922, 1923, 1958, 1957, 1677, 1678, 1713, 1712
1427, 1923, 1924, 1959, 1958, 1678, 1679, 1714, 1713
1428, 1924, 1925, 1960, 1959, 1679, 1680, 1715, 1714
1429, 1961, 1962, 1997, 1996, 1716, 1717, 1752, 1751
1430, 1962, 1963, 1998, 1997, 1717, 1718, 1753, 1752
1431, 1963, 1964, 1999, 1998, 1718, 1719, 1754, 1753
1432, 1964, 1965, 2000, 1999, 1719, 1720, 1755, 1754
1433, 1965, 1966, 2001, 2000, 1720, 1721, 1756, 1755
1434, 1966, 1967, 2002, 2001, 1721, 1722, 1757, 1756
1435, 1967, 1968, 2003, 2002, 1722, 1723, 1758, 1757
1436, 1968, 1969, 2004, 2003, 1723, 1724, 1759, 1758
1437, 1969, 1970, 2005, 2004, 1724, 1725, 1760, 1759
1438, 1970, 1971, 2006, 2005, 1725, 1726, 1761, 1760
1439, 1971, 1972, 2007, 2006, 1726, 1727, 1762, 1761
1440, 1972, 1973, 2008, 2007, 1727, 1728, 1763, 1762
1441, 1973, 1974, 2009, 2008, 1728, 1729, 1764, 1763
1442, 1974, 1975, 2010, 2009, 1729, 1730, 1765, 1764
1443, 1975, 1976, 2011, 2010, 1730, 1731, 1766, 1765
1444, 1976, 1977, 2012, 2011, 1731, 1732, 1767, 1766
1445, 1977, 1978, 2013, 2012, 1732, 1733, 1768, 1767
1446, 1978, 1979, 2014, 2013, 1733, 1734, 1769, 1768
1447, 1979, 1980, 2015, 2014, 1734, 1735, 1770, 1769
1448, 1980, 1981, 2016, 2015, 1735, 1736, 1771, 1770
1449, 1981, 1982, 2017, 2016, 1736, 1737, 1772, 1771
1450, 1982, 1983, 2018, 2017, 1737, 1738, 1773, 1772
1451, 1983, 1984, 2019, 2018, 1738, 1739, 1774, 1773
1452, 1984, 1985, 2020, 2019, 1739, 1740, 1775, 1774
1453, 1985, 1986, 2021, 2020, 1740, 1741, 1776, 1775
1454, 1986, 1987, 2022, 2021, 1741, 1742, 1777, 1776
1455, 1987, 1988, 2023, 2022, 1742, 1743, 1778, 1777
1456, 1988, 1989, 2024, 2023, 1743, 1744, 1779, 1778
1457, 1989, 1990, 2025, 2024, 1744, 1745, 1780, 1779
1458, 1990, 1991, 2026, 2025, 1745, 1746, 1781, 1780
1459, 1991, 1992, 2027, 2026, 1746, 1747, 1782, 1781
1460, 1992, 1993, 2028, 2027, 1747, 1748, 1783, 1782
1461, 1993, 1994, 2029, 2028, 1748, 1749, 1784, 1783
1462, 1994, 1995, 2030, 2029, 1749, 1750, 1785, 1784
1463, 1996, 1997, 2032, 2031, 1751, 1752, 1787, 1786
1464, 1997, 1998, 2033, 2032, 1752, 1753, 1788, 1787
1465, 1998, 1999, 2034, 2033, 1753, 1754, 1789, 1788
1466, 1999, 2000, 2035, 2034, 1754, 1755, 1790, 1789
1467, 2000, 2001, 2036, 2035, 1755, 1756, 1791, 1790
1468, 2001, 2002, 2037, 2036, 1756, 1757, 1792, 1791
1469, 2002, 2003, 2038, 2037, 1757, 1758, 1793, 1792
1470, 2003, 2004, 2039, 2038, 1758, 1759, 1794, 1793
1471, 2004, 2005, 2040, 2039, 1759, 1760, 1795, 1794
1472, 2005, 2006, 2041, 2040, 1760, 1761, 1796, 1795
1473, 2006, 2007, 2042, 2041, 1761, 1762, 1797, 1796
1474, 2007, 2008, 2043, 2042, 1762, 1763, 1798, 1797
1475, 2008, 2009, 2044, 2043, 1763, 1764, 1799, 1798
1476, 2009, 2010, 2045, 2044, 1764, 1765, 1800, 1799
1477, 2010, 2011, 2046, 2045, 1765, 1766, 1801, 1800
1478, 2011, 2012, 2047, 2046, 1766, 1767, 1802, 1801
1479, 2012, 2013, 2048, 2047, 1767, 1768, 1803, 1802
1480, 2013, 2014, 2049, 2048, 1768, 1769, 1804, 1803
1481, 2014, 2015, 2050, 2049, 1769, 1770, 1805, 1804
1482, 2015, 2016, 2051, 2050, 1770, 1771, 1806, 1805
1483, 2016, 2017, 2052, 2051, 1771, 1772, 1807, 1806
1484, 2017, 2018, 2053, 2052, 1772, 1773, 1808, 1807
1485, 2018, 2019, 2054, 2053, 1773, 1774, 1809, 1808
1486, 2019, 2020, 2055, 2054, 1774, 1775, 1810, 1809
1487, 2020, 2021, 2056, 2055, 1775, 1776, 1811, 1810
1488, 2021, 2022, 2057, 2056, 1776, 1777, 1812, 1811
1489, 2022, 2023, 2058, 2057, 1777, 1778, 1813, 1812
1490, 2023, 2024, 2059, 2058, 1778, 1779, 1814, 1813
1491, 2024, 2025, 2060, 2059, 1779, 1780, 1815, 1814
1492, 2025, 2026, 2061, 2060, 1780, 1781, 1816, 1815
1493, 2026, 2027, 2062, 2061, 1781, 1782, 1817, 1816
1494, 2027, 2028, 2063, 2062, 1782, 1783, 1818, 1817
1495, 2028, 2029, 2064, 2063, 1783, 1784, 1819, 1818
1496, 2029, 2030, 2065, 2064, 1784, 1785, 1820, 1819
1497, 2031, 2032, 2067, 2066, 1786, 1787, 1822, 1821
1498, 2032, 2033, 2068, 2067, 1787, 1788, 1823, 1822
1499, 2033, 2034, 2069, 2068, 1788, 1789, 1824, 1823
1500, 2034, 2035, 2070, 2069, 1789, 1790, 1825, 1824
1501, 2035, 2036, 2071, 2070, 1790, 1791, 1826, 1825
1502, 2036, 2037, 2072, 2071, 1791, 1792, 1827, 1826
1503, 2037, 2038, 2073, 2072, 1792, 1793, 1828, 1827
1504, 2038, 2039, 2074, 2073, 1793, 1794, 1829, 1828
1505, 2039, 2040, 2075, 2074, 1794, 1795, 1830, 1829
1506, 2040, 2041, 2076, 2075, 1795, 1796, 1831, 1830
1507, 2041, 2042, 2077, 2076, 1796, 1797, 1832, 1831
1508, 2042, 2043, 2078, 2077, 1797, 1798, 1833, 1832
1509, 2043, 2044, 2079, 2078, 1798, 1799, 1834, 1833
1510, 2044, 2045, 2080, 2079, 1799, 1800, 1835, 1834
1511, 2045, 2046, 2081, 2080, 1800, 1801, 1836, 1835
1512, 2046, 2047, 2082, 2081, 1801, 1802, 1837, 1836
1513, 2047, 2048, 2083, 2082, 1802, 1803, 1838, 1837
1514, 2048, 2049, 2084, 2083, 1803, 1804, 1839, 1838
1515, 2049, 2050, 2085, 2084, 1804, 1805, 1840, 1839
1516, 2050, 2051, 2086, 2085, 1805, 1806, 1841, 1840
1517, 2051, 2052, 2087, 2086, 1806, 1807, 1842, 1841
1518, 2052, 2053, 2088, 2087, 1807, 1808, 1843, 1842
1519, 2053, 2054, 2089, 2088, 1808, 1809, 1844, 1843
1520, 2054, 2055, 2090, 2089, 1809, 1810, 1845, 1844
1521, 2055, 2056, 2091, 2090, 1810, 1811, 1846, 1845
1522, 2056, 2057, 2092, 2091, 1811, 1812, 1847, 1846
1523, 2057, 2058, 2093, 2092, 1812, 1813, 1848, 1847
1524, 2058, 2059, 2094, 2093, 1813, 1814, 1849, 1848
1525, 2059, 2060, 2095, 2094, 1814, 1815, 1850, 1849
1526, 2060, 2061, 2096, 2095, 1815, 1816, 1851, 1850
1527, 2061, 2062, 2097, 2096, 1816, 1817, 1852, 1851
1528, 2062, 2063, 2098, 2097, 1817, 1818, 1853, 1852
1529, 2063, 2064, 2099, 2098, 1818, 1819, 1854, 1853
1530, 2064, 2065, 2100, 2099, 1819, 1820, 1855, 1854
1531, 2066, 2067, 2102, 2101, 1821, 1822, 1857, 1856
1532, 2067, 2068, 2103, 2102, 1822, 1823, 1858, 1857
1533, 2068, 2069, 2104, 2103, 1823, 1824, 1859, 1858
1534, 2069, 2070, 2105, 2104, 1824, 1825, 1860, 1859
1535, 2070, 2071, 2106, 2105, 1825, 1826, 1861, 1860
1536, 2071, 2072, 2107, 2106, 1826, 1827, 1862, 1861
1537, 2072, 2073, 2108, 2107, 1827, 1828, 1863, 1862
1538, 2073, 2074, 2109, 2108, 1828, 1829, 1864, 1863
1539, 2074, 2075, 2110, 2109, 1829, 1830, 1865, 1864
1540, 2075, 2076, 2111, 2110, 1830, 1831, 1866, 1865
1541, 2076, 2077, 2112, 2111, 1831, 1832, 1867, 1866
1542, 2077, 2078, 2113, 2112, 1832, 1833, 1868, 1867
1543, 2078, 2079, 2114, 2113, 1833, 1834, 1869, 1868
1544, 2079, 2080, 2115, 2114, 1834, 1835, 1870, 1869
1545, 2080, 2081, 2116, 2115, 1835, 1836, 1871, 1870
1546, 2081, 2082, 2117, 2116, 1836, 1837, 1872, 1871
1547, 2082, 2083, 2118, 2117, 1837, 1838, 1873, 1872
1548, 2083, 2084, 2119, 2118, 1838, 1839, 1874, 1873
1549, 2084, 2085, 2120, 2119, 1839, 1840, 1875, 1874
1550, 2085, 2086, 2121, 2120, 1840, 1841, 1876, 1875
1551, 2086, 2087, 2122, 2121, 1841, 1842, 1877, 1876
1552, 2087, 2088, 2123, 2122, 1842, 1843, 1878, 1877
1553, 2088, 2089, 2124, 2123, 1843, 1844, 1879, 1878
1554, 2089, 2090, 2125, 2124, 1844, 1845, 1880, 1879
1555, 2090, 2091, 2126, 2125, 1845, 1846, 1881, 1880
1556, 2091, 2092, 2127, 2126, 1846, 1847, 1882, 1881
1557, 2092, 2093, 2128, 2127, 1847, 1848, 1883, 1882
1558, 2093, 2094, 2129, 2128, 1848, 1849, 1884, 1883
1559, 2094, 2095, 2130, 2129, 1849, 1850, 1885, 1884
1560, 2095, 2096, 2131, 2130, 1850, 1851, 1886, 1885
1561, 2096, 2097, 2132, 2131, 1851, 1852, 1887, 1886
1562, 2097, 2098, 2133, 2132, 1852, 1853, 1888, 1887
1563, 2098, 2099, 2134, 2133, 1853, 1854, 1889, 1888
1564, 2099, 2100, 2135, 2134, 1854, 1855, 1890, 1889
1565, 2101, 2102, 2137, 2136, 1856, 1857, 1892, 1891
1566, 2102, 2103, 2138, 2137, 1857, 1858, 1893, 1892
1567, 2103, 2104, 2139, 2138, 1858, 1859, 1894, 1893
1568, 2104, 2105, 2140, 2139, 1859, 1860, 1895, 1894
1569, 2105, 2106, 2141, 2140, 1860, 1861, 1896, 1895
1570, 2106, 2107, 2142, 2141, 1861, 1862, 1897, 1896
1571, 2107, 2108, 2143, 2142, 1862, 1863, 1898, 1897
1572, 2108, 2109, 2144, 2143, 1863, 1864, 1899, 1898
1573, 2109, 2110, 2145, 2144, 1864, 1865, 1900, 1899
1574, 2110, 2111, 2146, 2145, 1865, 1866, 1901, 1900
1575, 2111, 2112, 2147, 2146, 1866, 1867, 1902, 1901
1576, 2112, 2113, 2148, 2147, 1867, 1868, 1903, 1902
1577, 2113, 2114, 2149, 2148, 1868, 1869, 1904, 1903
1578, 2114, 2115, 2150, 2149, 1869, 1870, 1905, 1904
1579, 2115, 2116, 2151, 2150, 1870, 1871, 1906, 1905
1580, 2116, 2117, 2152, 2151, 1871, 1872, 1907, 1906
1581, 2117, 2118, 2153, 2152, 1872, 1873, 1908, 1907
1582, 2118, 2119, 2154, 2153, 1873, 1874, 1909, 1908
1583, 2119, 2120, 2155, 2154, 1874, 1875, 1910, 1909
1584, 2120, 2121, 2156, 2155, 1875, 1876, 1911, 1910
1585, 2121, 2122, 2157, 2156, 1876, 1877, 1912, 1911
1586, 2122, 2123, 2158, 2157, 1877, 1878, 1913, 1912
1587, 2123, 2124, 2159, 2158, 1878, 1879, 1914, 1913
1588, 2124, 2125, 2160, 2159, 1879, 1880, 1915, 1914
1589, 2125, 2126, 2161, 2160, 1880, 1881, 1916, 1915
1590, 2126, 2127, 2162, 2161, 1881, 1882, 1917, 1916
1591, 2127, 2128, 2163, 2162, 1882, 1883, 1918, 1917
1592, 2128, 2129, 2164, 2163, 1883, 1884, 1919, 1918
1593, 2129, 2130, 2165, 2164, 1884, 1885, 1920, 1919
1594, 2130, 2131, 2166, 2165, 1885, 1886, 1921, 1920
1595, 2131, 2132, 2167, 2166, 1886, 1887, 1922, 1921
1596, 2132, 2133, 2168, 2167, 1887, 1888, 1923, 1922
1597, 2133, 2134, 2169, 2168, 1888, 1889, 1924, 1923
1598, 2134, 2135, 2170, 2169, 1889, 1890, 1925, 1924
1599, 2136, 2137, 2172, 2171, 1891, 1892, 1927, 1926
1600, 2137, 2138, 2173, 2172, 1892, 1893, 1928, 1927
1601, 2138, 2139, 2174, 2173, 1893, 1894, 1929, 1928
1602, 2139, 2140, 2175, 2174, 1894, 1895, 1930, 1929
1603, 2140, 2141, 2176, 2175, 1895, 1896, 1931, 1930
1604, 2141, 2142, 2177, 2176, 1896, 1897, 1932, 1931
1605, 2142, 2143, 2178, 2177, 1897, 1898, 1933, 1932
1606, 2143, 2144, 2179, 2178, 1898, 1899, 1934, 1933
1607, 2144, 2145, 2180, 2179, 1899, 1900, 1935, 1934
1608, 2145, 2146, 2181, 2180, 1900, 1901, 1936, 1935
1609, 2146, 2147, 2182, 2181, 1901, 1902, 1937, 1936
1610, 2147, 2148, 2183, 2182, 1902, 1903, 1938, 1937
1611, 2148, 2149, 2184, 2183, 1903, 1904, 1939, 1938
1612, 2149, 2150, 2185, 2184, 1904, 1905, 1940, 1939
1613, 2150, 2151, 2186, 2185, 1905, 1906, 1941, 1940
1614, 2151, 2152, 2187, 2186, 1906, 1907, 1942, 1941
1615, 2152, 2153, 2188, 2187, 1907, 1908, 1943, 1942
1616, 2153, 2154, 2189, 2188, 1908, 1909, 1944, 1943
1617, 2154, 2155, 2190, 2189, 1909, 1910, 1945, 1944
1618, 2155, 2156, 2191, 2190, 1910, 1911, 1946, 1945
1619, 2156, 2157, 2192, 2191, 1911, 1912, 1947, 1946
1620, 2157, 2158, 2193, 2192, 1912, 1913, 1948, 1947
1621, 2158, 2159, 2194, 2193, 1913, 1914, 1949, 1948
1622, 2159, 2160, 2195, 2194, 1914, 1915, 1950, 1949
1623, 2160, 2161, 2196, 2195, 1915, 1916, 1951, 1950
1624, 2161, 2162, 2197, 2196, 1916, 1917, 1952, 1951
1625, 2162, 2163, 2198, 2197, 1917, 1918, 1953, 1952
1626, 2163, 2164, 2199, 2198, 1918, 1919, 1954, 1953
1627, 2164, 2165, 2200, 2199, 1919, 1920, 1955, 1954
1628, 2165, 2166, 2201, 2200, 1920, 1921, 1956, 1955
1629, 2166, 2167, 2202, 2201, 1921, 1922, 1957, 1956
1630, 2167, 2168, 2203, 2202, 1922, 1923, 1958, 1957
1631, 2168, 2169, 2204, 2203, 1923, 1924, 1959, 1958
1632, 2169, 2170, 2205, 2204, 1924, 1925, 1960, 1959
1633, 2206, 2207, 2242, 2241, 1961, 1962, 1997, 1996
1634, 2207, 2208, 2243, 2242, 1962, 1963, 1998, 1997
1635, 2208, 2209, 2244, 2243, 1963, 1964, 1999, 1998
1636, 2209, 2210, 2245, 2244, 1964, 1965, 2000, 1999
1637, 2210, 2211, 2246, 2245, 1965, 1966, 2001, 2000
1638, 2211, 2212, 2247, 2246, 1966, 1967, 2002, 2001
1639, 2212, 2213, 2248, 2247, 1967, 1968, 2003, 2002
1640, 2213, 2214, 2249, 2248, 1968, 1969, 2004, 2003
1641, 2214, 2215, 2250, 2249, 1969, 1970, 2005, 2004
1642, 2215, 2216, 2251, 2250, 1970, 1971, 2006, 2005
1643, 2216, 2217, 2252, 2251, 1971, 1972, 2007, 2006
1644, 2217, 2218, 2253, 2252, 1972, 1973, 2008, 2007
1645, 2218, 2219, 2254, 2253, 1973, 1974, 2009, 2008
1646, 2219, 2220, 2255, 2254, 1974, 1975, 2010, 2009
1647, 2220, 2221, 2256, 2255, 1975, 1976, 2011, 2010
1648, 2221, 2222, 2257, 2256, 1976, 1977, 2012, 2011
1649, 2222, 2223, 2258, 2257, 1977, 1978, 2013, 2012
1650, 2223, 2224, 2259, 2258, 1978, 1979, 2014, 2013
1651, 2224, 2225, 2260, 2259, 1979, 1980, 2015, 2014
1652, 2225, 2226, 2261, 2260, 1980, 1981, 2016, 2015
1653, 2226, 2227, 2262, 2261, 1981, 1982, 2017, 2016
1654, 2227, 2228, 2263, 2262, 1982, 1983, 2018, 2017
1655, 2228, 2229, 2264, 2263, 1983, 1984, 2019, 2018
1656, 2229, 2230, 2265, 2264, 1984, 1985, 2020, 2019
1657, 2230, 2231, 2266, 2265, 1985, 1986, 2021, 2020
1658, 2231, 2232, 2267, 2266, 1986, 1987, 2022, 2021
1659, 2232, 2233, 2268, 2267, 1987, 1988, 2023, 2022
1660, 2233, 2234, 2269, 2268, 1988, 1989, 2024, 2023
1661, 2234, 2235, 2270, 2269, 1989, 1990, 2025, 2024
1662, 2235, 2236, 2271, 2270, 1990, 1991, 2026, 2025
1663, 2236, 2237, 2272, 2271, 1991, 1992, 2027, 2026
1664, 2237, 2238, 2273, 2272, 1992, 1993, 2028, 2027
1665, 2238, 2239, 2274, 2273, 1993, 1994, 2029, 2028
1666, 2239, 2240, 2275, 2274, 1994, 1995, 2030, 2029
1667, 2241, 2242, 2277, 2276, 1996, 1997, 2032, 2031
1668, 2242, 2243, 2278, 2277, 1997, 1998, 2033, 2032
1669, 2243, 2244, 2279, 2278, 1998, 1999, 2034, 2033
1670, 2244, 2245, 2280, 2279, 1999, 2000, 2035, 2034
1671, 2245, 2246, 2281, 2280, 2000, 2001, 2036, 2035
1672, 2246, 2247, 2282, 2281, 2001, 2002, 2037, 2036
1673, 2247, 2248, 2283, 2282, 2002, 2003, 2038, 2037
1674, 2248, 2249, 2284, 2283, 2003, 2004, 2039, 2038
1675, 2249, 2250, 2285, 2284, 2004, 2005, 2040, 2039
1676, 2250, 2251, 2286, 2285, 2005, 2006, 2041, 2040
1677, 2251, 2252, 2287, 2286, 2006, 2007, 2042, 2041
1678, 2252, 2253, 2288, 2287, 2007, 2008, 2043, 2042
1679, 2253, 2254, 2289, 2288, 2008, 2009, 2044, 2043
1680, 2254, 2255, 2290, 2289, 2009, 2010, 2045, 2044
1681, 2255, 2256, 2291, 2290, 2010, 2011, 2046, 2045
1682, 2256, 2257, 2292, 2291, 2011, 2012, 2047, 2046
1683, 2257, 2258, 2293, 2292, 2012, 2013, 2048, 2047
1684, 2258, 2259, 2294, 2293, 2013, 2014, 2049, 2048
1685, 2259, 2260, 2295, 2294, 2014, 2015, 2050, 2049
1686, 2260, 2261, 2296, 2295, 2015, 2016, 2051, 2050
1687, 2261, 2262, 2297, 2296, 2016, 2017, 2052, 2051
1688, 2262, 2263, 2298, 2297, 2017, 2018, 2053, 2052
1689, 2263, 2264, 2299, 2298, 2018, 2019, 2054, 2053
1690, 2264, 2265, 2300, 2299, 2019, 2020, 2055, 2054
1691, 2265, 2266, 2301, 2300, 2020, 2021, 2056, 2055
1692, 2266, 2267, 2302, 2301, 2021, 2022, 2057, 2056
1693, 2267, 2268, 2303, 2302, 2022, 2023, 2058, 2057
1694, 2268, 2269, 2304, 2303, 2023, 2024, 2059, 2058
1695, 2269, 2270, 2305, 2304, 2024, 2025, 2060, 2059
1696, 2270, 2271, 2306, 2305, 2025, 2026, 2061, 2060
1697, 2271, 2272, 2307, 2306, 2026, 2027, 2062, 2061
1698, 2272, 2273, 2308, 2307, 2027, 2028, 2063, 2062
1699, 2273, 2274, 2309, 2308, 2028, 2029, 2064, 2063
1700, 2274, 2275, 2310, 2309, 2029, 2030, 2065, 2064
1701, 2276, 2277, 2312, 2311, 2031, 2032, 2067, 2066
1702, 2277, 2278, 2313, 2312, 2032, 2033, 2068, 2067
1703, 2278, 2279, 2314, 2313, 2033, 2034, 2069, 2068
1704, 2279, 2280, 2315, 2314, 2034, 2035, 2070, 2069
1705, 2280, 2281, 2316, 2315, 2035, 2036, 2071, 2070
1706, 2281, 2282, 2317, 2316, 2036, 2037, 2072, 2071
1707, 2282, 2283, 2318, 2317, 2037, 2038, 2073, 2072
1708, 2283, 2284, 2319, 2318, 2038, 2039, 2074, 2073
1709, 2284, 2285, 2320, 2319, 2039, 2040, 2075, 2074
1710, 2285, 2286, 2321, 2320, 2040, 2041, 2076, 2075
1711, 2286, 2287, 2322, 2321, 2041, 2042, 2077, 2076
1712, 2287, 2288, 2323, 2322, 2042, 2043, 2078, 2077
1713, 2288, 2289, 2324, 2323, 2043, 2044, 2079, 2078
1714, 2289, 2290, 2325, 2324, 2044, 2045, 2080, 2079
1715, 2290, 2291, 2326, 2325, 2045, 2046, 2081, 2080
1716, 2291, 2292, 2327, 2326, 2046, 2047, 2082, 2081
1717, 2292, 2293, 2328, 2327, 2047, 2048, 2083, 2082
1718, 2293, 2294, 2329, 2328, 2048, 2049, 2084, 2083
1719, 2294, 2295, 2330, 2329, 2049, 2050, 2085, 2084
1720, 2295, 2296, 2331, 2330, 2050, 2051, 2086, 2085
1721, 2296, 2297, 2332, 2331, 2051, 2052, 2087, 2086
1722, 2297, 2298, 2333, 2332, 2052, 2053, 2088, 2087
1723, 2298, 2299, 2334, 2333, 2053, 2054, 2089, 2088
1724, 2299, 2300, 2335, 2334, 2054, 2055, 2090, 2089
1725, 2300, 2301, 2336, 2335, 2055, 2056, 2091, 2090
1726, 2301, 2302, 2337, 2336, 2056, 2057, 2092, 2091
1727, 2302, 2303, 2338, 2337, 2057, 2058, 2093, 2092
1728, 2303, 2304, 2339, 2338, 2058, 2059, 2094, 2093
1729, 2304, 2305, 2340, 2339, 2059, 2060, 2095, 2094
1730, 2305, 2306, 2341, 2340, 2060, 2061, 2096, 2095
1731, 2306, 2307, 2342, 2341, 2061, 2062, 2097, 2096
1732, 2307, 2308, 2343, 2342, 2062, 2063, 2098, 2097
1733, 2308, 2309, 2344, 2343, 2063, 2064, 2099, 2098
1734, 2309, 2310, 2345, 2344, 2064, 2065, 2100, 2099
1735, 2311, 2312, 2347, 2346, 2066, 2067, 2102, 2101
1736, 2312, 2313, 2348, 2347, 2067, 2068, 2103, 2102
1737, 2313, 2314, 2349, 2348, 2068, 2069, 2104, 2103
1738, 2314, 2315, 2350, 2349, 2069, 2070, 2105, 2104
1739, 2315, 2316, 2351, 2350, 2070, 2071, 2106, 2105
1740, 2316, 2317, 2352, 2351, 2071, 2072, 2107, 2106
1741, 2317, 2318, 2353, 2352, 2072, 2073, 2108, 2107
1742, 2318, 2319, 2354, 2353, 2073, 2074, 2109, 2108
1743, 2319, 2320, 2355, 2354, 2074, 2075, 2110, 2109
1744, 2320, 2321, 2356, 2355, 2075, 2076, 2111, 2110
1745, 2321, 2322, 2357, 2356, 2076, 2077, 2112, 2111
1746, 2322, 2323, 2358, 2357, 2077, 2078, 2113, 2112
1747, 2323, 2324, 2359, 2358, 2078, 2079, 2114, 2113
1748, 2324, 2325, 2360, 2359, 2079, 2080, 2115, 2114
1749, 2325, 2326, 2361, 2360, 2080, 2081, 2116, 2115
1750, 2326, 2327, 2362, 2361, 2081, 2082, 2117, 2116
1751, 2327, 2328, 2363, 2362, 2082, 2083, 2118, 2117
1752, 2328, 2329, 2364, 2363, 2083, 2084, 2119, 2118
1753, 2329, 2330, 2365, 2364, 2084, 2085, 2120, 2119
1754, 2330, 2331, 2366, 2365, 2085, 2086, 2121, 2120
1755, 2331, 2332, 2367, 2366, 2086, 2087, 2122, 2121
1756, 2332, 2333, 2368, 2367, 2087, 2088, 2123, 2122
1757, 2333, 2334, 2369, 2368, 2088, 2089, 2124, 2123
1758, 2334, 2335, 2370, 2369, 2089, 2090, 2125, 2124
1759, 2335, 2336, 2371, 2370, 2090, 2091, 2126, 2125
1760, 2336, 2337, 2372, 2371, 2091, 2092, 2127, 2126
1761, 2337, 2338, 2373, 2372, 2092, 2093, 2128, 2127
1762, 2338, 2339, 2374, 2373, 2093, 2094, 2129, 2128
1763, 2339, 2340, 2375, 2374, 2094, 2095, 2130, 2129
1764, 2340, 2341, 2376, 2375, 2095, 2096, 2131, 2130
1765, 2341, 2342, 2377, 2376, 2096, 2097, 2132, 2131
1766, 2342, 2343, 2378, 2377, 2097, 2098, 2133, 2132
1767, 2343, 2344, 2379, 2378, 2098, 2099, 2134, 2133
1768, 2344, 2345, 2380, 2379, 2099, 2100, 2135, 2134
1769, 2346, 2347, 2382, 2381, 2101, 2102, 2137, 2136
1770, 2347, 2348, 2383, 2382, 2102, 2103, 2138, 2137
1771, 2348, 2349, 2384, 2383, 2103, 2104, 2139, 2138
1772, 2349, 2350, 2385, 2384, 2104, 2105, 2140, 2139
1773, 2350, 2351, 2386, 2385, 2105, 2106, 2141, 2140
1774, 2351, 2352, 2387, 2386, 2106, 2107, 2142, 2141
1775, 2352, 2353, 2388, 2387, 2107, 2108, 2143, 2142
1776, 2353, 2354, 2389, 2388, 2108, 2109, 2144, 2143
1777, 2354, 2355, 2390, 2389, 2109, 2110, 2145, 2144
1778, 2355, 2356, 2391, 2390, 2110, 2111, 2146, 2145
1779, 2356, 2357, 2392, 2391, 2111, 2112, 2147, 2146
1780, 2357, 2358, 2393, 2392, 2112, 2113, 2148, 2147
1781, 2358, 2359, 2394, 2393, 2113, 2114, 2149, 2148
1782, 2359, 2360, 2395, 2394, 2114, 2115, 2150, 2149
1783, 2360, 2361, 2396, 2395, 2115, 2116, 2151, 2150
1784, 2361, 2362, 2397, 2396, 2116, 2117, 2152, 2151
1785, 2362, 2363, 2398, 2397, 2117, 2118, 2153, 2152
1786, 2363, 2364, 2399, 2398, 2118, 2119, 2154, 2153
1787, 2364, 2365, 2400, 2399, 2119, 2120, 2155, 2154
1788, 2365, 2366, 2401, 2400, 2120, 2121, 2156, 2155
1789, 2366, 2367, 2402, 2401, 2121, 2122, 2157, 2156
1790, 2367, 2368, 2403, 2402, 2122, 2123, 2158, 2157
1791, 2368, 2369, 2404, 2403, 2123, 2124, 2159, 2158
1792, 2369, 2370, 2405, 2404, 2124, 2125, 2160, 2159
1793, 2370, 2371, 2406, 2405, 2125, 2126, 2161, 2160
1794, 2371, 2372, 2407, 2406, 2126, 2127, 2162, 2161
1795, 2372, 2373, 2408, 2407, 2127, 2128, 2163, 2162
1796, 2373, 2374, 2409, 2408, 2128, 2129, 2164, 2163
1797, 2374, 2375, 2410, 2409, 2129, 2130, 2165, 2164
1798, 2375, 2376, 2411, 2410, 2130, 2131, 2166, 2165
1799, 2376, 2377, 2412, 2411, 2131, 2132, 2167, 2166
1800, 2377, 2378, 2413, 2412, 2132, 2133, 2168, 2167
1801, 2378, 2379, 2414, 2413, 2133, 2134, 2169, 2168
1802, 2379, 2380, 2415, 2414, 2134, 2135, 2170, 2169
1803, 2381, 2382, 2417, 2416, 2136, 2137, 2172, 2171
1804, 2382, 2383, 2418, 2417, 2137, 2138, 2173, 2172
1805, 2383, 2384, 2419, 2418, 2138, 2139, 2174, 2173
1806, 2384, 2385, 2420, 2419, 2139, 2140, 2175, 2174
1807, 2385, 2386, 2421, 2420, 2140, 2141, 2176, 2175
1808, 2386, 2387, 2422, 2421, 2141, 2142, 2177, 2176
1809, 2387, 2388, 2423, 2422, 2142, 2143, 2178, 2177
1810, 2388, 2389, 2424, 2423, 2143, 2144, 2179, 2178
1811, 2389, 2390, 2425, 2424, 2144, 2145, 2180, 2179
1812, 2390, 2391, 2426, 2425, 2145, 2146, 2181, 2180
1813, 2391, 2392, 2427, 2426, 2146, 2147, 2182, 2181
1814, 2392, 2393, 2428, 2427, 2147, 2148, 2183, 2182
1815, 2393, 2394, 2429, 2428, 2148, 2149, 2184, 2183
1816, 2394, 2395, 2430, 2429, 2149, 2150, 2185, 2184
1817, 2395, 2396, 2431, 2430, 2150, 2151, 2186, 2185
1818, 2396, 2397, 2432, 2431, 2151, 2152, 2187, 2186
1819, 2397, 2398, 2433, 2432, 2152, 2153, 2188, 2187
1820, 2398, 2399, 2434, 2433, 2153, 2154, 2189, 2188
1821, 2399, 2400, 2435, 2434, 2154, 2155, 2190, 2189
1822, 2400, 2401, 2436, 2435, 2155, 2156, 2191, 2190
1823, 2401, 2402, 2437, 2436, 2156, 2157, 2192, 2191
1824, 2402, 2403, 2438, 2437, 2157, 2158, 2193, 2192
1825, 2403, 2404, 2439, 2438, 2158, 2159, 2194, 2193
1826, 2404, 2405, 2440, 2439, 2159, 2160, 2195, 2194
1827, 2405, 2406, 2441, 2440, 2160, 2161, 2196, 2195
1828, 2406, 2407, 2442, 2441, 2161, 2162, 2197, 2196
1829, 2407, 2408, 2443, 2442, 2162, 2163, 2198, 2197
1830, 2408, 2409, 2444, 2443, 2163, 2164, 2199, 2198
1831, 2409, 2410, 2445, 2444, 2164, 2165, 2200, 2199
1832, 2410, 2411, 2446, 2445, 2165, 2166, 2201, 2200
1833, 2411, 2412, 2447, 2446, 2166, 2167, 2202, 2201
1834, 2412, 2413, 2448, 2447, 2167, 2168, 2203, 2202
1835, 2413, 2414, 2449, 2448, 2168, 2169, 2204, 2203
1836, 2414, 2415, 2450, 2449, 2169, 2170, 2205, 2204
1837, 2451, 2452, 2487, 2486, 2206, 2207, 2242, 2241
1838, 2452, 2453, 2488, 2487, 2207, 2208, 2243, 2242
1839, 2453, 2454, 2489, 2488, 2208, 2209, 2244, 2243
1840, 2454, 2455, 2490, 2489, 2209, 2210, 2245, 2244
1841, 2455, 2456, 2491, 2490, 2210, 2211, 2246, 2245
1842, 2456, 2457, 2492, 2491, 2211, 2212, 2247, 2246
1843, 2457, 2458, 2493, 2492, 2212, 2213, 2248, 2247
1844, 2458, 2459, 2494, 2493, 2213, 2214, 2249, 2248
1845, 2459, 2460, 2495, 2494, 2214, 2215, 2250, 2249
1846, 2460, 2461, 2496, 2495, 2215, 2216, 2251, 2250
1847, 2461, 2462, 2497, 2496, 2216, 2217, 2252, 2251
1848, 2462, 2463, 2498, 2497, 2217, 2218, 2253, 2252
1849, 2463, 2464, 2499, 2498, 2218, 2219, 2254, 2253
1850, 2464, 2465, 2500, 2499, 2219, 2220, 2255, 2254
1851, 2465, 2466, 2501, 2500, 2220, 2221, 2256, 2255
1852, 2466, 2467, 2502, 2501, 2221, 2222, 2257, 2256
1853, 2467, 2468, 2503, 2502, 2222, 2223, 2258, 2257
1854, 2468, 2469, 2504, 2503, 2223, 2224, 2259, 2258
1855, 2469, 2470, 2505, 2504, 2224, 2225, 2260, 2259
1856, 2470, 2471, 2506, 2505, 2225, 2226, 2261, 2260
1857, 2471, 2472, 2507, 2506, 2226, 2227, 2262, 2261
1858, 2472, 2473, 2508, 2507, 2227, 2228, 2263, 2262
1859, 2473, 2474, 2509, 2508, 2228, 2229, 2264, 2263
1860, 2474, 2475, 2510, 2509, 2229, 2230, 2265, 2264
1861, 2475, 2476, 2511, 2510, 2230, 2231, 2266, 2265
1862, 2476, 2477, 2512, 2511, 2231, 2232, 2267, 2266
1863, 2477, 2478, 2513, 2512, 2232, 2233, 2268, 2267
1864, 2478, 2479, 2514, 2513, 2233, 2234, 2269, 2268
1865, 2479, 2480, 2515, 2514, 2234, 2235, 2270, 2269
1866, 2480, 2481, 2516, 2515, 2235, 2236, 2271, 2270
1867, 2481, 2482, 2517, 2516, 2236, 2237, 2272, 2271
1868, 2482, 2483, 2518, 2517, 2237, 2238, 2273, 2272
1869, 2483, 2484, 2519, 2518, 2238, 2239, 2274, 2273
1870, 2484, 2485, 2520, 2519, 2239, 2240, 2275, 2274
1871, 2486, 2487, 2522, 2521, 2241, 2242, 2277, 2276
1872, 2487, 2488, 2523, 2522, 2242, 2243, 2278, 2277
1873, 2488, 2489, 2524, 2523, 2243, 2244, 2279, 2278
1874, 2489, 2490, 2525, 2524, 2244, 2245, 2280, 2279
1875, 2490, 2491, 2526, 2525, 2245, 2246, 2281, 2280
1876, 2491, 2492, 2527, 2526, 2246, 2247, 2282, 2281
1877, 2492, 2493, 2528, 2527, 2247, 2248, 2283, 2282
1878, 2493, 2494, 2529, 2528, 2248, 2249, 2284, 2283
1879, 2494, 2495, 2530, 2529, 2249, 2250, 2285, 2284
1880, 2495, 2496, 2531, 2530, 2250, 2251, 2286, 2285
1881, 2496, 2497, 2532, 2531, 2251, 2252, 2287, 2286
1882, 2497, 2498, 2533, 2532, 2252, 2253, 2288, 2287
1883, 2498, 2499, 2534, 2533, 2253, 2254, 2289, 2288
1884, 2499, 2500, 2535, 2534, 2254, 2255, 2290, 2289
1885, 2500, 2501, 2536, 2535, 2255, 2256, 2291, 2290
1886, 2501, 2502, 2537, 2536, 2256, 2257, 2292, 2291
1887, 2502, 2503, 2538, 2537, 2257, 2258, 2293, 2292
1888, 2503, 2504, 2539, 2538, 2258, 2259, 2294, 2293
1889, 2504, 2505, 2540, 2539, 2259, 2260, 2295, 2294
1890, 2505, 2506, 2541, 2540, 2260, 2261, 2296, 2295
1891, 2506, 2507, 2542, 2541, 2261, 2262, 2297, 2296
1892, 2507, 2508, 2543, 2542, 2262, 2263, 2298, 2297
1893, 2508, 2509, 2544, 2543, 2263, 2264, 2299, 2298
1894, 2509, 2510, 2545, 2544, 2264, 2265, 2300, 2299
1895, 2510, 2511, 2546, 2545, 2265, 2266, 2301, 2300
1896, 2511, 2512, 2547, 2546, 2266, 2267, 2302, 2301
1897, 2512, 2513, 2548, 2547, 2267, 2268, 2303, 2302
1898, 2513, 2514, 2549, 2548, 2268, 2269, 2304, 2303
1899, 2514, 2515, 2550, 2549, 2269, 2270, 2305, 2304
1900, 2515, 2516, 2551, 2550, 2270, 2271, 2306, 2305
1901, 2516, 2517, 2552, 2551, 2271, 2272, 2307, 2306
1902, 2517, 2518, 2553, 2552, 2272, 2273, 2308, 2307
1903, 2518, 2519, 2554, 2553, 2273, 2274, 2309, 2308
1904, 2519, 2520, 2555, 2554, 2274, 2275, 2310, 2309
1905, 2521, 2522, 2557, 2556, 2276, 2277, 2312, 2311
1906, 2522, 2523, 2558, 2557, 2277, 2278, 2313, 2312
1907, 2523, 2524, 2559, 2558, 2278, 2279, 2314, 2313
1908, 2524, 2525, 2560, 2559, 2279, 2280, 2315, 2314
1909, 2525, 2526, 2561, 2560, 2280, 2281, 2316, 2315
1910, 2526, 2527, 2562, 2561, 2281, 2282, 2317, 2316
1911, 2527, 2528, 2563, 2562, 2282, 2283, 2318, 2317
1912, 2528, 2529, 2564, 2563, 2283, 2284, 2319, 2318
1913, 2529, 2530, 2565, 2564, 2284, 2285, 2320, 2319
1914, 2530, 2531, 2566, 2565, 2285, 2286, 2321, 2320
1915, 2531, 2532, 2567, 2566, 2286, 2287, 2322, 2321
1916, 2532, 2533, 2568, 2567, 2287, 2288, 2323, 2322
1917, 2533, 2534, 2569, 2568, 2288, 2289, 2324, 2323
1918, 2534, 2535, 2570, 2569, 2289, 2290, 2325, 2324
1919, 2535, 2536, 2571, 2570, 2290, 2291, 2326, 2325
1920, 2536, 2537, 2572, 2571, 2291, 2292, 2327, 2326
1921, 2537, 2538, 2573, 2572, 2292, 2293, 2328, 2327
1922, 2538, 2539, 2574, 2573, 2293, 2294, 2329, 2328
1923, 2539, 2540, 2575, 2574, 2294, 2295, 2330, 2329
1924, 2540, 2541, 2576, 2575, 2295, 2296, 2331, 2330
1925, 2541, 2542, 2577, 2576, 2296, 2297, 2332, 2331
1926, 2542, 2543, 2578, 2577, 2297, 2298, 2333, 2332
1927, 2543, 2544, 2579, 2578, 2298, 2299, 2334, 2333
1928, 2544, 2545, 2580, 2579, 2299, 2300, 2335, 2334
1929, 2545, 2546, 2581, 2580, 2300, 2301, 2336, 2335
1930, 2546, 2547, 2582, 2581, 2301, 2302, 2337, 2336
1931, 2547, 2548, 2583, 2582, 2302, 2303, 2338, 2337
1932, 2548, 2549, 2584, 2583, 2303, 2304, 2339, 2338
1933, 2549, 2550, 2585, 2584, 2304, 2305, 2340, 2339
1934, 2550, 2551, 2586, 2585, 2305, 2306, 2341, 2340
1935, 2551, 2552, 2587, 2586, 2306, 2307, 2342, 2341
1936, 2552, 2553, 2588, 2587, 2307, 2308, 2343, 2342
1937, 2553, 2554, 2589, 2588, 2308, 2309, 2344, 2343
1938, 2554, 2555, 2590, 2589, 2309, 2310, 2345, 2344
1939, 2556, 2557, 2592, 2591, 2311, 2312, 2347, 2346
1940, 2557, 2558, 2593, 2592, 2312, 2313, 2348, 2347
1941, 2558, 2559, 2594, 2593, 2313, 2314, 2349, 2348
1942, 2559, 2560, 2595, 2594, 2314, 2315, 2350, 2349
1943, 2560, 2561, 2596, 2595, 2315, 2316, 2351, 2350
1944, 2561, 2562, 2597, 2596, 2316, 2317, 2352, 2351
1945, 2562, 2563, 2598, 2597, 2317, 2318, 2353, 2352
1946, 2563, 2564, 2599, 2598, 2318, 2319, 2354, 2353
1947, 2564, 2565, 2600, 2599, 2319, 2320, 2355, 2354
1948, 2565, 2566, 2601, 2600, 2320, 2321, 2356, 2355
1949, 2566, 2567, 2602, 2601, 2321, 2322, 2357, 2356
1950, 2567, 2568, 2603, 2602, 2322, 2323, 2358, 2357
1951, 2568, 2569, 2604, 2603, 2323, 2324, 2359, 2358
1952, 2569, 2570, 2605, 2604, 2324, 2325, 2360, 2359
1953, 2570, 2571, 2606, 2605, 2325, 2326, 2361, 2360
1954, 2571, 2572, 2607, 2606, 2326, 2327, 2362, 2361
1955, 2572, 2573, 2608, 2607, 2327, 2328, 2363, 2362
1956, 2573, 2574, 2609, 2608, 2328, 2329, 2364, 2363
1957, 2574, 2575, 2610, 2609, 2329, 2330, 2365, 2364
1958, 2575, 2576, 2611, 2610, 2330, 2331, 2366, 2365
1959, 2576, 2577, 2612, 2611, 2331, 2332, 2367, 2366
1960, 2577, 2578, 2613, 2612, 2332, 2333, 2368, 2367
1961, 2578, 2579, 2614, 2613, 2333, 2334, 2369, 2368
1962, 2579, 2580, 2615, 2614, 2334, 2335, 2370, 2369
1963, 2580, 2581, 2616, 2615, 2335, 2336, 2371, 2370
1964, 2581, 2582, 2617, 2616, 2336, 2337, 2372, 2371
1965, 2582, 2583, 2618, 2617, 2337, 2338, 2373, 2372
1966, 2583, 2584, 2619, 2618, 2338, 2339, 2374, 2373
1967, 2584, 2585, 2620, 2619, 2339, 2340, 2375, 2374
1968, 2585, 2586, 2621, 2620, 2340, 2341, 2376, 2375
1969, 2586, 2587, 2622, 2621, 2341, 2342, 2377, 2376
1970, 2587, 2588, 2623, 2622, 2342, 2343, 2378, 2377
1971, 2588, 2589, 2624, 2623, 2343, 2344, 2379, 2378
1972, 2589, 2590, 2625, 2624, 2344, 2345, 2380, 2379
1973, 2591, 2592, 2627, 2626, 2346, 2347, 2382, 2381
1974, 2592, 2593, 2628, 2627, 2347, 2348, 2383, 2382
1975, 2593, 2594, 2629, 2628, 2348, 2349, 2384, 2383
1976, 2594, 2595, 2630, 2629, 2349, 2350, 2385, 2384
1977, 2595, 2596, 2631, 2630, 2350, 2351, 2386, 2385
1978, 2596, 2597, 2632, 2631, 2351, 2352, 2387, 2386
1979, 2597, 2598, 2633, 2632, 2352, 2353, 2388, 2387
1980, 2598, 2599, 2634, 2633, 2353, 2354, 2389, 2388
1981, 2599, 2600, 2635, 2634, 2354, 2355, 2390, 2389
1982, 2600, 2601, 2636, 2635, 2355, 2356, 2391, 2390
1983, 2601, 2602, 2637, 2636, 2356, 2357, 2392, 2391
1984, 2602, 2603, 2638, 2637, 2357, 2358, 2393, 2392
1985, 2603, 2604, 2639, 2638, 2358, 2359, 2394, 2393
1986, 2604, 2605, 2640, 2639, 2359, 2360, 2395, 2394
1987, 2605, 2606, 2641, 2640, 2360, 2361, 2396, 2395
1988, 2606, 2607, 2642, 2641, 2361, 2362, 2397, 2396
1989, 2607, 2608, 2643, 2642, 2362, 2363, 2398, 2397
1990, 2608, 2609, 2644, 2643, 2363, 2364, 2399, 2398
1991, 2609, 2610, 2645, 2644, 2364, 2365, 2400, 2399
1992, 2610, 2611, 2646, 2645, 2365, 2366, 2401, 2400
1993, 2611, 2612, 2647, 2646, 2366, 2367, 2402, 2401
1994, 2612, 2613, 2648, 2647, 2367, 2368, 2403, 2402
1995, 2613, 2614, 2649, 2648, 2368, 2369, 2404, 2403
1996, 2614, 2615, 2650, 2649, 2369, 2370, 2405, 2404
1997, 2615, 2616, 2651, 2650, 2370, 2371, 2406, 2405
1998, 2616, 2617, 2652, 2651, 2371, 2372, 2407, 2406
1999, 2617, 2618, 2653, 2652, 2372, 2373, 2408, 2407
2000, 2618, 2619, 2654, 2653, 2373, 2374, 2409, 2408
2001, 2619, 2620, 2655, 2654, 2374, 2375, 2410, 2409
2002, 2620, 2621, 2656, 2655, 2375, 2376, 2411, 2410
2003, 2621, 2622, 2657, 2656, 2376, 2377, 2412, 2411
2004, 2622, 2623, 2658, 2657, 2377, 2378, 2413, 2412
2005, 2623, 2624, 2659, 2658, 2378, 2379, 2414, 2413
2006, 2624, 2625, 2660, 2659, 2379, 2380, 2415, 2414
2007, 2626, 2627, 2662, 2661, 2381, 2382, 2417, 2416
2008, 2627, 2628, 2663, 2662, 2382, 2383, 2418, 2417
2009, 2628, 2629, 2664, 2663, 2383, 2384, 2419, 2418
2010, 2629, 2630, 2665, 2664, 2384, 2385, 2420, 2419
2011, 2630, 2631, 2666, 2665, 2385, 2386, 2421, 2420
2012, 2631, 2632, 2667, 2666, 2386, 2387, 2422, 2421
2013, 2632, 2633, 2668, 2667, 2387, 2388, 2423, 2422
2014, 2633, 2634, 2669, 2668, 2388, 2389, 2424, 2423
2015, 2634, 2635, 2670, 2669, 2389, 2390, 2425, 2424
2016, 2635, 2636, 2671, 2670, 2390, 2391, 2426, 2425
2017, 2636, 2637, 2672, 2671, 2391, 2392, 2427, 2426
2018, 2637, 2638, 2673, 2672, 2392, 2393, 2428, 2427
2019, 2638, 2639, 2674, 2673, 2393, 2394, 2429, 2428
2020, 2639, 2640, 2675, 2674, 2394, 2395, 2430, 2429
2021, 2640, 2641, 2676, 2675, 2395, 2396, 2431, 2430
2022, 2641, 2642, 2677, 2676, 2396, 2397, 2432, 2431
2023, 2642, 2643, 2678, 2677, 2397, 2398, 2433, 2432
2024, 2643, 2644, 2679, 2678, 2398, 2399, 2434, 2433
2025, 2644, 2645, 2680, 2679, 2399, 2400, 2435, 2434
2026, 2645, 2646, 2681, 2680, 2400, 2401, 2436, 2435
2027, 2646, 2647, 2682, 2681, 2401, 2402, 2437, 2436
2028, 2647, 2648, 2683, 2682, 2402, 2403, 2438, 2437
2029, 2648, 2649, 2684, 2683, 2403, 2404, 2439, 2438
2030, 2649, 2650, 2685, 2684, 2404, 2405, 2440, 2439
2031, 2650, 2651, 2686, 2685, 2405, 2406, 2441, 2440
2032, 2651, 2652, 2687, 2686, 2406, 2407, 2442, 2441
2033, 2652, 2653, 2688, 2687, 2407, 2408, 2443, 2442
2034, 2653, 2654, 2689, 2688, 2408, 2409, 2444, 2443
2035, 2654, 2655, 2690, 2689, 2409, 2410, 2445, 2444
2036, 2655, 2656, 2691, 2690, 2410, 2411, 2446, 2445
2037, 2656, 2657, 2692, 2691, 2411, 2412, 2447, 2446
2038, 2657, 2658, 2693, 2692, 2412, 2413, 2448, 2447
2039, 2658, 2659, 2694, 2693, 2413, 2414, 2449, 2448
2040, 2659, 2660, 2695, 2694, 2414, 2415, 2450, 2449
2041, 2696, 2697, 2732, 2731, 2451, 2452, 2487, 2486
2042, 2697, 2698, 2733, 2732, 2452, 2453, 2488, 2487
2043, 2698, 2699, 2734, 2733, 2453, 2454, 2489, 2488
2044, 2699, 2700, 2735, 2734, 2454, 2455, 2490, 2489
2045, 2700, 2701, 2736, 2735, 2455, 2456, 2491, 2490
2046, 2701, 2702, 2737, 2736, 2456, 2457, 2492, 2491
2047, 2702, 2703, 2738, 2737, 2457, 2458, 2493, 2492
2048, 2703, 2704, 2739, 2738, 2458, 2459, 2494, 2493
2049, 2704, 2705, 2740, 2739, 2459, 2460, 2495, 2494
2050, 2705, 2706, 2741, 2740, 2460, 2461, 2496, 2495
2051, 2706, 2707, 2742, 2741, 2461, 2462, 2497, 2496
2052, 2707, 2708, 2743, 2742, 2462, 2463, 2498, 2497
2053, 2708, 2709, 2744, 2743, 2463, 2464, 2499, 2498
2054, 2709, 2710, 2745, 2744, 2464, 2465, 2500, 2499
2055, 2710, 2711, 2746, 2745, 2465, 2466, 2501, 2500
2056, 2711, 2712, 2747, 2746, 2466, 2467, 2502, 2501
2057, 2712, 2713, 2748, 2747, 2467, 2468, 2503, 2502
2058, 2713, 2714, 2749, 2748, 2468, 2469, 2504, 2503
2059, 2714, 2715, 2750, 2749, 2469, 2470, 2505, 2504
2060, 2715, 2716, 2751, 2750, 2470, 2471, 2506, 2505
2061, 2716, 2717, 2752, 2751, 2471, 2472, 2507, 2506
2062, 2717, 2718, 2753, 2752, 2472, 2473, 2508, 2507
2063, 2718, 2719, 2754, 2753, 2473, 2474, 2509, 2508
2064, 2719, 2720, 2755, 2754, 2474, 2475, 2510, 2509
2065, 2720, 2721, 2756, 2755, 2475, 2476, 2511, 2510
2066, 2721, 2722, 2757, 2756, 2476, 2477, 2512, 2511
2067, 2722, 2723, 2758, 2757, 2477, 2478, 2513, 2512
2068, 2723, 2724, 2759, 2758, 2478, 2479, 2514, 2513
2069, 2724, 2725, 2760, 2759, 2479, 2480, 2515, 2514
2070, 2725, 2726, 2761, 2760, 2480, 2481, 2516, 2515
2071, 2726, 2727, 2762, 2761, 2481, 2482, 2517, 2516
2072, 2727, 2728, 2763, 2762, 2482, 2483, 2518, 2517
2073, 2728, 2729, 2764, 2763, 2483, 2484, 2519, 2518
2074, 2729, 2730, 2765, 2764, 2484, 2485, 2520, 2519
2075, 2731, 2732, 2767, 2766, 2486, 2487, 2522, 2521
2076, 2732, 2733, 2768, 2767, 2487, 2488, 2523, 2522
2077, 2733, 2734, 2769, 2768, 2488, 2489, 2524, 2523
2078, 2734, 2735, 2770, 2769, 2489, 2490, 2525, 2524
2079, 2735, 2736, 2771, 2770, 2490, 2491, 2526, 2525
2080, 2736, 2737, 2772, 2771, 2491, 2492, 2527, 2526
2081, 2737, 2738, 2773, 2772, 2492, 2493, 2528, 2527
2082, 2738, 2739, 2774, 2773, 2493, 2494, 2529, 2528
2083, 2739, 2740, 2775, 2774, 2494, 2495, 2530, 2529
2084, 2740, 2741, 2776, 2775, 2495, 2496, 2531, 2530
2085, 2741, 2742, 2777, 2776, 2496, 2497, 2532, 2531
2086, 2742, 2743, 2778, 2777, 2497, 2498, 2533, 2532
2087, 2743, 2744, 2779, 2778, 2498, 2499, 2534, 2533
2088, 2744, 2745, 2780, 2779, 2499, 2500, 2535, 2534
2089, 2745, 2746, 2781, 2780, 2500, 2501, 2536, 2535
2090, 2746, 2747, 2782, 2781, 2501, 2502, 2537, 2536
2091, 2747, 2748, 2783, 2782, 2502, 2503, 2538, 2537
2092, 2748, 2749, 2784, 2783, 2503, 2504, 2539, 2538
2093, 2749, 2750, 2785, 2784, 2504, 2505, 2540, 2539
2094, 2750, 2751, 2786, 2785, 2505, 2506, 2541, 2540
2095, 2751, 2752, 2787, 2786, 2506, 2507, 2542, 2541
2096, 2752, 2753, 2788, 2787, 2507, 2508, 2543, 2542
2097, 2753, 2754, 2789, 2788, 2508, 2509, 2544, 2543
2098, 2754, 2755, 2790, 2789, 2509, 2510, 2545, 2544
2099, 2755, 2756, 2791, 2790, 2510, 2511, 2546, 2545
2100, 2756, 2757, 2792, 2791, 2511, 2512, 2547, 2546
2101, 2757, 2758, 2793, 2792, 2512, 2513, 2548, 2547
2102, 2758, 2759, 2794, 2793, 2513, 2514, 2549, 2548
2103, 2759, 2760, 2795, 2794, 2514, 2515, 2550, 2549
2104, 2760, 2761, 2796, 2795, 2515, 2516, 2551, 2550
2105, 2761, 2762, 2797, 2796, 2516, 2517, 2552, 2551
2106, 2762, 2763, 2798, 2797, 2517, 2518, 2553, 2552
2107, 2763, 2764, 2799, 2798, 2518, 2519, 2554, 2553
2108, 2764, 2765, 2800, 2799, 2519, 2520, 2555, 2554
2109, 2766, 2767, 2802, 2801, 2521, 2522, 2557, 2556
2110, 2767, 2768, 2803, 2802, 2522, 2523, 2558, 2557
2111, 2768, 2769, 2804, 2803, 2523, 2524, 2559, 2558
2112, 2769, 2770, 2805, 2804, 2524, 2525, 2560, 2559
2113, 2770, 2771, 2806, 2805, 2525, 2526, 2561, 2560
2114, 2771, 2772, 2807, 2806, 2526, 2527, 2562, 2561
2115, 2772, 2773, 2808, 2807, 2527, 2528, 2563, 2562
2116, 2773, 2774, 2809, 2808, 2528, 2529, 2564, 2563
2117, 2774, 2775, 2810, 2809, 2529, 2530, 2565, 2564
2118, 2775, 2776, 2811, 2810, 2530, 2531, 2566, 2565
2119, 2776, 2777, 2812, 2811, 2531, 2532, 2567, 2566
2120, 2777, 2778, 2813, 2812, 2532, 2533, 2568, 2567
2121, 2778, 2779, 2814, 2813, 2533, 2534, 2569, 2568
2122, 2779, 2780, 2815, 2814, 2534, 2535, 2570, 2569
2123, 2780, 2781, 2816, 2815, 2535, 2536, 2571, 2570
2124, 2781, 2782, 2817, 2816, 2536, 2537, 2572, 2571
2125, 2782, 2783, 2818, 2817, 2537, 2538, 2573, 2572
2126, 2783, 2784, 2819, 2818, 2538, 2539, 2574, 2573
2127, 2784, 2785, 2820, 2819, 2539, 2540, 2575, 2574
2128, 2785, 2786, 2821, 2820, 2540, 2541, 2576, 2575
2129, 2786, 2787, 2822, 2821, 2541, 2542, 2577, 2576
2130, 2787, 2788, 2823, 2822, 2542, 2543, 2578, 2577
2131, 2788, 2789, 2824, 2823, 2543, 2544, 2579, 2578
2132, 2789, 2790, 2825, 2824, 2544, 2545, 2580, 2579
2133, 2790, 2791, 2826, 2825, 2545, 2546, 2581, 2580
2134, 2791, 2792, 2827, 2826, 2546, 2547, 2582, 2581
2135, 2792, 2793, 2828, 2827, 2547, 2548, 2583, 2582
2136, 2793, 2794, 2829, 2828, 2548, 2549, 2584, 2583
2137, 2794, 2795, 2830, 2829, 2549, 2550, 2585, 2584
2138, 2795, 2796, 2831, 2830, 2550, 2551, 2586, 2585
2139, 2796, 2797, 2832, 2831, 2551, 2552, 2587, 2586
2140, 2797, 2798, 2833, 2832, 2552, 2553, 2588, 2587
2141, 2798, 2799, 2834, 2833, 2553, 2554, 2589, 2588
2142, 2799, 2800, 2835, 2834, 2554, 2555, 2590, 2589
2143, 2801, 2802, 2837, 2836, 2556, 2557, 2592, 2591
2144, 2802, 2803, 2838, 2837, 2557, 2558, 2593, 2592
2145, 2803, 2804, 2839, 2838, 2558, 2559, 2594, 2593
2146, 2804, 2805, 2840, 2839, 2559, 2560, 2595, 2594
2147, 2805, 2806, 2841, 2840, 2560, 2561, 2596, 2595
2148, 2806, 2807, 2842, 2841, 2561, 2562, 2597, 2596
2149, 2807, 2808, 2843, 2842, 2562, 2563, 2598, 2597
2150, 2808, 2809, 2844, 2843, 2563, 2564, 2599, 2598
2151, 2809, 2810, 2845, 2844, 2564, 2565, 2600, 2599
2152, 2810, 2811, 2846, 2845, 2565, 2566, 2601, 2600
2153, 2811, 2812, 2847, 2846, 2566, 2567, 2602, 2601
2154, 2812, 2813, 2848, 2847, 2567, 2568, 2603, 2602
2155, 2813, 2814, 2849, 2848, 2568, 2569, 2604, 2603
2156, 2814, 2815, 2850, 2849, 2569, 2570, 2605, 2604
2157, 2815, 2816, 2851, 2850, 2570, 2571, 2606, 2605
2158, 2816, 2817, 2852, 2851, 2571, 2572, 2607, 2606
2159, 2817, 2818, 2853, 2852, 2572, 2573, 2608, 2607
2160, 2818, 2819, 2854, 2853, 2573, 2574, 2609, 2608
2161, 2819, 2820, 2855, 2854, 2574, 2575, 2610, 2609
2162, 2820, 2821, 2856, 2855, 2575, 2576, 2611, 2610
2163, 2821, 2822, 2857, 2856, 2576, 2577, 2612, 2611
2164, 2822, 2823, 2858, 2857, 2577, 2578, 2613, 2612
2165, 2823, 2824, 2859, 2858, 2578, 2579, 2614, 2613
2166, 2824, 2825, 2860, 2859, 2579, 2580, 2615, 2614
2167, 2825, 2826, 2861, 2860, 2580, 2581, 2616, 2615
2168, 2826, 2827, 2862, 2861, 2581, 2582, 2617, 2616
2169, 2827, 2828, 2863, 2862, 2582, 2583, 2618, 2617
2170, 2828, 2829, 2864, 2863, 2583, 2584, 2619, 2618
2171, 2829, 2830, 2865, 2864, 2584, 2585, 2620, 2619
2172, 2830, 2831, 2866, 2865, 2585, 2586, 2621, 2620
2173, 2831, 2832, 2867, 2866, 2586, 2587, 2622, 2621
2174, 2832, 2833, 2868, 2867, 2587, 2588, 2623, 2622
2175, 2833, 2834, 2869, 2868, 2588, 2589, 2624, 2623
2176, 2834, 2835, 2870, 2869, 2589, 2590, 2625, 2624
2177, 2836, 2837, 2872, 2871, 2591, 2592, 2627, 2626
2178, 2837, 2838, 2873, 2872, 2592, 2593, 2628, 2627
2179, 2838, 2839, 2874, 2873, 2593, 2594, 2629, 2628
2180, 2839, 2840, 2875, 2874, 2594, 2595, 2630, 2629
2181, 2840, 2841, 2876, 2875, 2595, 2596, 2631, 2630
2182, 2841, 2842, 2877, 2876, 2596, 2597, 2632, 2631
2183, 2842, 2843, 2878, 2877, 2597, 2598, 2633, 2632
2184, 2843, 2844, 2879, 2878, 2598, 2599, 2634, 2633
2185, 2844, 2845, 2880, 2879, 2599, 2600, 2635, 2634
2186, 2845, 2846, 2881, 2880, 2600, 2601, 2636, 2635
2187, 2846, 2847, 2882, 2881, 2601, 2602, 2637, 2636
2188, 2847, 2848, 2883, 2882, 2602, 2603, 2638, 2637
2189, 2848, 2849, 2884, 2883, 2603, 2604, 2639, 2638
2190, 2849, 2850, 2885, 2884, 2604, 2605, 2640, 2639
2191, 2850, 2851, 2886, 2885, 2605, 2606, 2641, 2640
2192, 2851, 2852, 2887, 2886, 2606, 2607, 2642, 2641
2193, 2852, 2853, 2888, 2887, 2607, 2608, 2643, 2642
2194, 2853, 2854, 2889, 2888, 2608, 2609, 2644, 2643
2195, 2854, 2855, 2890, 2889, 2609, 2610, 2645, 2644
2196, 2855, 2856, 2891, 2890, 2610, 2611, 2646, 2645
2197, 2856, 2857, 2892, 2891, 2611, 2612, 2647, 2646
2198, 2857, 2858, 2893, 2892, 2612, 2613, 2648, 2647
2199, 2858, 2859, 2894, 2893, 2613, 2614, 2649, 2648
2200, 2859, 2860, 2895, 2894, 2614, 2615, 2650, 2649
2201, 2860, 2861, 2896, 2895, 2615, 2616, 2651, 2650
2202, 2861, 2862, 2897, 2896, 2616, 2617, 2652, 2651
2203, 2862, 2863, 2898, 2897, 2617, 2618, 2653, 2652
2204, 2863, 2864, 2899, 2898, 2618, 2619, 2654, 2653
2205, 2864, 2865, 2900, 2899, 2619, 2620, 2655, 2654
2206, 2865, 2866, 2901, 2900, 2620, 2621, 2656, 2655
2207, 2866, 2867, 2902, 2901, 2621, 2622, 2657, 2656
2208, 2867, 2868, 2903, 2902, 2622, 2623, 2658, 2657
2209, 2868, 2869, 2904, 2903, 2623, 2624, 2659, 2658
2210, 2869, 2870, 2905, 2904, 2624, 2625, 2660, 2659
2211, 2871, 2872, 2907, 2906, 2626, 2627, 2662, 2661
2212, 2872, 2873, 2908, 2907, 2627, 2628, 2663, 2662
2213, 2873, 2874, 2909, 2908, 2628, 2629, 2664, 2663
2214, 2874, 2875, 2910, 2909, 2629, 2630, 2665, 2664
2215, 2875, 2876, 2911, 2910, 2630, 2631, 2666, 2665
2216, 2876, 2877, 2912, 2911, 2631, 2632, 2667, 2666
2217, 2877, 2878, 2913, 2912, 2632, 2633, 2668, 2667
2218, 2878, 2879, 2914, 2913, 2633, 2634, 2669, 2668
2219, 2879, 2880, 2915, 2914, 2634, 2635, 2670, 2669
2220, 2880, 2881, 2916, 2915, 2635, 2636, 2671, 2670
2221, 2881, 2882, 2917, 2916, 2636, 2637, 2672, 2671
2222, 2882, 2883, 2918, 2917, 2637, 2638, 2673, 2672
2223, 2883, 2884, 2919, 2918, 2638, 2639, 2674, 2673
2224, 2884, 2885, 2920, 2919, 2639, 2640, 2675, 2674
2225, 2885, 2886, 2921, 2920, 2640, 2641, 2676, 2675
2226, 2886, 2887, 2922, 2921, 2641, 2642, 2677, 2676
2227, 2887, 2888, 2923, 2922, 2642, 2643, 2678, 2677
2228, 2888, 2889, 2924, 2923, 2643, 2644, 2679, 2678
2229, 2889, 2890, 2925, 2924, 2644, 2645, 2680, 2679
2230, 2890, 2891, 2926, 2925, 2645, 2646, 2681, 2680
2231, 2891, 2892, 2927, 2926, 2646, 2647, 2682, 2681
2232, 2892, 2893, 2928, 2927, 2647, 2648, 2683, 2682
2233, 2893, 2894, 2929, 2928, 2648, 2649, 2684, 2683
2234, 2894, 2895, 2930, 2929, 2649, 2650, 2685, 2684
2235, 2895, 2896, 2931, 2930, 2650, 2651, 2686, 2685
2236, 2896, 2897, 2932, 2931, 2651, 2652, 2687, 2686
2237, 2897, 2898, 2933, 2932, 2652, 2653, 2688, 2687
2238, 2898, 2899, 2934, 2933, 2653, 2654, 2689, 2688
2239, 2899, 2900, 2935, 2934, 2654, 2655, 2690, 2689
2240, 2900, 2901, 2936, 2935, 2655, 2656, 2691, 2690
2241, 2901, 2902, 2937, 2936, 2656, 2657, 2692, 2691
2242, 2902, 2903, 2938, 2937, 2657, 2658, 2693, 2692
2243, 2903, 2904, 2939, 2938, 2658, 2659, 2694, 2693
2244, 2904, 2905, 2940, 2939, 2659, 2660, 2695, 2694
2245, 2941, 2942, 2977, 2976, 2696, 2697, 2732, 2731
2246, 2942, 2943, 2978, 2977, 2697, 2698, 2733, 2732
2247, 2943, 2944, 2979, 2978, 2698, 2699, 2734, 2733
2248, 2944, 2945, 2980, 2979, 2699, 2700, 2735, 2734
2249, 2945, 2946, 2981, 2980, 2700, 2701, 2736, 2735
2250, 2946, 2947, 2982, 2981, 2701, 2702, 2737, 2736
2251, 2947, 2948, 2983, 2982, 2702, 2703, 2738, 2737
2252, 2948, 2949, 2984, 2983, 2703, 2704, 2739, 2738
2253, 2949, 2950, 2985, 2984, 2704, 2705, 2740, 2739
2254, 2950, 2951, 2986, 2985, 2705, 2706, 2741, 2740
2255, 2951, 2952, 2987, 2986, 2706, 2707, 2742, 2741
2256, 2952, 2953, 2988, 2987, 2707, 2708, 2743, 2742
2257, 2953, 2954, 2989, 2988, 2708, 2709, 2744, 2743
2258, 2954, 2955, 2990, 2989, 2709, 2710, 2745, 2744
2259, 2955, 2956, 2991, 2990, 2710, 2711, 2746, 2745
2260, 2956, 2957, 2992, 2991, 2711, 2712, 2747, 2746
2261, 2957, 2958, 2993, 2992, 2712, 2713, 2748, 2747
2262, 2958, 2959, 2994, 2993, 2713, 2714, 2749, 2748
2263, 2959, 2960, 2995, 2994, 2714, 2715, 2750, 2749
2264, 2960, 2961, 2996, 2995, 2715, 2716, 2751, 2750
2265, 2961, 2962, 2997, 2996, 2716, 2717, 2752, 2751
2266, 2962, 2963, 2998, 2997, 2717, 2718, 2753, 2752
2267, 2963, 2964, 2999, 2998, 2718, 2719, 2754, 2753
2268, 2964, 2965, 3000, 2999, 2719, 2720, 2755, 2754
2269, 2965, 2966, 3001, 3000, 2720, 2721, 2756, 2755
2270, 2966, 2967, 3002, 3001, 2721, 2722, 2757, 2756
2271, 2967, 2968, 3003, 3002, 2722, 2723, 2758, 2757
2272, 2968, 2969, 3004, 3003, 2723, 2724, 2759, 2758
2273, 2969, 2970, 3005, 3004, 2724, 2725, 2760, 2759
2274, 2970, 2971, 3006, 3005, 2725, 2726, 2761, 2760
2275, 2971, 2972, 3007, 3006, 2726, 2727, 2762, 2761
2276, 2972, 2973, 3008, 3007, 2727, 2728, 2763, 2762
2277, 2973, 2974, 3009, 3008, 2728, 2729, 2764, 2763
2278, 2974, 2975, 3010, 3009, 2729, 2730, 2765, 2764
2279, 2976, 2977, 3012, 3011, 2731, 2732, 2767, 2766
2280, 2977, 2978, 3013, 3012, 2732, 2733, 2768, 2767
2281, 2978, 2979, 3014, 3013, 2733, 2734, 2769, 2768
2282, 2979, 2980, 3015, 3014, 2734, 2735, 2770, 2769
2283, 2980, 2981, 3016, 3015, 2735, 2736, 2771, 2770
2284, 2981, 2982, 3017, 3016, 2736, 2737, 2772, 2771
2285, 2982, 2983, 3018, 3017, 2737, 2738, 2773, 2772
2286, 2983, 2984, 3019, 3018, 2738, 2739, 2774, 2773
2287, 2984, 2985, 3020, 3019, 2739, 2740, 2775, 2774
2288, 2985, 2986, 3021, 3020, 2740, 2741, 2776, 2775
2289, 2986, 2987, 3022, 3021, 2741, 2742, 2777, 2776
2290, 2987, 2988, 3023, 3022, 2742, 2743, 2778, 2777
2291, 2988, 2989, 3024, 3023, 2743, 2744, 2779, 2778
2292, 2989, 2990, 3025, 3024, 2744, 2745, 2780, 2779
2293, 2990, 2991, 3026, 3025, 2745, 2746, 2781, 2780
2294, 2991, 2992, 3027, 3026, 2746, 2747, 2782, 2781
2295, 2992, 2993, 3028, 3027, 2747, 2748, 2783, 2782
2296, 2993, 2994, 3029, 3028, 2748, 2749, 2784, 2783
2297, 2994, 2995, 3030, 3029, 2749, 2750, 2785, 2784
2298, 2995, 2996, 3031, 3030, 2750, 2751, 2786, 2785
2299, 2996, 2997, 3032, 3031, 2751, 2752, 2787, 2786
2300, 2997, 2998, 3033, 3032, 2752, 2753, 2788, 2787
2301, 2998, 2999, 3034, 3033, 2753, 2754, 2789, 2788
2302, 2999, 3000, 3035, 3034, 2754, 2755, 2790, 2789
2303, 3000, 3001, 3036, 3035, 2755, 2756, 2791, 2790
2304, 3001, 3002, 3037, 3036, 2756, 2757, 2792, 2791
2305, 3002, 3003, 3038, 3037, 2757, 2758, 2793, 2792
2306, 3003, 3004, 3039, 3038, 2758, 2759, 2794, 2793
2307, 3004, 3005, 3040, 3039, 2759, 2760, 2795, 2794
2308, 3005, 3006, 3041, 3040, 2760, 2761, 2796, 2795
2309, 3006, 3007, 3042, 3041, 2761, 2762, 2797, 2796
2310, 3007, 3008, 3043, 3042, 2762, 2763, 2798, 2797
2311, 3008, 3009, 3044, 3043, 2763, 2764, 2799, 2798
2312, 3009, 3010, 3045, 3044, 2764, 2765, 2800, 2799
2313, 3011, 3012, 3047, 3046, 2766, 2767, 2802, 2801
2314, 3012, 3013, 3048, 3047, 2767, 2768, 2803, 2802
2315, 3013, 3014, 3049, 3048, 2768, 2769, 2804, 2803
2316, 3014, 3015, 3050, 3049, 2769, 2770, 2805, 2804
2317, 3015, 3016, 3051, 3050, 2770, 2771, 2806, 2805
2318, 3016, 3017, 3052, 3051, 2771, 2772, 2807, 2806
2319, 3017, 3018, 3053, 3052, 2772, 2773, 2808, 2807
2320, 3018, 3019, 3054, 3053, 2773, 2774, 2809, 2808
2321, 3019, 3020, 3055, 3054, 2774, 2775, 2810, 2809
2322, 3020, 3021, 3056, 3055, 2775, 2776, 2811, 2810
2323, 3021, 3022, 3057, 3056, 2776, 2777, 2812, 2811
2324, 3022, 3023, 3058, 3057, 2777, 2778, 2813, 2812
2325, 3023, 3024, 3059, 3058, 2778, 2779, 2814, 2813
2326, 3024, 3025, 3060, 3059, 2779, 2780, 2815, 2814
2327, 3025, 3026, 3061, 3060, 2780, 2781, 2816, 2815
2328, 3026, 3027, 3062, 3061, 2781, 2782, 2817, 2816
2329, 3027, 3028, 3063, 3062, 2782, 2783, 2818, 2817
2330, 3028, 3029, 3064, 3063, 2783, 2784, 2819, 2818
2331, 3029, 3030, 3065, 3064, 2784, 2785, 2820, 2819
2332, 3030, 3031, 3066, 3065, 2785, 2786, 2821, 2820
2333, 3031, 3032, 3067, 3066, 2786, 2787, 2822, 2821
2334, 3032, 3033, 3068, 3067, 2787, 2788, 2823, 2822
2335, 3033, 3034, 3069, 3068, 2788, 2789, 2824, 2823
2336, 3034, 3035, 3070, 3069, 2789, 2790, 2825, 2824
2337, 3035, 3036, 3071, 3070, 2790, 2791, 2826, 2825
2338, 3036, 3037, 3072, 3071, 2791, 2792, 2827, 2826
2339, 3037, 3038, 3073, 3072, 2792, 2793, 2828, 2827
2340, 3038, 3039, 3074, 3073, 2793, 2794, 2829, 2828
2341, 3039, 3040, 3075, 3074, 2794, 2795, 2830, 2829
2342, 3040, 3041, 3076, 3075, 2795, 2796, 2831, 2830
2343, 3041, 3042, 3077, 3076, 2796, 2797, 2832, 2831
2344, 3042, 3043, 3078, 3077, 2797, 2798, 2833, 2832
2345, 3043, 3044, 3079, 3078, 2798, 2799, 2834, 2833
2346, 3044, 3045, 3080, 3079, 2799, 2800, 2835, 2834
2347, 3046, 3047, 3082, 3081, 2801, 2802, 2837, 2836
2348, 3047, 3048, 3083, 3082, 2802, 2803, 2838, 2837
2349, 3048, 3049, 3084, 3083, 2803, 2804, 2839, 2838
2350, 3049, 3050, 3085, 3084, 2804, 2805, 2840, 2839
2351, 3050, 3051, 3086, 3085, 2805, 2806, 2841, 2840
2352, 3051, 3052, 3087, 3086, 2806, 2807, 2842, 2841
2353, 3052, 3053, 3088, 3087, 2807, 2808, 2843, 2842
2354, 3053, 3054, 3089, 3088, 2808, 2809, 2844, 2843
2355, 3054, 3055, 3090, 3089, 2809, 2810, 2845, 2844
2356, 3055, 3056, 3091, 3090, 2810, 2811, 2846, 2845
2357, 3056, 3057, 3092, 3091, 2811, 2812, 2847, 2846
2358, 3057, 3058, 3093, 3092, 2812, 2813, 2848, 2847
2359, 3058, 3059, 3094, 3093, 2813, 2814, 2849, 2848
2360, 3059, 3060, 3095, 3094, 2814, 2815, 2850, 2849
2361, 3060, 3061, 3096, 3095, 2815, 2816, 2851, 2850
2362, 3061, 3062, 3097, 3096, 2816, 2817, 2852, 2851
2363, 3062, 3063, 3098, 3097, 2817, 2818, 2853, 2852
2364, 3063, 3064, 3099, 3098, 2818, 2819, 2854, 2853
2365, 3064, 3065, 3100, 3099, 2819, 2820, 2855, 2854
2366, 3065, 3066, 3101, 3100, 2820, 2821, 2856, 2855
2367, 3066, 3067, 3102, 3101, 2821, 2822, 2857, 2856
2368, 3067, 3068, 3103, 3102, 2822, 2823, 2858, 2857
2369, 3068, 3069, 3104, 3103, 2823, 2824, 2859, 2858
2370, 3069, 3070, 3105, 3104, 2824, 2825, 2860, 2859
2371, 3070, 3071, 3106, 3105, 2825, 2826, 2861, 2860
2372, 3071, 3072, 3107, 3106, 2826, 2827, 2862, 2861
2373, 3072, 3073, 3108, 3107, 2827, 2828, 2863, 2862
2374, 3073, 3074, 3109, 3108, 2828, 2829, 2864, 2863
2375, 3074, 3075, 3110, 3109, 2829, 2830, 2865, 2864
2376, 3075, 3076, 3111, 3110, 2830, 2831, 2866, 2865
2377, 3076, 3077, 3112, 3111, 2831, 2832, 2867, 2866
2378, 3077, 3078, 3113, 3112, 2832, 2833, 2868, 2867
2379, 3078, 3079, 3114, 3113, 2833, 2834, 2869, 2868
2380, 3079, 3080, 3115, 3114, 2834, 2835, 2870, 2869
2381, 3081, 3082, 3117, 3116, 2836, 2837, 2872, 2871
2382, 3082, 3083, 3118, 3117, 2837, 2838, 2873, 2872
2383, 3083, 3084, 3119, 3118, 2838, 2839, 2874, 2873
2384, 3084, 3085, 3120, 3119, 2839, 2840, 2875, 2874
2385, 3085, 3086, 3121, 3120, 2840, 2841, 2876, 2875
2386, 3086, 3087, 3122, 3121, 2841, 2842, 2877, 2876
2387, 3087, 3088, 3123, 3122, 2842, 2843, 2878, 2877
2388, 3088, 3089, 3124, 3123, 2843, 2844, 2879, 2878
2389, 3089, 3090, 3125, 3124, 2844, 2845, 2880, 2879
2390, 3090, 3091, 3126, 3125, 2845, 2846, 2881, 2880
2391, 3091, 3092, 3127, 3126, 2846, 2847, 2882, 2881
2392, 3092, 3093, 3128, 3127, 2847, 2848, 2883, 2882
2393, 3093, 3094, 3129, 3128, 2848, 2849, 2884, 2883
2394, 3094, 3095, 3130, 3129, 2849, 2850, 2885, 2884
2395, 3095, 3096, 3131, 3130, 2850, 2851, 2886, 2885
2396, 3096, 3097, 3132, 3131, 2851, 2852, 2887, 2886
2397, 3097, 3098, 3133, 3132, 2852, 2853, 2888, 2887
2398, 3098, 3099, 3134, 3133, 2853, 2854, 2889, 2888
2399, 3099, 3100, 3135, 3134, 2854, 2855, 2890, 2889
2400, 3100, 3101, 3136, 3135, 2855, 2856, 2891, 2890
2401, 3101, 3102, 3137, 3136, 2856, 2857, 2892, 2891
2402, 3102, 3103, 3138, 3137, 2857, 2858, 2893, 2892
2403, 3103, 3104, 3139, 3138, 2858, 2859, 2894, 2893
2404, 3104, 3105, 3140, 3139, 2859, 2860, 2895, 2894
2405, 3105, 3106, 3141, 3140, 2860, 2861, 2896, 2895
2406, 3106, 3107, 3142, 3141, 2861, 2862, 2897, 2896
2407, 3107, 3108, 3143, 3142, 2862, 2863, 2898, 2897
2408, 3108, 3109, 3144, 3143, 2863, 2864, 2899, 2898
2409, 3109, 3110, 3145, 3144, 2864, 2865, 2900, 2899
2410, 3110, 3111, 3146, 3145, 2865, 2866, 2901, 2900
2411, 3111, 3112, 3147, 3146, 2866, 2867, 2902, 2901
2412, 3112, 3113, 3148, 3147, 2867, 2868, 2903, 2902
2413, 3113, 3114, 3149, 3148, 2868, 2869, 2904, 2903
2414, 3114, 3115, 3150, 3149, 2869, 2870, 2905, 2904
2415, 3116, 3117, 3152, 3151, 2871, 2872, 2907, 2906
2416, 3117, 3118, 3153, 3152, 2872, 2873, 2908, 2907
2417, 3118, 3119, 3154, 3153, 2873, 2874, 2909, 2908
2418, 3119, 3120, 3155, 3154, 2874, 2875, 2910, 2909
2419, 3120, 3121, 3156, 3155, 2875, 2876, 2911, 2910
2420, 3121, 3122, 3157, 3156, 2876, 2877, 2912, 2911
2421, 3122, 3123, 3158, 3157, 2877, 2878, 2913, 2912
2422, 3123, 3124, 3159, 3158, 2878, 2879, 2914, 2913
2423, 3124, 3125, 3160, 3159, 2879, 2880, 2915, 2914
2424, 3125, 3126, 3161, 3160, 2880, 2881, 2916, 2915
2425, 3126, 3127, 3162, 3161, 2881, 2882, 2917, 2916
2426, 3127, 3128, 3163, 3162, 2882, 2883, 2918, 2917
2427, 3128, 3129, 3164, 3163, 2883, 2884, 2919, 2918
2428, 3129, 3130, 3165, 3164, 2884, 2885, 2920, 2919
2429, 3130, 3131, 3166, 3165, 2885, 2886, 2921, 2920
2430, 3131, 3132, 3167, 3166, 2886, 2887, 2922, 2921
2431, 3132, 3133, 3168, 3167, 2887, 2888, 2923, 2922
2432, 3133, 3134, 3169, 3168, 2888, 2889, 2924, 2923
2433, 3134, 3135, 3170, 3169, 2889, 2890, 2925, 2924
2434, 3135, 3136, 3171, 3170, 2890, 2891, 2926, 2925
2435, 3136, 3137, 3172, 3171, 2891, 2892, 2927, 2926
2436, 3137, 3138, 3173, 3172, 2892, 2893, 2928, 2927
2437, 3138, 3139, 3174, 3173, 2893, 2894, 2929, 2928
2438, 3139, 3140, 3175, 3174, 2894, 2895, 2930, 2929
2439, 3140, 3141, 3176, 3175, 2895, 2896, 2931, 2930
2440, 3141, 3142, 3177, 3176, 2896, 2897, 2932, 2931
2441, 3142, 3143, 3178, 3177, 2897, 2898, 2933, 2932
2442, 3143, 3144, 3179, 3178, 2898, 2899, 2934, 2933
2443, 3144, 3145, 3180, 3179, 2899, 2900, 2935, 2934
2444, 3145, 3146, 3181, 3180, 2900, 2901, 2936, 2935
2445, 3146, 3147, 3182, 3181, 2901, 2902, 2937, 2936
2446, 3147, 3148, 3183, 3182, 2902, 2903, 2938, 2937
2447, 3148, 3149, 3184, 3183, 2903, 2904, 2939, 2938
2448, 3149, 3150, 3185, 3184, 2904, 2905, 2940, 2939
2449, 3186, 3187, 3222, 3221, 2941, 2942, 2977, 2976
2450, 3187, 3188, 3223, 3222, 2942, 2943, 2978, 2977
2451, 3188, 3189, 3224, 3223, 2943, 2944, 2979, 2978
2452, 3189, 3190, 3225, 3224, 2944, 2945, 2980, 2979
2453, 3190, 3191, 3226, 3225, 2945, 2946, 2981, 2980
2454, 3191, 3192, 3227, 3226, 2946, 2947, 2982, 2981
2455, 3192, 3193, 3228, 3227, 2947, 2948, 2983, 2982
2456, 3193, 3194, 3229, 3228, 2948, 2949, 2984, 2983
2457, 3194, 3195, 3230, 3229, 2949, 2950, 2985, 2984
2458, 3195, 3196, 3231, 3230, 2950, 2951, 2986, 2985
2459, 3196, 3197, 3232, 3231, 2951, 2952, 2987, 2986
2460, 3197, 3198, 3233, 3232, 2952, 2953, 2988, 2987
2461, 3198, 3199, 3234, 3233, 2953, 2954, 2989, 2988
2462, 3199, 3200, 3235, 3234, 2954, 2955, 2990, 2989
2463, 3200, 3201, 3236, 3235, 2955, 2956, 2991, 2990
2464, 3201, 3202, 3237, 3236, 2956, 2957, 2992, 2991
2465, 3202, 3203, 3238, 3237, 2957, 2958, 2993, 2992
2466, 3203, 3204, 3239, 3238, 2958, 2959, 2994, 2993
2467, 3204, 3205, 3240, 3239, 2959, 2960, 2995, 2994
2468, 3205, 3206, 3241, 3240, 2960, 2961, 2996, 2995
2469, 3206, 3207, 3242, 3241, 2961, 2962, 2997, 2996
2470, 3207, 3208, 3243, 3242, 2962, 2963, 2998, 2997
2471, 3208, 3209, 3244, 3243, 2963, 2964, 2999, 2998
2472, 3209, 3210, 3245, 3244, 2964, 2965, 3000, 2999
2473, 3210, 3211, 3246, 3245, 2965, 2966, 3001, 3000
2474, 3211, 3212, 3247, 3246, 2966, 2967, 3002, 3001
2475, 3212, 3213, 3248, 3247, 2967, 2968, 3003, 3002
2476, 3213, 3214, 3249, 3248, 2968, 2969, 3004, 3003
2477, 3214, 3215, 3250, 3249, 2969, 2970, 3005, 3004
2478, 3215, 3216, 3251, 3250, 2970, 2971, 3006, 3005
2479, 3216, 3217, 3252, 3251, 2971, 2972, 3007, 3006
2480, 3217, 3218, 3253, 3252, 2972, 2973, 3008, 3007
2481, 3218, 3219, 3254, 3253, 2973, 2974, 3009, 3008
2482, 3219, 3220, 3255, 3254, 2974, 2975, 3010, 3009
2483, 3221, 3222, 3257, 3256, 2976, 2977, 3012, 3011
2484, 3222, 3223, 3258, 3257, 2977, 2978, 3013, 3012
2485, 3223, 3224, 3259, 3258, 2978, 2979, 3014, 3013
2486, 3224, 3225, 3260, 3259, 2979, 2980, 3015, 3014
2487, 3225, 3226, 3261, 3260, 2980, 2981, 3016, 3015
2488, 3226, 3227, 3262, 3261, 2981, 2982, 3017, 3016
2489, 3227, 3228, 3263, 3262, 2982, 2983, 3018, 3017
2490, 3228, 3229, 3264, 3263, 2983, 2984, 3019, 3018
2491, 3229, 3230, 3265, 3264, 2984, 2985, 3020, 3019
2492, 3230, 3231, 3266, 3265, 2985, 2986, 3021, 3020
2493, 3231, 3232, 3267, 3266, 2986, 2987, 3022, 3021
2494, 3232, 3233, 3268, 3267, 2987, 2988, 3023, 3022
2495, 3233, 3234, 3269, 3268, 2988, 2989, 3024, 3023
2496, 3234, 3235, 3270, 3269, 2989, 2990, 3025, 3024
2497, 3235, 3236, 3271, 3270, 2990, 2991, 3026, 3025
2498, 3236, 3237, 3272, 3271, 2991, 2992, 3027, 3026
2499, 3237, 3238, 3273, 3272, 2992, 2993, 3028, 3027
2500, 3238, 3239, 3274, 3273, 2993, 2994, 3029, 3028
2501, 3239, 3240, 3275, 3274, 2994, 2995, 3030, 3029
2502, 3240, 3241, 3276, 3275, 2995, 2996, 3031, 3030
2503, 3241, 3242, 3277, 3276, 2996, 2997, 3032, 3031
2504, 3242, 3243, 3278, 3277, 2997, 2998, 3033, 3032
2505, 3243, 3244, 3279, 3278, 2998, 2999, 3034, 3033
2506, 3244, 3245, 3280, 3279, 2999, 3000, 3035, 3034
2507, 3245, 3246, 3281, 3280, 3000, 3001, 3036, 3035
2508, 3246, 3247, 3282, 3281, 3001, 3002, 3037, 3036
2509, 3247, 3248, 3283, 3282, 3002, 3003, 3038, 3037
2510, 3248, 3249, 3284, 3283, 3003, 3004, 3039, 3038
2511, 3249, 3250, 3285, 3284, 3004, 3005, 3040, 3039
2512, 3250, 3251, 3286, 3285, 3005, 3006, 3041, 3040
2513, 3251, 3252, 3287, 3286, 3006, 3007, 3042, 3041
2514, 3252, 3253, 3288, 3287, 3007, 3008, 3043, 3042
2515, 3253, 3254, 3289, 3288, 3008, 3009, 3044, 3043
2516, 3254, 3255, 3290, 3289, 3009, 3010, 3045, 3044
2517, 3256, 3257, 3292, 3291, 3011, 3012, 3047, 3046
2518, 3257, 3258, 3293, 3292, 3012, 3013, 3048, 3047
2519, 3258, 3259, 3294, 3293, 3013, 3014, 3049, 3048
2520, 3259, 3260, 3295, 3294, 3014, 3015, 3050, 3049
2521, 3260, 3261, 3296, 3295, 3015, 3016, 3051, 3050
2522, 3261, 3262, 3297, 3296, 3016, 3017, 3052, 3051
2523, 3262, 3263, 3298, 3297, 3017, 3018, 3053, 3052
2524, 3263, 3264, 3299, 3298, 3018, 3019, 3054, 3053
2525, 3264, 3265, 3300, 3299, 3019, 3020, 3055, 3054
2526, 3265, 3266, 3301, 3300, 3020, 3021, 3056, 3055
2527, 3266, 3267, 3302, 3301, 3021, 3022, 3057, 3056
2528, 3267, 3268, 3303, 3302, 3022, 3023, 3058, 3057
2529, 3268, 3269, 3304, 3303, 3023, 3024, 3059, 3058
2530, 3269, 3270, 3305, 3304, 3024, 3025, 3060, 3059
2531, 3270, 3271, 3306, 3305, 3025, 3026, 3061, 3060
2532, 3271, 3272, 3307, 3306, 3026, 3027, 3062, 3061
2533, 3272, 3273, 3308, 3307, 3027, 3028, 3063, 3062
2534, 3273, 3274, 3309, 3308, 3028, 3029, 3064, 3063
2535, 3274, 3275, 3310, 3309, 3029, 3030, 3065, 3064
2536, 3275, 3276, 3311, 3310, 3030, 3031, 3066, 3065
2537, 3276, 3277, 3312, 3311, 3031, 3032, 3067, 3066
2538, 3277, 3278, 3313, 3312, 3032, 3033, 3068, 3067
2539, 3278, 3279, 3314, 3313, 3033, 3034, 3069, 3068
2540, 3279, 3280, 3315, 3314, 3034, 3035, 3070, 3069
2541, 3280, 3281, 3316, 3315, 3035, 3036, 3071, 3070
2542, 3281, 3282, 3317, 3316, 3036, 3037, 3072, 3071
2543, 3282, 3283, 3318, 3317, 3037, 3038, 3073, 3072
2544, 3283, 3284, 3319, 3318, 3038, 3039, 3074, 3073
2545, 3284, 3285, 3320, 3319, 3039, 3040, 3075, 3074
2546, 3285, 3286, 3321, 3320, 3040, 3041, 3076, 3075
2547, 3286, 3287, 3322, 3321, 3041, 3042, 3077, 3076
2548, 3287, 3288, 3323, 3322, 3042, 3043, 3078, 3077
2549, 3288, 3289, 3324, 3323, 3043, 3044, 3079, 3078
2550, 3289, 3290, 3325, 3324, 3044, 3045, 3080, 3079
2551, 3291, 3292, 3327, 3326, 3046, 3047, 3082, 3081
2552, 3292, 3293, 3328, 3327, 3047, 3048, 3083, 3082
2553, 3293, 3294, 3329, 3328, 3048, 3049, 3084, 3083
2554, 3294, 3295, 3330, 3329, 3049, 3050, 3085, 3084
2555, 3295, 3296, 3331, 3330, 3050, 3051, 3086, 3085
2556, 3296, 3297, 3332, 3331, 3051, 3052, 3087, 3086
2557, 3297, 3298, 3333, 3332, 3052, 3053, 3088, 3087
2558, 3298, 3299, 3334, 3333, 3053, 3054, 3089, 3088
2559, 3299, 3300, 3335, 3334, 3054, 3055, 3090, 3089
2560, 3300, 3301, 3336, 3335, 3055, 3056, 3091, 3090
2561, 3301, 3302, 3337, 3336, 3056, 3057, 3092, 3091
2562, 3302, 3303, 3338, 3337, 3057, 3058, 3093, 3092
2563, 3303, 3304, 3339, 3338, 3058, 3059, 3094, 3093
2564, 3304, 3305, 3340, 3339, 3059, 3060, 3095, 3094
2565, 3305, 3306, 3341, 3340, 3060, 3061, 3096, 3095
2566, 3306, 3307, 3342, 3341, 3061, 3062, 3097, 3096
2567, 3307, 3308, 3343, 3342, 3062, 3063, 3098, 3097
2568, 3308, 3309, 3344, 3343, 3063, 3064, 3099, 3098
2569, 3309, 3310, 3345, 3344, 3064, 3065, 3100, 3099
2570, 3310, 3311, 3346, 3345, 3065, 3066, 3101, 3100
2571, 3311, 3312, 3347, 3346, 3066, 3067, 3102, 3101
2572, 3312, 3313, 3348, 3347, 3067, 3068, 3103, 3102
2573, 3313, 3314, 3349, 3348, 3068, 3069, 3104, 3103
2574, 3314, 3315, 3350, 3349, 3069, 3070, 3105, 3104
2575, 3315, 3316, 3351, 3350, 3070, 3071, 3106, 3105
2576, 3316, 3317, 3352, 3351, 3071, 3072, 3107, 3106
2577, 3317, 3318, 3353, 3352, 3072, 3073, 3108, 3107
2578, 3318, 3319, 3354, 3353, 3073, 3074, 3109, 3108
2579, 3319, 3320, 3355, 3354, 3074, 3075, 3110, 3109
2580, 3320, 3321, 3356, 3355, 3075, 3076, 3111, 3110
2581, 3321, 3322, 3357, 3356, 3076, 3077, 3112, 3111
2582, 3322, 3323, 3358, 3357, 3077, 3078, 3113, 3112
2583, 3323, 3324, 3359, 3358, 3078, 3079, 3114, 3113
2584, 3324, 3325, 3360, 3359, 3079, 3080, 3115, 3114
2585, 3326, 3327, 3362, 3361, 3081, 3082, 3117, 3116
2586, 3327, 3328, 3363, 3362, 3082, 3083, 3118, 3117
2587, 3328, 3329, 3364, 3363, 3083, 3084, 3119, 3118
2588, 3329, 3330, 3365, 3364, 3084, 3085, 3120, 3119
2589, 3330, 3331, 3366, 3365, 3085, 3086, 3121, 3120
2590, 3331, 3332, 3367, 3366, 3086, 3087, 3122, 3121
2591, 3332, 3333, 3368, 3367, 3087, 3088, 3123, 3122
2592, 3333, 3334, 3369, 3368, 3088, 3089, 3124, 3123
2593, 3334, 3335, 3370, 3369, 3089, 3090, 3125, 3124
2594, 3335, 3336, 3371, 3370, 3090, 3091, 3126, 3125
2595, 3336, 3337, 3372, 3371, 3091, 3092, 3127, 3126
2596, 3337, 3338, 3373, 3372, 3092, 3093, 3128, 3127
2597, 3338, 3339, 3374, 3373, 3093, 3094, 3129, 3128
2598, 3339, 3340, 3375, 3374, 3094, 3095, 3130, 3129
2599, 3340, 3341, 3376, 3375, 3095, 3096, 3131, 3130
2600, 3341, 3342, 3377, 3376, 3096, 3097, 3132, 3131
2601, 3342, 3343, 3378, 3377, 3097, 3098, 3133, 3132
2602, 3343, 3344, 3379, 3378, 3098, 3099, 3134, 3133
2603, 3344, 3345, 3380, 3379, 3099, 3100, 3135, 3134
2604, 3345, 3346, 3381, 3380, 3100, 3101, 3136, 3135
2605, 3346, 3347, 3382, 3381, 3101, 3102, 3137, 3136
2606, 3347, 3348, 3383, 3382, 3102, 3103, 3138, 3137
2607, 3348, 3349, 3384, 3383, 3103, 3104, 3139, 3138
2608, 3349, 3350, 3385, 3384, 3104, 3105, 3140, 3139
2609, 3350, 3351, 3386, 3385, 3105, 3106, 3141, 3140
2610, 3351, 3352, 3387, 3386, 3106, 3107, 3142, 3141
2611, 3352, 3353, 3388, 3387, 3107, 3108, 3143, 3142
2612, 3353, 3354, 3389, 3388, 3108, 3109, 3144, 3143
2613, 3354, 3355, 3390, 3389, 3109, 3110, 3145, 3144
2614, 3355, 3356, 3391, 3390, 3110, 3111, 3146, 3145
2615, 3356, 3357, 3392, 3391, 3111, 3112, 3147, 3146
2616, 3357, 3358, 3393, 3392, 3112, 3113, 3148, 3147
2617, 3358, 3359, 3394, 3393, 3113, 3114, 3149, 3148
2618, 3359, 3360, 3395, 3394, 3114, 3115, 3150, 3149
2619, 3361, 3362, 3397, 3396, 3116, 3117, 3152, 3151
2620, 3362, 3363, 3398, 3397, 3117, 3118, 3153, 3152
2621, 3363, 3364, 3399, 3398, 3118, 3119, 3154, 3153
2622, 3364, 3365, 3400, 3399, 3119, 3120, 3155, 3154
2623, 3365, 3366, 3401, 3400, 3120, 3121, 3156, 3155
2624, 3366, 3367, 3402, 3401, 3121, 3122, 3157, 3156
2625, 3367, 3368, 3403, 3402, 3122, 3123, 3158, 3157
2626, 3368, 3369, 3404, 3403, 3123, 3124, 3159, 3158
2627, 3369, 3370, 3405, 3404, 3124, 3125, 3160, 3159
2628, 3370, 3371, 3406, 3405, 3125, 3126, 3161, 3160
2629, 3371, 3372, 3407, 3406, 3126, 3127, 3162, 3161
2630, 3372, 3373, 3408, 3407, 3127, 3128, 3163, 3162
2631, 3373, 3374, 3409, 3408, 3128, 3129, 3164, 3163
2632, 3374, 3375, 3410, 3409, 3129, 3130, 3165, 3164
2633, 3375, 3376, 3411, 3410, 3130, 3131, 3166, 3165
2634, 3376, 3377, 3412, 3411, 3131, 3132, 3167, 3166
2635, 3377, 3378, 3413, 3412, 3132, 3133, 3168, 3167
2636, 3378, 3379, 3414, 3413, 3133, 3134, 3169, 3168
2637, 3379, 3380, 3415, 3414, 3134, 3135, 3170, 3169
2638, 3380, 3381, 3416, 3415, 3135, 3136, 3171, 3170
2639, 3381, 3382, 3417, 3416, 3136, 3137, 3172, 3171
2640, 3382, 3383, 3418, 3417, 3137, 3138, 3173, 3172
2641, 3383, 3384, 3419, 3418, 3138, 3139, 3174, 3173
2642, 3384, 3385, 3420, 3419, 3139, 3140, 3175, 3174
2643, 3385, 3386, 3421, 3420, 3140, 3141, 3176, 3175
2644, 3386, 3387, 3422, 3421, 3141, 3142, 3177, 3176
2645, 3387, 3388, 3423, 3422, 3142, 3143, 3178, 3177
2646, 3388, 3389, 3424, 3423, 3143, 3144, 3179, 3178
2647, 3389, 3390, 3425, 3424, 3144, 3145, 3180, 3179
2648, 3390, 3391, 3426, 3425, 3145, 3146, 3181, 3180
2649, 3391, 3392, 3427, 3426, 3146, 3147, 3182, 3181
2650, 3392, 3393, 3428, 3427, 3147, 3148, 3183, 3182
2651, 3393, 3394, 3429, 3428, 3148, 3149, 3184, 3183
2652, 3394, 3395, 3430, 3429, 3149, 3150, 3185, 3184
2653, 3431, 3432, 3467, 3466, 3186, 3187, 3222, 3221
2654, 3432, 3433, 3468, 3467, 3187, 3188, 3223, 3222
2655, 3433, 3434, 3469, 3468, 3188, 3189, 3224, 3223
2656, 3434, 3435, 3470, 3469, 3189, 3190, 3225, 3224
2657, 3435, 3436, 3471, 3470, 3190, 3191, 3226, 3225
2658, 3436, 3437, 3472, 3471, 3191, 3192, 3227, 3226
2659, 3437, 3438, 3473, 3472, 3192, 3193, 3228, 3227
2660, 3438, 3439, 3474, 3473, 3193, 3194, 3229, 3228
2661, 3439, 3440, 3475, 3474, 3194, 3195, 3230, 3229
2662, 3440, 3441, 3476, 3475, 3195, 3196, 3231, 3230
2663, 3441, 3442, 3477, 3476, 3196, 3197, 3232, 3231
2664, 3442, 3443, 3478, 3477, 3197, 3198, 3233, 3232
2665, 3443, 3444, 3479, 3478, 3198, 3199, 3234, 3233
2666, 3444, 3445, 3480, 3479, 3199, 3200, 3235, 3234
2667, 3445, 3446, 3481, 3480, 3200, 3201, 3236, 3235
2668, 3446, 3447, 3482, 3481, 3201, 3202, 3237, 3236
2669, 3447, 3448, 3483, 3482, 3202, 3203, 3238, 3237
2670, 3448, 3449, 3484, 3483, 3203, 3204, 3239, 3238
2671, 3449, 3450, 3485, 3484, 3204, 3205, 3240, 3239
2672, 3450, 3451, 3486, 3485, 3205, 3206, 3241, 3240
2673, 3451, 3452, 3487, 3486, 3206, 3207, 3242, 3241
2674, 3452, 3453, 3488, 3487, 3207, 3208, 3243, 3242
2675, 3453, 3454, 3489, 3488, 3208, 3209, 3244, 3243
2676, 3454, 3455, 3490, 3489, 3209, 3210, 3245, 3244
2677, 3455, 3456, 3491, 3490, 3210, 3211, 3246, 3245
2678, 3456, 3457, 3492, 3491, 3211, 3212, 3247, 3246
2679, 3457, 3458, 3493, 3492, 3212, 3213, 3248, 3247
2680, 3458, 3459, 3494, 3493, 3213, 3214, 3249, 3248
2681, 3459, 3460, 3495, 3494, 3214, 3215, 3250, 3249
2682, 3460, 3461, 3496, 3495, 3215, 3216, 3251, 3250
2683, 3461, 3462, 3497, 3496, 3216, 3217, 3252, 3251
2684, 3462, 3463, 3498, 3497, 3217, 3218, 3253, 3252
2685, 3463, 3464, 3499, 3498, 3218, 3219, 3254, 3253
2686, 3464, 3465, 3500, 3499, 3219, 3220, 3255, 3254
2687, 3466, 3467, 3502, 3501, 3221, 3222, 3257, 3256
2688, 3467, 3468, 3503, 3502, 3222, 3223, 3258, 3257
2689, 3468, 3469, 3504, 3503, 3223, 3224, 3259, 3258
2690, 3469, 3470, 3505, 3504, 3224, 3225, 3260, 3259
2691, 3470, 3471, 3506, 3505, 3225, 3226, 3261, 3260
2692, 3471, 3472, 3507, 3506, 3226, 3227, 3262, 3261
2693, 3472, 3473, 3508, 3507, 3227, 3228, 3263, 3262
2694, 3473, 3474, 3509, 3508, 3228, 3229, 3264, 3263
2695, 3474, 3475, 3510, 3509, 3229, 3230, 3265, 3264
2696, 3475, 3476, 3511, 3510, 3230, 3231, 3266, 3265
2697, 3476, 3477, 3512, 3511, 3231, 3232, 3267, 3266
2698, 3477, 3478, 3513, 3512, 3232, 3233, 3268, 3267
2699, 3478, 3479, 3514, 3513, 3233, 3234, 3269, 3268
2700, 3479, 3480, 3515, 3514, 3234, 3235, 3270, 3269
2701, 3480, 3481, 3516, 3515, 3235, 3236, 3271, 3270
2702, 3481, 3482, 3517, 3516, 3236, 3237, 3272, 3271
2703, 3482, 3483, 3518, 3517, 3237, 3238, 3273, 3272
2704, 3483, 3484, 3519, 3518, 3238, 3239, 3274, 3273
2705, 3484, 3485, 3520, 3519, 3239, 3240, 3275, 3274
2706, 3485, 3486, 3521, 3520, 3240, 3241, 3276, 3275
2707, 3486, 3487, 3522, 3521, 3241, 3242, 3277, 3276
2708, 3487, 3488, 3523, 3522, 3242, 3243, 3278, 3277
2709, 3488, 3489, 3524, 3523, 3243, 3244, 3279, 3278
2710, 3489, 3490, 3525, 3524, 3244, 3245, 3280, 3279
2711, 3490, 3491, 3526, 3525, 3245, 3246, 3281, 3280
2712, 3491, 3492, 3527, 3526, 3246, 3247, 3282, 3281
2713, 3492, 3493, 3528, 3527, 3247, 3248, 3283, 3282
2714, 3493, 3494, 3529, 3528, 3248, 3249, 3284, 3283
2715, 3494, 3495, 3530, 3529, 3249, 3250, 3285, 3284
2716, 3495, 3496, 3531, 3530, 3250, 3251, 3286, 3285
2717, 3496, 3497, 3532, 3531, 3251, 3252, 3287, 3286
2718, 3497, 3498, 3533, 3532, 3252, 3253, 3288, 3287
2719, 3498, 3499, 3534, 3533, 3253, 3254, 3289, 3288
2720, 3499, 3500, 3535, 3534, 3254, 3255, 3290, 3289
2721, 3501, 3502, 3537, 3536, 3256, 3257, 3292, 3291
2722, 3502, 3503, 3538, 3537, 3257, 3258, 3293, 3292
2723, 3503, 3504, 3539, 3538, 3258, 3259, 3294, 3293
2724, 3504, 3505, 3540, 3539, 3259, 3260, 3295, 3294
2725, 3505, 3506, 3541, 3540, 3260, 3261, 3296, 3295
2726, 3506, 3507, 3542, 3541, 3261, 3262, 3297, 3296
2727, 3507, 3508, 3543, 3542, 3262, 3263, 3298, 3297
2728, 3508, 3509, 3544, 3543, 3263, 3264, 3299, 3298
2729, 3509, 3510, 3545, 3544, 3264, 3265, 3300, 3299
2730, 3510, 3511, 3546, 3545, 3265, 3266, 3301, 3300
2731, 3511, 3512, 3547, 3546, 3266, 3267, 3302, 3301
2732, 3512, 3513, 3548, 3547, 3267, 3268, 3303, 3302
2733, 3513, 3514, 3549, 3548, 3268, 3269, 3304, 3303
2734, 3514, 3515, 3550, 3549, 3269, 3270, 3305, 3304
2735, 3515, 3516, 3551, 3550, 3270, 3271, 3306, 3305
2736, 3516, 3517, 3552, 3551, 3271, 3272, 3307, 3306
2737, 3517, 3518, 3553, 3552, 3272, 3273, 3308, 3307
2738, 3518, 3519, 3554, 3553, 3273, 3274, 3309, 3308
2739, 3519, 3520, 3555, 3554, 3274, 3275, 3310, 3309
2740, 3520, 3521, 3556, 3555, 3275, 3276, 3311, 3310
2741, 3521, 3522, 3557, 3556, 3276, 3277, 3312, 3311
2742, 3522, 3523, 3558, 3557, 3277, 3278, 3313, 3312
2743, 3523, 3524, 3559, 3558, 3278, 3279, 3314, 3313
2744, 3524, 3525, 3560, 3559, 3279, 3280, 3315, 3314
2745, 3525, 3526, 3561, 3560, 3280, 3281, 3316, 3315
2746, 3526, 3527, 3562, 3561, 3281, 3282, 3317, 3316
2747, 3527, 3528, 3563, 3562, 3282, 3283, 3318, 3317
2748, 3528, 3529, 3564, 3563, 3283, 3284, 3319, 3318
2749, 3529, 3530, 3565, 3564, 3284, 3285, 3320, 3319
2750, 3530, 3531, 3566, 3565, 3285, 3286, 3321, 3320
2751, 3531, 3532, 3567, 3566, 3286, 3287, 3322, 3321
2752, 3532, 3533, 3568, 3567, 3287, 3288, 3323, 3322
2753, 3533, 3534, 3569, 3568, 3288, 3289, 3324, 3323
2754, 3534, 3535, 3570, 3569, 3289, 3290, 3325, 3324
2755, 3536, 3537, 3572, 3571, 3291, 3292, 3327, 3326
2756, 3537, 3538, 3573, 3572, 3292, 3293, 3328, 3327
2757, 3538, 3539, 3574, 3573, 3293, 3294, 3329, 3328
2758, 3539, 3540, 3575, 3574, 3294, 3295, 3330, 3329
2759, 3540, 3541, 3576, 3575, 3295, 3296, 3331, 3330
2760, 3541, 3542, 3577, 3576, 3296, 3297, 3332, 3331
2761, 3542, 3543, 3578, 3577, 3297, 3298, 3333, 3332
2762, 3543, 3544, 3579, 3578, 3298, 3299, 3334, 3333
2763, 3544, 3545, 3580, 3579, 3299, 3300, 3335, 3334
2764, 3545, 3546, 3581, 3580, 3300, 3301, 3336, 3335
2765, 3546, 3547, 3582, 3581, 3301, 3302, 3337, 3336
2766, 3547, 3548, 3583, 3582, 3302, 3303, 3338, 3337
2767, 3548, 3549, 3584, 3583, 3303, 3304, 3339, 3338
2768, 3549, 3550, 3585, 3584, 3304, 3305, 3340, 3339
2769, 3550, 3551, 3586, 3585, 3305, 3306, 3341, 3340
2770, 3551, 3552, 3587, 3586, 3306, 3307, 3342, 3341
2771, 3552, 3553, 3588, 3587, 3307, 3308, 3343, 3342
2772, 3553, 3554, 3589, 3588, 3308, 3309, 3344, 3343
2773, 3554, 3555, 3590, 3589, 3309, 3310, 3345, 3344
2774, 3555, 3556, 3591, 3590, 3310, 3311, 3346, 3345
2775, 3556, 3557, 3592, 3591, 3311, 3312, 3347, 3346
2776, 3557, 3558, 3593, 3592, 3312, 3313, 3348, 3347
2777, 3558, 3559, 3594, 3593, 3313, 3314, 3349, 3348
2778, 3559, 3560, 3595, 3594, 3314, 3315, 3350, 3349
2779, 3560, 3561, 3596, 3595, 3315, 3316, 3351, 3350
2780, 3561, 3562, 3597, 3596, 3316, 3317, 3352, 3351
2781, 3562, 3563, 3598, 3597, 3317, 3318, 3353, 3352
2782, 3563, 3564, 3599, 3598, 3318, 3319, 3354, 3353
2783, 3564, 3565, 3600, 3599, 3319, 3320, 3355, 3354
2784, 3565, 3566, 3601, 3600, 3320, 3321, 3356, 3355
2785, 3566, 3567, 3602, 3601, 3321, 3322, 3357, 3356
2786, 3567, 3568, 3603, 3602, 3322, 3323, 3358, 3357
2787, 3568, 3569, 3604, 3603, 3323, 3324, 3359, 3358
2788, 3569, 3570, 3605, 3604, 3324, 3325, 3360, 3359
2789, 3571, 3572, 3607, 3606, 3326, 3327, 3362, 3361
2790, 3572, 3573, 3608, 3607, 3327, 3328, 3363, 3362
2791, 3573, 3574, 3609, 3608, 3328, 3329, 3364, 3363
2792, 3574, 3575, 3610, 3609, 3329, 3330, 3365, 3364
2793, 3575, 3576, 3611, 3610, 3330, 3331, 3366, 3365
2794, 3576, 3577, 3612, 3611, 3331, 3332, 3367, 3366
2795, 3577, 3578, 3613, 3612, 3332, 3333, 3368, 3367
2796, 3578, 3579, 3614, 3613, 3333, 3334, 3369, 3368
2797, 3579, 3580, 3615, 3614, 3334, 3335, 3370, 3369
2798, 3580, 3581, 3616, 3615, 3335, 3336, 3371, 3370
2799, 3581, 3582, 3617, 3616, 3336, 3337, 3372, 3371
2800, 3582, 3583, 3618, 3617, 3337, 3338, 3373, 3372
2801, 3583, 3584, 3619, 3618, 3338, 3339, 3374, 3373
2802, 3584, 3585, 3620, 3619, 3339, 3340, 3375, 3374
2803, 3585, 3586, 3621, 3620, 3340, 3341, 3376, 3375
2804, 3586, 3587, 3622, 3621, 3341, 3342, 3377, 3376
2805, 3587, 3588, 3623, 3622, 3342, 3343, 3378, 3377
2806, 3588, 3589, 3624, 3623, 3343, 3344, 3379, 3378
2807, 3589, 3590, 3625, 3624, 3344, 3345, 3380, 3379
2808, 3590, 3591, 3626, 3625, 3345, 3346, 3381, 3380
2809, 3591, 3592, 3627, 3626, 3346, 3347, 3382, 3381
2810, 3592, 3593, 3628, 3627, 3347, 3348, 3383, 3382
2811, 3593, 3594, 3629, 3628, 3348, 3349, 3384, 3383
2812, 3594, 3595, 3630, 3629, 3349, 3350, 3385, 3384
2813, 3595, 3596, 3631, 3630, 3350, 3351, 3386, 3385
2814, 3596, 3597, 3632, 3631, 3351, 3352, 3387, 3386
2815, 3597, 3598, 3633, 3632, 3352, 3353, 3388, 3387
2816, 3598, 3599, 3634, 3633, 3353, 3354, 3389, 3388
2817, 3599, 3600, 3635, 3634, 3354, 3355, 3390, 3389
2818, 3600, 3601, 3636, 3635, 3355, 3356, 3391, 3390
2819, 3601, 3602, 3637, 3636, 3356, 3357, 3392, 3391
2820, 3602, 3603, 3638, 3637, 3357, 3358, 3393, 3392
2821, 3603, 3604, 3639, 3638, 3358, 3359, 3394, 3393
2822, 3604, 3605, 3640, 3639, 3359, 3360, 3395, 3394
2823, 3606, 3607, 3642, 3641, 3361, 3362, 3397, 3396
2824, 3607, 3608, 3643, 3642, 3362, 3363, 3398, 3397
2825, 3608, 3609, 3644, 3643, 3363, 3364, 3399, 3398
2826, 3609, 3610, 3645, 3644, 3364, 3365, 3400, 3399
2827, 3610, 3611, 3646, 3645, 3365, 3366, 3401, 3400
2828, 3611, 3612, 3647, 3646, 3366, 3367, 3402, 3401
2829, 3612, 3613, 3648, 3647, 3367, 3368, 3403, 3402
2830, 3613, 3614, 3649, 3648, 3368, 3369, 3404, 3403
2831, 3614, 3615, 3650, 3649, 3369, 3370, 3405, 3404
2832, 3615, 3616, 3651, 3650, 3370, 3371, 3406, 3405
2833, 3616, 3617, 3652, 3651, 3371, 3372, 3407, 3406
2834, 3617, 3618, 3653, 3652, 3372, 3373, 3408, 3407
2835, 3618, 3619, 3654, 3653, 3373, 3374, 3409, 3408
2836, 3619, 3620, 3655, 3654, 3374, 3375, 3410, 3409
2837, 3620, 3621, 3656, 3655, 3375, 3376, 3411, 3410
2838, 3621, 3622, 3657, 3656, 3376, 3377, 3412, 3411
2839, 3622, 3623, 3658, 3657, 3377, 3378, 3413, 3412
2840, 3623, 3624, 3659, 3658, 3378, 3379, 3414, 3413
2841, 3624, 3625, 3660, 3659, 3379, 3380, 3415, 3414
2842, 3625, 3626, 3661, 3660, 3380, 3381, 3416, 3415
2843, 3626, 3627, 3662, 3661, 3381, 3382, 3417, 3416
2844, 3627, 3628, 3663, 3662, 3382, 3383, 3418, 3417
2845, 3628, 3629, 3664, 3663, 3383, 3384, 3419, 3418
2846, 3629, 3630, 3665, 3664, 3384, 3385, 3420, 3419
2847, 3630, 3631, 3666, 3665, 3385, 3386, 3421, 3420
2848, 3631, 3632, 3667, 3666, 3386, 3387, 3422, 3421
2849, 3632, 3633, 3668, 3667, 3387, 3388, 3423, 3422
2850, 3633, 3634, 3669, 3668, 3388, 3389, 3424, 3423
2851, 3634, 3635, 3670, 3669, 3389, 3390, 3425, 3424
2852, 3635, 3636, 3671, 3670, 3390, 3391, 3426, 3425
2853, 3636, 3637, 3672, 3671, 3391, 3392, 3427, 3426
2854, 3637, 3638, 3673, 3672, 3392, 3393, 3428, 3427
2855, 3638, 3639, 3674, 3673, 3393, 3394, 3429, 3428
2856, 3639, 3640, 3675, 3674, 3394, 3395, 3430, 3429
2857, 3676, 3677, 3712, 3711, 3431, 3432, 3467, 3466
2858, 3677, 3678, 3713, 3712, 3432, 3433, 3468, 3467
2859, 3678, 3679, 3714, 3713, 3433, 3434, 3469, 3468
2860, 3679, 3680, 3715, 3714, 3434, 3435, 3470, 3469
2861, 3680, 3681, 3716, 3715, 3435, 3436, 3471, 3470
2862, 3681, 3682, 3717, 3716, 3436, 3437, 3472, 3471
2863, 3682, 3683, 3718, 3717, 3437, 3438, 3473, 3472
2864, 3683, 3684, 3719, 3718, 3438, 3439, 3474, 3473
2865, 3684, 3685, 3720, 3719, 3439, 3440, 3475, 3474
2866, 3685, 3686, 3721, 3720, 3440, 3441, 3476, 3475
2867, 3686, 3687, 3722, 3721, 3441, 3442, 3477, 3476
2868, 3687, 3688, 3723, 3722, 3442, 3443, 3478, 3477
2869, 3688, 3689, 3724, 3723, 3443, 3444, 3479, 3478
2870, 3689, 3690, 3725, 3724, 3444, 3445, 3480, 3479
2871, 3690, 3691, 3726, 3725, 3445, 3446, 3481, 3480
2872, 3691, 3692, 3727, 3726, 3446, 3447, 3482, 3481
2873, 3692, 3693, 3728, 3727, 3447, 3448, 3483, 3482
2874, 3693, 3694, 3729, 3728, 3448, 3449, 3484, 3483
2875, 3694, 3695, 3730, 3729, 3449, 3450, 3485, 3484
2876, 3695, 3696, 3731, 3730, 3450, 3451, 3486, 3485
2877, 3696, 3697, 3732, 3731, 3451, 3452, 3487, 3486
2878, 3697, 3698, 3733, 3732, 3452, 3453, 3488, 3487
2879, 3698, 3699, 3734, 3733, 3453, 3454, 3489, 3488
2880, 3699, 3700, 3735, 3734, 3454, 3455, 3490, 3489
2881, 3700, 3701, 3736, 3735, 3455, 3456, 3491, 3490
2882, 3701, 3702, 3737, 3736, 3456, 3457, 3492, 3491
2883, 3702, 3703, 3738, 3737, 3457, 3458, 3493, 3492
2884, 3703, 3704, 3739, 3738, 3458, 3459, 3494, 3493
2885, 3704, 3705, 3740, 3739, 3459, 3460, 3495, 3494
2886, 3705, 3706, 3741, 3740, 3460, 3461, 3496, 3495
2887, 3706, 3707, 3742, 3741, 3461, 3462, 3497, 3496
2888, 3707, 3708, 3743, 3742, 3462, 3463, 3498, 3497
2889, 3708, 3709, 3744, 3743, 3463, 3464, 3499, 3498
2890, 3709, 3710, 3745, 3744, 3464, 3465, 3500, 3499
2891, 3711, 3712, 3747, 3746, 3466, 3467, 3502, 3501
2892, 3712, 3713, 3748, 3747, 3467, 3468, 3503, 3502
2893, 3713, 3714, 3749, 3748, 3468, 3469, 3504, 3503
2894, 3714, 3715, 3750, 3749, 3469, 3470, 3505, 3504
2895, 3715, 3716, 3751, 3750, 3470, 3471, 3506, 3505
2896, 3716, 3717, 3752, 3751, 3471, 3472, 3507, 3506
2897, 3717, 3718, 3753, 3752, 3472, 3473, 3508, 3507
2898, 3718, 3719, 3754, 3753, 3473, 3474, 3509, 3508
2899, 3719, 3720, 3755, 3754, 3474, 3475, 3510, 3509
2900, 3720, 3721, 3756, 3755, 3475, 3476, 3511, 3510
2901, 3721, 3722, 3757, 3756, 3476, 3477, 3512, 3511
2902, 3722, 3723, 3758, 3757, 3477, 3478, 3513, 3512
2903, 3723, 3724, 3759, 3758, 3478, 3479, 3514, 3513
2904, 3724, 3725, 3760, 3759, 3479, 3480, 3515, 3514
2905, 3725, 3726, 3761, 3760, 3480, 3481, 3516, 3515
2906, 3726, 3727, 3762, 3761, 3481, 3482, 3517, 3516
2907, 3727, 3728, 3763, 3762, 3482, 3483, 3518, 3517
2908, 3728, 3729, 3764, 3763, 3483, 3484, 3519, 3518
2909, 3729, 3730, 3765, 3764, 3484, 3485, 3520, 3519
2910, 3730, 3731, 3766, 3765, 3485, 3486, 3521, 3520
2911, 3731, 3732, 3767, 3766, 3486, 3487, 3522, 3521
2912, 3732, 3733, 3768, 3767, 3487, 3488, 3523, 3522
2913, 3733, 3734, 3769, 3768, 3488, 3489, 3524, 3523
2914, 3734, 3735, 3770, 3769, 3489, 3490, 3525, 3524
2915, 3735, 3736, 3771, 3770, 3490, 3491, 3526, 3525
2916, 3736, 3737, 3772, 3771, 3491, 3492, 3527, 3526
2917, 3737, 3738, 3773, 3772, 3492, 3493, 3528, 3527
2918, 3738, 3739, 3774, 3773, 3493, 3494, 3529, 3528
2919, 3739, 3740, 3775, 3774, 3494, 3495, 3530, 3529
2920, 3740, 3741, 3776, 3775, 3495, 3496, 3531, 3530
2921, 3741, 3742, 3777, 3776, 3496, 3497, 3532, 3531
2922, 3742, 3743, 3778, 3777, 3497, 3498, 3533, 3532
2923, 3743, 3744, 3779, 3778, 3498, 3499, 3534, 3533
2924, 3744, 3745, 3780, 3779, 3499, 3500, 3535, 3534
2925, 3746, 3747, 3782, 3781, 3501, 3502, 3537, 3536
2926, 3747, 3748, 3783, 3782, 3502, 3503, 3538, 3537
2927, 3748, 3749, 3784, 3783, 3503, 3504, 3539, 3538
2928, 3749, 3750, 3785, 3784, 3504, 3505, 3540, 3539
2929, 3750, 3751, 3786, 3785, 3505, 3506, 3541, 3540
2930, 3751, 3752, 3787, 3786, 3506, 3507, 3542, 3541
2931, 3752, 3753, 3788, 3787, 3507, 3508, 3543, 3542
2932, 3753, 3754, 3789, 3788, 3508, 3509, 3544, 3543
2933, 3754, 3755, 3790, 3789, 3509, 3510, 3545, 3544
2934, 3755, 3756, 3791, 3790, 3510, 3511, 3546, 3545
2935, 3756, 3757, 3792, 3791, 3511, 3512, 3547, 3546
2936, 3757, 3758, 3793, 3792, 3512, 3513, 3548, 3547
2937, 3758, 3759, 3794, 3793, 3513, 3514, 3549, 3548
2938, 3759, 3760, 3795, 3794, 3514, 3515, 3550, 3549
2939, 3760, 3761, 3796, 3795, 3515, 3516, 3551, 3550
2940, 3761, 3762, 3797, 3796, 3516, 3517, 3552, 3551
2941, 3762, 3763, 3798, 3797, 3517, 3518, 3553, 3552
2942, 3763, 3764, 3799, 3798, 3518, 3519, 3554, 3553
2943, 3764, 3765, 3800, 3799, 3519, 3520, 3555, 3554
2944, 3765, 3766, 3801, 3800, 3520, 3521, 3556, 3555
2945, 3766, 3767, 3802, 3801, 3521, 3522, 3557, 3556
2946, 3767, 3768, 3803, 3802, 3522, 3523, 3558, 3557
2947, 3768, 3769, 3804, 3803, 3523, 3524, 3559, 3558
2948, 3769, 3770, 3805, 3804, 3524, 3525, 3560, 3559
2949, 3770, 3771, 3806, 3805, 3525, 3526, 3561, 3560
2950, 3771, 3772, 3807, 3806, 3526, 3527, 3562, 3561
2951, 3772, 3773, 3808, 3807, 3527, 3528, 3563, 3562
2952, 3773, 3774, 3809, 3808, 3528, 3529, 3564, 3563
2953, 3774, 3775, 3810, 3809, 3529, 3530, 3565, 3564
2954, 3775, 3776, 3811, 3810, 3530, 3531, 3566, 3565
2955, 3776, 3777, 3812, 3811, 3531, 3532, 3567, 3566
2956, 3777, 3778, 3813, 3812, 3532, 3533, 3568, 3567
2957, 3778, 3779, 3814, 3813, 3533, 3534, 3569, 3568
2958, 3779, 3780, 3815, 3814, 3534, 3535, 3570, 3569
2959, 3781, 3782, 3817, 3816, 3536, 3537, 3572, 3571
2960, 3782, 3783, 3818, 3817, 3537, 3538, 3573, 3572
2961, 3783, 3784, 3819, 3818, 3538, 3539, 3574, 3573
2962, 3784, 3785, 3820, 3819, 3539, 3540, 3575, 3574
2963, 3785, 3786, 3821, 3820, 3540, 3541, 3576, 3575
2964, 3786, 3787, 3822, 3821, 3541, 3542, 3577, 3576
2965, 3787, 3788, 3823, 3822, 3542, 3543, 3578, 3577
2966, 3788, 3789, 3824, 3823, 3543, 3544, 3579, 3578
2967, 3789, 3790, 3825, 3824, 3544, 3545, 3580, 3579
2968, 3790, 3791, 3826, 3825, 3545, 3546, 3581, 3580
2969, 3791, 3792, 3827, 3826, 3546, 3547, 3582, 3581
2970, 3792, 3793, 3828, 3827, 3547, 3548, 3583, 3582
2971, 3793, 3794, 3829, 3828, 3548, 3549, 3584, 3583
2972, 3794, 3795, 3830, 3829, 3549, 3550, 3585, 3584
2973, 3795, 3796, 3831, 3830, 3550, 3551, 3586, 3585
2974, 3796, 3797, 3832, 3831, 3551, 3552, 3587, 3586
2975, 3797, 3798, 3833, 3832, 3552, 3553, 3588, 3587
2976, 3798, 3799, 3834, 3833, 3553, 3554, 3589, 3588
2977, 3799, 3800, 3835, 3834, 3554, 3555, 3590, 3589
2978, 3800, 3801, 3836, 3835, 3555, 3556, 3591, 3590
2979, 3801, 3802, 3837, 3836, 3556, 3557, 3592, 3591
2980, 3802, 3803, 3838, 3837, 3557, 3558, 3593, 3592
2981, 3803, 3804, 3839, 3838, 3558, 3559, 3594, 3593
2982, 3804, 3805, 3840, 3839, 3559, 3560, 3595, 3594
2983, 3805, 3806, 3841, 3840, 3560, 3561, 3596, 3595
2984, 3806, 3807, 3842, 3841, 3561, 3562, 3597, 3596
2985, 3807, 3808, 3843, 3842, 3562, 3563, 3598, 3597
2986, 3808, 3809, 3844, 3843, 3563, 3564, 3599, 3598
2987, 3809, 3810, 3845, 3844, 3564, 3565, 3600, 3599
2988, 3810, 3811, 3846, 3845, 3565, 3566, 3601, 3600
2989, 3811, 3812, 3847, 3846, 3566, 3567, 3602, 3601
2990, 3812, 3813, 3848, 3847, 3567, 3568, 3603, 3602
2991, 3813, 3814, 3849, 3848, 3568, 3569, 3604, 3603
2992, 3814, 3815, 3850, 3849, 3569, 3570, 3605, 3604
2993, 3816, 3817, 3852, 3851, 3571, 3572, 3607, 3606
2994, 3817, 3818, 3853, 3852, 3572, 3573, 3608, 3607
2995, 3818, 3819, 3854, 3853, 3573, 3574, 3609, 3608
2996, 3819, 3820, 3855, 3854, 3574, 3575, 3610, 3609
2997, 3820, 3821, 3856, 3855, 3575, 3576, 3611, 3610
2998, 3821, 3822, 3857, 3856, 3576, 3577, 3612, 3611
2999, 3822, 3823, 3858, 3857, 3577, 3578, 3613, 3612
3000, 3823, 3824, 3859, 3858, 3578, 3579, 3614, 3613
3001, 3824, 3825, 3860, 3859, 3579, 3580, 3615, 3614
3002, 3825, 3826, 3861, 3860, 3580, 3581, 3616, 3615
3003, 3826, 3827, 3862, 3861, 3581, 3582, 3617, 3616
3004, 3827, 3828, 3863, 3862, 3582, 3583, 3618, 3617
3005, 3828, 3829, 3864, 3863, 3583, 3584, 3619, 3618
3006, 3829, 3830, 3865, 3864, 3584, 3585, 3620, 3619
3007, 3830, 3831, 3866, 3865, 3585, 3586, 3621, 3620
3008, 3831, 3832, 3867, 3866, 3586, 3587, 3622, 3621
3009, 3832, 3833, 3868, 3867, 3587, 3588, 3623, 3622
3010, 3833, 3834, 3869, 3868, 3588, 3589, 3624, 3623
3011, 3834, 3835, 3870, 3869, 3589, 3590, 3625, 3624
3012, 3835, 3836, 3871, 3870, 3590, 3591, 3626, 3625
3013, 3836, 3837, 3872, 3871, 3591, 3592, 3627, 3626
3014, 3837, 3838, 3873, 3872, 3592, 3593, 3628, 3627
3015, 3838, 3839, 3874, 3873, 3593, 3594, 3629, 3628
3016, 3839, 3840, 3875, 3874, 3594, 3595, 3630, 3629
3017, 3840, 3841, 3876, 3875, 3595, 3596, 3631, 3630
3018, 3841, 3842, 3877, 3876, 3596, 3597, 3632, 3631
3019, 3842, 3843, 3878, 3877, 3597, 3598, 3633, 3632
3020, 3843, 3844, 3879, 3878, 3598, 3599, 3634, 3633
3021, 3844, 3845, 3880, 3879, 3599, 3600, 3635, 3634
3022, 3845, 3846, 3881, 3880, 3600, 3601, 3636, 3635
3023, 3846, 3847, 3882, 3881, 3601, 3602, 3637, 3636
3024, 3847, 3848, 3883, 3882, 3602, 3603, 3638, 3637
3025, 3848, 3849, 3884, 3883, 3603, 3604, 3639, 3638
3026, 3849, 3850, 3885, 3884, 3604, 3605, 3640, 3639
3027, 3851, 3852, 3887, 3886, 3606, 3607, 3642, 3641
3028, 3852, 3853, 3888, 3887, 3607, 3608, 3643, 3642
3029, 3853, 3854, 3889, 3888, 3608, 3609, 3644, 3643
3030, 3854, 3855, 3890, 3889, 3609, 3610, 3645, 3644
3031, 3855, 3856, 3891, 3890, 3610, 3611, 3646, 3645
3032, 3856, 3857, 3892, 3891, 3611, 3612, 3647, 3646
3033, 3857, 3858, 3893, 3892, 3612, 3613, 3648, 3647
3034, 3858, 3859, 3894, 3893, 3613, 3614, 3649, 3648
3035, 3859, 3860, 3895, 3894, 3614, 3615, 3650, 3649
3036, 3860, 3861, 3896, 3895, 3615, 3616, 3651, 3650
3037, 3861, 3862, 3897, 3896, 3616, 3617, 3652, 3651
3038, 3862, 3863, 3898, 3897, 3617, 3618, 3653, 3652
3039, 3863, 3864, 3899, 3898, 3618, 3619, 3654, 3653
3040, 3864, 3865, 3900, 3899, 3619, 3620, 3655, 3654
3041, 3865, 3866, 3901, 3900, 3620, 3621, 3656, 3655
3042, 3866, 3867, 3902, 3901, 3621, 3622, 3657, 3656
3043, 3867, 3868, 3903, 3902, 3622, 3623, 3658, 3657
3044, 3868, 3869, 3904, 3903, 3623, 3624, 3659, 3658
3045, 3869, 3870, 3905, 3904, 3624, 3625, 3660, 3659
3046, 3870, 3871, 3906, 3905, 3625, 3626, 3661, 3660
3047, 3871, 3872, 3907, 3906, 3626, 3627, 3662, 3661
3048, 3872, 3873, 3908, 3907, 3627, 3628, 3663, 3662
3049, 3873, 3874, 3909, 3908, 3628, 3629, 3664, 3663
3050, 3874, 3875, 3910, 3909, 3629, 3630, 3665, 3664
3051, 3875, 3876, 3911, 3910, 3630, 3631, 3666, 3665
3052, 3876, 3877, 3912, 3911, 3631, 3632, 3667, 3666
3053, 3877, 3878, 3913, 3912, 3632, 3633, 3668, 3667
3054, 3878, 3879, 3914, 3913, 3633, 3634, 3669, 3668
3055, 3879, 3880, 3915, 3914, 3634, 3635, 3670, 3669
3056, 3880, 3881, 3916, 3915, 3635, 3636, 3671, 3670
3057, 3881, 3882, 3917, 3916, 3636, 3637, 3672, 3671
3058, 3882, 3883, 3918, 3917, 3637, 3638, 3673, 3672
3059, 3883, 3884, 3919, 3918, 3638, 3639, 3674, 3673
3060, 3884, 3885, 3920, 3919, 3639, 3640, 3675, 3674
3061, 3921, 3922, 3957, 3956, 3676, 3677, 3712, 3711
3062, 3922, 3923, 3958, 3957, 3677, 3678, 3713, 3712
3063, 3923, 3924, 3959, 3958, 3678, 3679, 3714, 3713
3064, 3924, 3925, 3960, 3959, 3679, 3680, 3715, 3714
3065, 3925, 3926, 3961, 3960, 3680, 3681, 3716, 3715
3066, 3926, 3927, 3962, 3961, 3681, 3682, 3717, 3716
3067, 3927, 3928, 3963, 3962, 3682, 3683, 3718, 3717
3068, 3928, 3929, 3964, 3963, 3683, 3684, 3719, 3718
3069, 3929, 3930, 3965, 3964, 3684, 3685, 3720, 3719
3070, 3930, 3931, 3966, 3965, 3685, 3686, 3721, 3720
3071, 3931, 3932, 3967, 3966, 3686, 3687, 3722, 3721
3072, 3932, 3933, 3968, 3967, 3687, 3688, 3723, 3722
3073, 3933, 3934, 3969, 3968, 3688, 3689, 3724, 3723
3074, 3934, 3935, 3970, 3969, 3689, 3690, 3725, 3724
3075, 3935, 3936, 3971, 3970, 3690, 3691, 3726, 3725
3076, 3936, 3937, 3972, 3971, 3691, 3692, 3727, 3726
3077, 3937, 3938, 3973, 3972, 3692, 3693, 3728, 3727
3078, 3938, 3939, 3974, 3973, 3693, 3694, 3729, 3728
3079, 3939, 3940, 3975, 3974, 3694, 3695, 3730, 3729
3080, 3940, 3941, 3976, 3975, 3695, 3696, 3731, 3730
3081, 3941, 3942, 3977, 3976, 3696, 3697, 3732, 3731
3082, 3942, 3943, 3978, 3977, 3697, 3698, 3733, 3732
3083, 3943, 3944, 3979, 3978, 3698, 3699, 3734, 3733
3084, 3944, 3945, 3980, 3979, 3699, 3700, 3735, 3734
3085, 3945, 3946, 3981, 3980, 3700, 3701, 3736, 3735
3086, 3946, 3947, 3982, 3981, 3701, 3702, 3737, 3736
3087, 3947, 3948, 3983, 3982, 3702, 3703, 3738, 3737
3088, 3948, 3949, 3984, 3983, 3703, 3704, 3739, 3738
3089, 3949, 3950, 3985, 3984, 3704, 3705, 3740, 3739
3090, 3950, 3951, 3986, 3985, 3705, 3706, 3741, 3740
3091, 3951, 3952, 3987, 3986, 3706, 3707, 3742, 3741
3092, 3952, 3953, 3988, 3987, 3707, 3708, 3743, 3742
3093, 3953, 3954, 3989, 3988, 3708, 3709, 3744, 3743
3094, 3954, 3955, 3990, 3989, 3709, 3710, 3745, 3744
3095, 3956, 3957, 3992, 3991, 3711, 3712, 3747, 3746
3096, 3957, 3958, 3993, 3992, 3712, 3713, 3748, 3747
3097, 3958, 3959, 3994, 3993, 3713, 3714, 3749, 3748
3098, 3959, 3960, 3995, 3994, 3714, 3715, 3750, 3749
3099, 3960, 3961, 3996, 3995, 3715, 3716, 3751, 3750
3100, 3961, 3962, 3997, 3996, 3716, 3717, 3752, 3751
3101, 3962, 3963, 3998, 3997, 3717, 3718, 3753, 3752
3102, 3963, 3964, 3999, 3998, 3718, 3719, 3754, 3753
3103, 3964, 3965, 4000, 3999, 3719, 3720, 3755, 3754
3104, 3965, 3966, 4001, 4000, 3720, 3721, 3756, 3755
3105, 3966, 3967, 4002, 4001, 3721, 3722, 3757, 3756
3106, 3967, 3968, 4003, 4002, 3722, 3723, 3758, 3757
3107, 3968, 3969, 4004, 4003, 3723, 3724, 3759, 3758
3108, 3969, 3970, 4005, 4004, 3724, 3725, 3760, 3759
3109, 3970, 3971, 4006, 4005, 3725, 3726, 3761, 3760
3110, 3971, 3972, 4007, 4006, 3726, 3727, 3762, 3761
3111, 3972, 3973, 4008, 4007, 3727, 3728, 3763, 3762
3112, 3973, 3974, 4009, 4008, 3728, 3729, 3764, 3763
3113, 3974, 3975, 4010, 4009, 3729, 3730, 3765, 3764
3114, 3975, 3976, 4011, 4010, 3730, 3731, 3766, 3765
3115, 3976, 3977, 4012, 4011, 3731, 3732, 3767, 3766
3116, 3977, 3978, 4013, 4012, 3732, 3733, 3768, 3767
3117, 3978, 3979, 4014, 4013, 3733, 3734, 3769, 3768
3118, 3979, 3980, 4015, 4014, 3734, 3735, 3770, 3769
3119, 3980, 3981, 4016, 4015, 3735, 3736, 3771, 3770
3120, 3981, 3982, 4017, 4016, 3736, 3737, 3772, 3771
3121, 3982, 3983, 4018, 4017, 3737, 3738, 3773, 3772
3122, 3983, 3984, 4019, 4018, 3738, 3739, 3774, 3773
3123, 3984, 3985, 4020, 4019, 3739, 3740, 3775, 3774
3124, 3985, 3986, 4021, 4020, 3740, 3741, 3776, 3775
3125, 3986, 3987, 4022, 4021, 3741, 3742, 3777, 3776
3126, 3987, 3988, 4023, 4022, 3742, 3743, 3778, 3777
3127, 3988, 3989, 4024, 4023, 3743, 3744, 3779, 3778
3128, 3989, 3990, 4025, 4024, 3744, 3745, 3780, 3779
3129, 3991, 3992, 4027, 4026, 3746, 3747, 3782, 3781
3130, 3992, 3993, 4028, 4027, 3747, 3748, 3783, 3782
3131, 3993, 3994, 4029, 4028, 3748, 3749, 3784, 3783
3132, 3994, 3995, 4030, 4029, 3749, 3750, 3785, 3784
3133, 3995, 3996, 4031, 4030, 3750, 3751, 3786, 3785
3134, 3996, 3997, 4032, 4031, 3751, 3752, 3787, 3786
3135, 3997, 3998, 4033, 4032, 3752, 3753, 3788, 3787
3136, 3998, 3999, 4034, 4033, 3753, 3754, 3789, 3788
3137, 3999, 4000, 4035, 4034, 3754, 3755, 3790, 3789
3138, 4000, 4001, 4036, 4035, 3755, 3756, 3791, 3790
3139, 4001, 4002, 4037, 4036, 3756, 3757, 3792, 3791
3140, 4002, 4003, 4038, 4037, 3757, 3758, 3793, 3792
3141, 4003, 4004, 4039, 4038, 3758, 3759, 3794, 3793
3142, 4004, 4005, 4040, 4039, 3759, 3760, 3795, 3794
3143, 4005, 4006, 4041, 4040, 3760, 3761, 3796, 3795
3144, 4006, 4007, 4042, 4041, 3761, 3762, 3797, 3796
3145, 4007, 4008, 4043, 4042, 3762, 3763, 3798, 3797
3146, 4008, 4009, 4044, 4043, 3763, 3764, 3799, 3798
3147, 4009, 4010, 4045, 4044, 3764, 3765, 3800, 3799
3148, 4010, 4011, 4046, 4045, 3765, 3766, 3801, 3800
3149, 4011, 4012, 4047, 4046, 3766, 3767, 3802, 3801
3150, 4012, 4013, 4048, 4047, 3767, 3768, 3803, 3802
3151, 4013, 4014, 4049, 4048, 3768, 3769, 3804, 3803
3152, 4014, 4015, 4050, 4049, 3769, 3770, 3805, 3804
3153, 4015, 4016, 4051, 4050, 3770, 3771, 3806, 3805
3154, 4016, 4017, 4052, 4051, 3771, 3772, 3807, 3806
3155, 4017, 4018, 4053, 4052, 3772, 3773, 3808, 3807
3156, 4018, 4019, 4054, 4053, 3773, 3774, 3809, 3808
3157, 4019, 4020, 4055, 4054, 3774, 3775, 3810, 3809
3158, 4020, 4021, 4056, 4055, 3775, 3776, 3811, 3810
3159, 4021, 4022, 4057, 4056, 3776, 3777, 3812, 3811
3160, 4022, 4023, 4058, 4057, 3777, 3778, 3813, 3812
3161, 4023, 4024, 4059, 4058, 3778, 3779, 3814, 3813
3162, 4024, 4025, 4060, 4059, 3779, 3780, 3815, 3814
3163, 4026, 4027, 4062, 4061, 3781, 3782, 3817, 3816
3164, 4027, 4028, 4063, 4062, 3782, 3783, 3818, 3817
3165, 4028, 4029, 4064, 4063, 3783, 3784, 3819, 3818
3166, 4029, 4030, 4065, 4064, 3784, 3785, 3820, 3819
3167, 4030, 4031, 4066, 4065, 3785, 3786, 3821, 3820
3168, 4031, 4032, 4067, 4066, 3786, 3787, 3822, 3821
3169, 4032, 4033, 4068, 4067, 3787, 3788, 3823, 3822
3170, 4033, 4034, 4069, 4068, 3788, 3789, 3824, 3823
3171, 4034, 4035, 4070, 4069, 3789, 3790, 3825, 3824
3172, 4035, 4036, 4071, 4070, 3790, 3791, 3826, 3825
3173, 4036, 4037, 4072, 4071, 3791, 3792, 3827, 3826
3174, 4037, 4038, 4073, 4072, 3792, 3793, 3828, 3827
3175, 4038, 4039, 4074, 4073, 3793, 3794, 3829, 3828
3176, 4039, 4040, 4075, 4074, 3794, 3795, 3830, 3829
3177, 4040, 4041, 4076, 4075, 3795, 3796, 3831, 3830
3178, 4041, 4042, 4077, 4076, 3796, 3797, 3832, 3831
3179, 4042, 4043, 4078, 4077, 3797, 3798, 3833, 3832
3180, 4043, 4044, 4079, 4078, 3798, 3799, 3834, 3833
3181, 4044, 4045, 4080, 4079, 3799, 3800, 3835, 3834
3182, 4045, 4046, 4081, 4080, 3800, 3801, 3836, 3835
3183, 4046, 4047, 4082, 4081, 3801, 3802, 3837, 3836
3184, 4047, 4048, 4083, 4082, 3802, 3803, 3838, 3837
3185, 4048, 4049, 4084, 4083, 3803, 3804, 3839, 3838
3186, 4049, 4050, 4085, 4084, 3804, 3805, 3840, 3839
3187, 4050, 4051, 4086, 4085, 3805, 3806, 3841, 3840
3188, 4051, 4052, 4087, 4086, 3806, 3807, 3842, 3841
3189, 4052, 4053, 4088, 4087, 3807, 3808, 3843, 3842
3190, 4053, 4054, 4089, 4088, 3808, 3809, 3844, 3843
3191, 4054, 4055, 4090, 4089, 3809, 3810, 3845, 3844
3192, 4055, 4056, 4091, 4090, 3810, 3811, 3846, 3845
3193, 4056, 4057, 4092, 4091, 3811, 3812, 3847, 3846
3194, 4057, 4058, 4093, 4092, 3812, 3813, 3848, 3847
3195, 4058, 4059, 4094, 4093, 3813, 3814, 3849, 3848
3196, 4059, 4060, 4095, 4094, 3814, 3815, 3850, 3849
3197, 4061, 4062, 4097, 4096, 3816, 3817, 3852, 3851
3198, 4062, 4063, 4098, 4097, 3817, 3818, 3853, 3852
3199, 4063, 4064, 4099, 4098, 3818, 3819, 3854, 3853
3200, 4064, 4065, 4100, 4099, 3819, 3820, 3855, 3854
3201, 4065, 4066, 4101, 4100, 3820, 3821, 3856, 3855
3202, 4066, 4067, 4102, 4101, 3821, 3822, 3857, 3856
3203, 4067, 4068, 4103, 4102, 3822, 3823, 3858, 3857
3204, 4068, 4069, 4104, 4103, 3823, 3824, 3859, 3858
3205, 4069, 4070, 4105, 4104, 3824, 3825, 3860, 3859
3206, 4070, 4071, 4106, 4105, 3825, 3826, 3861, 3860
3207, 4071, 4072, 4107, 4106, 3826, 3827, 3862, 3861
3208, 4072, 4073, 4108, 4107, 3827, 3828, 3863, 3862
3209, 4073, 4074, 4109, 4108, 3828, 3829, 3864, 3863
3210, 4074, 4075, 4110, 4109, 3829, 3830, 3865, 3864
3211, 4075, 4076, 4111, 4110, 3830, 3831, 3866, 3865
3212, 4076, 4077, 4112, 4111, 3831, 3832, 3867, 3866
3213, 4077, 4078, 4113, 4112, 3832, 3833, 3868, 3867
3214, 4078, 4079, 4114, 4113, 3833, 3834, 3869, 3868
3215, 4079, 4080, 4115, 4114, 3834, 3835, 3870, 3869
3216, 4080, 4081, 4116, 4115, 3835, 3836, 3871, 3870
3217, 4081, 4082, 4117, 4116, 3836, 3837, 3872, 3871
3218, 4082, 4083, 4118, 4117, 3837, 3838, 3873, 3872
3219, 4083, 4084, 4119, 4118, 3838, 3839, 3874, 3873
3220, 4084, 4085, 4120, 4119, 3839, 3840, 3875, 3874
3221, 4085, 4086, 4121, 4120, 3840, 3841, 3876, 3875
3222, 4086, 4087, 4122, 4121, 3841, 3842, 3877, 3876
3223, 4087, 4088, 4123, 4122, 3842, 3843, 3878, 3877
3224, 4088, 4089, 4124, 4123, 3843, 3844, 3879, 3878
3225, 4089, 4090, 4125, 4124, 3844, 3845, 3880, 3879
3226, 4090, 4091, 4126, 4125, 3845, 3846, 3881, 3880
3227, 4091, 4092, 4127, 4126, 3846, 3847, 3882, 3881
3228, 4092, 4093, 4128, 4127, 3847, 3848, 3883, 3882
3229, 4093, 4094, 4129, 4128, 3848, 3849, 3884, 3883
3230, 4094, 4095, 4130, 4129, 3849, 3850, 3885, 3884
3231, 4096, 4097, 4132, 4131, 3851, 3852, 3887, 3886
3232, 4097, 4098, 4133, 4132, 3852, 3853, 3888, 3887
3233, 4098, 4099, 4134, 4133, 3853, 3854, 3889, 3888
3234, 4099, 4100, 4135, 4134, 3854, 3855, 3890, 3889
3235, 4100, 4101, 4136, 4135, 3855, 3856, 3891, 3890
3236, 4101, 4102, 4137, 4136, 3856, 3857, 3892, 3891
3237, 4102, 4103, 4138, 4137, 3857, 3858, 3893, 3892
3238, 4103, 4104, 4139, 4138, 3858, 3859, 3894, 3893
3239, 4104, 4105, 4140, 4139, 3859, 3860, 3895, 3894
3240, 4105, 4106, 4141, 4140, 3860, 3861, 3896, 3895
3241, 4106, 4107, 4142, 4141, 3861, 3862, 3897, 3896
3242, 4107, 4108, 4143, 4142, 3862, 3863, 3898, 3897
3243, 4108, 4109, 4144, 4143, 3863, 3864, 3899, 3898
3244, 4109, 4110, 4145, 4144, 3864, 3865, 3900, 3899
3245, 4110, 4111, 4146, 4145, 3865, 3866, 3901, 3900
3246, 4111, 4112, 4147, 4146, 3866, 3867, 3902, 3901
3247, 4112, 4113, 4148, 4147, 3867, 3868, 3903, 3902
3248, 4113, 4114, 4149, 4148, 3868, 3869, 3904, 3903
3249, 4114, 4115, 4150, 4149, 3869, 3870, 3905, 3904
3250, 4115, 4116, 4151, 4150, 3870, 3871, 3906, 3905
3251, 4116, 4117, 4152, 4151, 3871, 3872, 3907, 3906
3252, 4117, 4118, 4153, 4152, 3872, 3873, 3908, 3907
3253, 4118, 4119, 4154, 4153, 3873, 3874, 3909, 3908
3254, 4119, 4120, 4155, 4154, 3874, 3875, 3910, 3909
3255, 4120, 4121, 4156, 4155, 3875, 3876, 3911, 3910
3256, 4121, 4122, 4157, 4156, 3876, 3877, 3912, 3911
3257, 4122, 4123, 4158, 4157, 3877, 3878, 3913, 3912
3258, 4123, 4124, 4159, 4158, 3878, 3879, 3914, 3913
3259, 4124, 4125, 4160, 4159, 3879, 3880, 3915, 3914
3260, 4125, 4126, 4161, 4160, 3880, 3881, 3916, 3915
3261, 4126, 4127, 4162, 4161, 3881, 3882, 3917, 3916
3262, 4127, 4128, 4163, 4162, 3882, 3883, 3918, 3917
3263, 4128, 4129, 4164, 4163, 3883, 3884, 3919, 3918
3264, 4129, 4130, 4165, 4164, 3884, 3885, 3920, 3919
3265, 4166, 4167, 4202, 4201, 3921, 3922, 3957, 3956
3266, 4167, 4168, 4203, 4202, 3922, 3923, 3958, 3957
3267, 4168, 4169, 4204, 4203, 3923, 3924, 3959, 3958
3268, 4169, 4170, 4205, 4204, 3924, 3925, 3960, 3959
3269, 4170, 4171, 4206, 4205, 3925, 3926, 3961, 3960
3270, 4171, 4172, 4207, 4206, 3926, 3927, 3962, 3961
3271, 4172, 4173, 4208, 4207, 3927, 3928, 3963, 3962
3272, 4173, 4174, 4209, 4208, 3928, 3929, 3964, 3963
3273, 4174, 4175, 4210, 4209, 3929, 3930, 3965, 3964
3274, 4175, 4176, 4211, 4210, 3930, 3931, 3966, 3965
3275, 4176, 4177, 4212, 4211, 3931, 3932, 3967, 3966
3276, 4177, 4178, 4213, 4212, 3932, 3933, 3968, 3967
3277, 4178, 4179, 4214, 4213, 3933, 3934, 3969, 3968
3278, 4179, 4180, 4215, 4214, 3934, 3935, 3970, 3969
3279, 4180, 4181, 4216, 4215, 3935, 3936, 3971, 3970
3280, 4181, 4182, 4217, 4216, 3936, 3937, 3972, 3971
3281, 4182, 4183, 4218, 4217, 3937, 3938, 3973, 3972
3282, 4183, 4184, 4219, 4218, 3938, 3939, 3974, 3973
3283, 4184, 4185, 4220, 4219, 3939, 3940, 3975, 3974
3284, 4185, 4186, 4221, 4220, 3940, 3941, 3976, 3975
3285, 4186, 4187, 4222, 4221, 3941, 3942, 3977, 3976
3286, 4187, 4188, 4223, 4222, 3942, 3943, 3978, 3977
3287, 4188, 4189, 4224, 4223, 3943, 3944, 3979, 3978
3288, 4189, 4190, 4225, 4224, 3944, 3945, 3980, 3979
3289, 4190, 4191, 4226, 4225, 3945, 3946, 3981, 3980
3290, 4191, 4192, 4227, 4226, 3946, 3947, 3982, 3981
3291, 4192, 4193, 4228, 4227, 3947, 3948, 3983, 3982
3292, 4193, 4194, 4229, 4228, 3948, 3949, 3984, 3983
3293, 4194, 4195, 4230, 4229, 3949, 3950, 3985, 3984
3294, 4195, 4196, 4231, 4230, 3950, 3951, 3986, 3985
3295, 4196, 4197, 4232, 4231, 3951, 3952, 3987, 3986
3296, 4197, 4198, 4233, 4232, 3952, 3953, 3988, 3987
3297, 4198, 4199, 4234, 4233, 3953, 3954, 3989, 3988
3298, 4199, 4200, 4235, 4234, 3954, 3955, 3990, 3989
3299, 4201, 4202, 4237, 4236, 3956, 3957, 3992, 3991
3300, 4202, 4203, 4238, 4237, 3957, 3958, 3993, 3992
3301, 4203, 4204, 4239, 4238, 3958, 3959, 3994, 3993
3302, 4204, 4205, 4240, 4239, 3959, 3960, 3995, 3994
3303, 4205, 4206, 4241, 4240, 3960, 3961, 3996, 3995
3304, 4206, 4207, 4242, 4241, 3961, 3962, 3997, 3996
3305, 4207, 4208, 4243, 4242, 3962, 3963, 3998, 3997
3306, 4208, 4209, 4244, 4243, 3963, 3964, 3999, 3998
3307, 4209, 4210, 4245, 4244, 3964, 3965, 4000, 3999
3308, 4210, 4211, 4246, 4245, 3965, 3966, 4001, 4000
3309, 4211, 4212, 4247, 4246, 3966, 3967, 4002, 4001
3310, 4212, 4213, 4248, 4247, 3967, 3968, 4003, 4002
3311, 4213, 4214, 4249, 4248, 3968, 3969, 4004, 4003
3312, 4214, 4215, 4250, 4249, 3969, 3970, 4005, 4004
3313, 4215, 4216, 4251, 4250, 3970, 3971, 4006, 4005
3314, 4216, 4217, 4252, 4251, 3971, 3972, 4007, 4006
3315, 4217, 4218, 4253, 4252, 3972, 3973, 4008, 4007
3316, 4218, 4219, 4254, 4253, 3973, 3974, 4009, 4008
3317, 4219, 4220, 4255, 4254, 3974, 3975, 4010, 4009
3318, 4220, 4221, 4256, 4255, 3975, 3976, 4011, 4010
3319, 4221, 4222, 4257, 4256, 3976, 3977, 4012, 4011
3320, 4222, 4223, 4258, 4257, 3977, 3978, 4013, 4012
3321, 4223, 4224, 4259, 4258, 3978, 3979, 4014, 4013
3322, 4224, 4225, 4260, 4259, 3979, 3980, 4015, 4014
3323, 4225, 4226, 4261, 4260, 3980, 3981, 4016, 4015
3324, 4226, 4227, 4262, 4261, 3981, 3982, 4017, 4016
3325, 4227, 4228, 4263, 4262, 3982, 3983, 4018, 4017
3326, 4228, 4229, 4264, 4263, 3983, 3984, 4019, 4018
3327, 4229, 4230, 4265, 4264, 3984, 3985, 4020, 4019
3328, 4230, 4231, 4266, 4265, 3985, 3986, 4021, 4020
3329, 4231, 4232, 4267, 4266, 3986, 3987, 4022, 4021
3330, 4232, 4233, 4268, 4267, 3987, 3988, 4023, 4022
3331, 4233, 4234, 4269, 4268, 3988, 3989, 4024, 4023
3332, 4234, 4235, 4270, 4269, 3989, 3990, 4025, 4024
3333, 4236, 4237, 4272, 4271, 3991, 3992, 4027, 4026
3334, 4237, 4238, 4273, 4272, 3992, 3993, 4028, 4027
3335, 4238, 4239, 4274, 4273, 3993, 3994, 4029, 4028
3336, 4239, 4240, 4275, 4274, 3994, 3995, 4030, 4029
3337, 4240, 4241, 4276, 4275, 3995, 3996, 4031, 4030
3338, 4241, 4242, 4277, 4276, 3996, 3997, 4032, 4031
3339, 4242, 4243, 4278, 4277, 3997, 3998, 4033, 4032
3340, 4243, 4244, 4279, 4278, 3998, 3999, 4034, 4033
3341, 4244, 4245, 4280, 4279, 3999, 4000, 4035, 4034
3342, 4245, 4246, 4281, 4280, 4000, 4001, 4036, 4035
3343, 4246, 4247, 4282, 4281, 4001, 4002, 4037, 4036
3344, 4247, 4248, 4283, 4282, 4002, 4003, 4038, 4037
3345, 4248, 4249, 4284, 4283, 4003, 4004, 4039, 4038
3346, 4249, 4250, 4285, 4284, 4004, 4005, 4040, 4039
3347, 4250, 4251, 4286, 4285, 4005, 4006, 4041, 4040
3348, 4251, 4252, 4287, 4286, 4006, 4007, 4042, 4041
3349, 4252, 4253, 4288, 4287, 4007, 4008, 4043, 4042
3350, 4253, 4254, 4289, 4288, 4008, 4009, 4044, 4043
3351, 4254, 4255, 4290, 4289, 4009, 4010, 4045, 4044
3352, 4255, 4256, 4291, 4290, 4010, 4011, 4046, 4045
3353, 4256, 4257, 4292, 4291, 4011, 4012, 4047, 4046
3354, 4257, 4258, 4293, 4292, 4012, 4013, 4048, 4047
3355, 4258, 4259, 4294, 4293, 4013, 4014, 4049, 4048
3356, 4259, 4260, 4295, 4294, 4014, 4015, 4050, 4049
3357, 4260, 4261, 4296, 4295, 4015, 4016, 4051, 4050
3358, 4261, 4262, 4297, 4296, 4016, 4017, 4052, 4051
3359, 4262, 4263, 4298, 4297, 4017, 4018, 4053, 4052
3360, 4263, 4264, 4299, 4298, 4018, 4019, 4054, 4053
3361, 4264, 4265, 4300, 4299, 4019, 4020, 4055, 4054
3362, 4265, 4266, 4301, 4300, 4020, 4021, 4056, 4055
3363, 4266, 4267, 4302, 4301, 4021, 4022, 4057, 4056
3364, 4267, 4268, 4303, 4302, 4022, 4023, 4058, 4057
3365, 4268, 4269, 4304, 4303, 4023, 4024, 4059, 4058
3366, 4269, 4270, 4305, 4304, 4024, 4025, 4060, 4059
3367, 4271, 4272, 4307, 4306, 4026, 4027, 4062, 4061
3368, 4272, 4273, 4308, 4307, 4027, 4028, 4063, 4062
3369, 4273, 4274, 4309, 4308, 4028, 4029, 4064, 4063
3370, 4274, 4275, 4310, 4309, 4029, 4030, 4065, 4064
3371, 4275, 4276, 4311, 4310, 4030, 4031, 4066, 4065
3372, 4276, 4277, 4312, 4311, 4031, 4032, 4067, 4066
3373, 4277, 4278, 4313, 4312, 4032, 4033, 4068, 4067
3374, 4278, 4279, 4314, 4313, 4033, 4034, 4069, 4068
3375, 4279, 4280, 4315, 4314, 4034, 4035, 4070, 4069
3376, 4280, 4281, 4316, 4315, 4035, 4036, 4071, 4070
3377, 4281, 4282, 4317, 4316, 4036, 4037, 4072, 4071
3378, 4282, 4283, 4318, 4317, 4037, 4038, 4073, 4072
3379, 4283, 4284, 4319, 4318, 4038, 4039, 4074, 4073
3380, 4284, 4285, 4320, 4319, 4039, 4040, 4075, 4074
3381, 4285, 4286, 4321, 4320, 4040, 4041, 4076, 4075
3382, 4286, 4287, 4322, 4321, 4041, 4042, 4077, 4076
3383, 4287, 4288, 4323, 4322, 4042, 4043, 4078, 4077
3384, 4288, 4289, 4324, 4323, 4043, 4044, 4079, 4078
3385, 4289, 4290, 4325, 4324, 4044, 4045, 4080, 4079
3386, 4290, 4291, 4326, 4325, 4045, 4046, 4081, 4080
3387, 4291, 4292, 4327, 4326, 4046, 4047, 4082, 4081
3388, 4292, 4293, 4328, 4327, 4047, 4048, 4083, 4082
3389, 4293, 4294, 4329, 4328, 4048, 4049, 4084, 4083
3390, 4294, 4295, 4330, 4329, 4049, 4050, 4085, 4084
3391, 4295, 4296, 4331, 4330, 4050, 4051, 4086, 4085
3392, 4296, 4297, 4332, 4331, 4051, 4052, 4087, 4086
3393, 4297, 4298, 4333, 4332, 4052, 4053, 4088, 4087
3394, 4298, 4299, 4334, 4333, 4053, 4054, 4089, 4088
3395, 4299, 4300, 4335, 4334, 4054, 4055, 4090, 4089
3396, 4300, 4301, 4336, 4335, 4055, 4056, 4091, 4090
3397, 4301, 4302, 4337, 4336, 4056, 4057, 4092, 4091
3398, 4302, 4303, 4338, 4337, 4057, 4058, 4093, 4092
3399, 4303, 4304, 4339, 4338, 4058, 4059, 4094, 4093
3400, 4304, 4305, 4340, 4339, 4059, 4060, 4095, 4094
3401, 4306, 4307, 4342, 4341, 4061, 4062, 4097, 4096
3402, 4307, 4308, 4343, 4342, 4062, 4063, 4098, 4097
3403, 4308, 4309, 4344, 4343, 4063, 4064, 4099, 4098
3404, 4309, 4310, 4345, 4344, 4064, 4065, 4100, 4099
3405, 4310, 4311, 4346, 4345, 4065, 4066, 4101, 4100
3406, 4311, 4312, 4347, 4346, 4066, 4067, 4102, 4101
3407, 4312, 4313, 4348, 4347, 4067, 4068, 4103, 4102
3408, 4313, 4314, 4349, 4348, 4068, 4069, 4104, 4103
3409, 4314, 4315, 4350, 4349, 4069, 4070, 4105, 4104
3410, 4315, 4316, 4351, 4350, 4070, 4071, 4106, 4105
3411, 4316, 4317, 4352, 4351, 4071, 4072, 4107, 4106
3412, 4317, 4318, 4353, 4352, 4072, 4073, 4108, 4107
3413, 4318, 4319, 4354, 4353, 4073, 4074, 4109, 4108
3414, 4319, 4320, 4355, 4354, 4074, 4075, 4110, 4109
3415, 4320, 4321, 4356, 4355, 4075, 4076, 4111, 4110
3416, 4321, 4322, 4357, 4356, 4076, 4077, 4112, 4111
3417, 4322, 4323, 4358, 4357, 4077, 4078, 4113, 4112
3418, 4323, 4324, 4359, 4358, 4078, 4079, 4114, 4113
3419, 4324, 4325, 4360, 4359, 4079, 4080, 4115, 4114
3420, 4325, 4326, 4361, 4360, 4080, 4081, 4116, 4115
3421, 4326, 4327, 4362, 4361, 4081, 4082, 4117, 4116
3422, 4327, 4328, 4363, 4362, 4082, 4083, 4118, 4117
3423, 4328, 4329, 4364, 4363, 4083, 4084, 4119, 4118
3424, 4329, 4330, 4365, 4364, 4084, 4085, 4120, 4119
3425, 4330, 4331, 4366, 4365, 4085, 4086, 4121, 4120
3426, 4331, 4332, 4367, 4366, 4086, 4087, 4122, 4121
3427, 4332, 4333, 4368, 4367, 4087, 4088, 4123, 4122
3428, 4333, 4334, 4369, 4368, 4088, 4089, 4124, 4123
3429, 4334, 4335, 4370, 4369, 4089, 4090, 4125, 4124
3430, 4335, 4336, 4371, 4370, 4090, 4091, 4126, 4125
3431, 4336, 4337, 4372, 4371, 4091, 4092, 4127, 4126
3432, 4337, 4338, 4373, 4372, 4092, 4093, 4128, 4127
3433, 4338, 4339, 4374, 4373, 4093, 4094, 4129, 4128
3434, 4339, 4340, 4375, 4374, 4094, 4095, 4130, 4129
3435, 4341, 4342, 4377, 4376, 4096, 4097, 4132, 4131
3436, 4342, 4343, 4378, 4377, 4097, 4098, 4133, 4132
3437, 4343, 4344, 4379, 4378, 4098, 4099, 4134, 4133
3438, 4344, 4345, 4380, 4379, 4099, 4100, 4135, 4134
3439, 4345, 4346, 4381, 4380, 4100, 4101, 4136, 4135
3440, 4346, 4347, 4382, 4381, 4101, 4102, 4137, 4136
3441, 4347, 4348, 4383, 4382, 4102, 4103, 4138, 4137
3442, 4348, 4349, 4384, 4383, 4103, 4104, 4139, 4138
3443, 4349, 4350, 4385, 4384, 4104, 4105, 4140, 4139
3444, 4350, 4351, 4386, 4385, 4105, 4106, 4141, 4140
3445, 4351, 4352, 4387, 4386, 4106, 4107, 4142, 4141
3446, 4352, 4353, 4388, 4387, 4107, 4108, 4143, 4142
3447, 4353, 4354, 4389, 4388, 4108, 4109, 4144, 4143
3448, 4354, 4355, 4390, 4389, 4109, 4110, 4145, 4144
3449, 4355, 4356, 4391, 4390, 4110, 4111, 4146, 4145
3450, 4356, 4357, 4392, 4391, 4111, 4112, 4147, 4146
3451, 4357, 4358, 4393, 4392, 4112, 4113, 4148, 4147
3452, 4358, 4359, 4394, 4393, 4113, 4114, 4149, 4148
3453, 4359, 4360, 4395, 4394, 4114, 4115, 4150, 4149
3454, 4360, 4361, 4396, 4395, 4115, 4116, 4151, 4150
3455, 4361, 4362, 4397, 4396, 4116, 4117, 4152, 4151
3456, 4362, 4363, 4398, 4397, 4117, 4118, 4153, 4152
3457, 4363, 4364, 4399, 4398, 4118, 4119, 4154, 4153
3458, 4364, 4365, 4400, 4399, 4119, 4120, 4155, 4154
3459, 4365, 4366, 4401, 4400, 4120, 4121, 4156, 4155
3460, 4366, 4367, 4402, 4401, 4121, 4122, 4157, 4156
3461, 4367, 4368, 4403, 4402, 4122, 4123, 4158, 4157
3462, 4368, 4369, 4404, 4403, 4123, 4124, 4159, 4158
3463, 4369, 4370, 4405, 4404, 4124, 4125, 4160, 4159
3464, 4370, 4371, 4406, 4405, 4125, 4126, 4161, 4160
3465, 4371, 4372, 4407, 4406, 4126, 4127, 4162, 4161
3466, 4372, 4373, 4408, 4407, 4127, 4128, 4163, 4162
3467, 4373, 4374, 4409, 4408, 4128, 4129, 4164, 4163
3468, 4374, 4375, 4410, 4409, 4129, 4130, 4165, 4164
3469, 4411, 4412, 4447, 4446, 4166, 4167, 4202, 4201
3470, 4412, 4413, 4448, 4447, 4167, 4168, 4203, 4202
3471, 4413, 4414, 4449, 4448, 4168, 4169, 4204, 4203
3472, 4414, 4415, 4450, 4449, 4169, 4170, 4205, 4204
3473, 4415, 4416, 4451, 4450, 4170, 4171, 4206, 4205
3474, 4416, 4417, 4452, 4451, 4171, 4172, 4207, 4206
3475, 4417, 4418, 4453, 4452, 4172, 4173, 4208, 4207
3476, 4418, 4419, 4454, 4453, 4173, 4174, 4209, 4208
3477, 4419, 4420, 4455, 4454, 4174, 4175, 4210, 4209
3478, 4420, 4421, 4456, 4455, 4175, 4176, 4211, 4210
3479, 4421, 4422, 4457, 4456, 4176, 4177, 4212, 4211
3480, 4422, 4423, 4458, 4457, 4177, 4178, 4213, 4212
3481, 4423, 4424, 4459, 4458, 4178, 4179, 4214, 4213
3482, 4424, 4425, 4460, 4459, 4179, 4180, 4215, 4214
3483, 4425, 4426, 4461, 4460, 4180, 4181, 4216, 4215
3484, 4426, 4427, 4462, 4461, 4181, 4182, 4217, 4216
3485, 4427, 4428, 4463, 4462, 4182, 4183, 4218, 4217
3486, 4428, 4429, 4464, 4463, 4183, 4184, 4219, 4218
3487, 4429, 4430, 4465, 4464, 4184, 4185, 4220, 4219
3488, 4430, 4431, 4466, 4465, 4185, 4186, 4221, 4220
3489, 4431, 4432, 4467, 4466, 4186, 4187, 4222, 4221
3490, 4432, 4433, 4468, 4467, 4187, 4188, 4223, 4222
3491, 4433, 4434, 4469, 4468, 4188, 4189, 4224, 4223
3492, 4434, 4435, 4470, 4469, 4189, 4190, 4225, 4224
3493, 4435, 4436, 4471, 4470, 4190, 4191, 4226, 4225
3494, 4436, 4437, 4472, 4471, 4191, 4192, 4227, 4226
3495, 4437, 4438, 4473, 4472, 4192, 4193, 4228, 4227
3496, 4438, 4439, 4474, 4473, 4193, 4194, 4229, 4228
3497, 4439, 4440, 4475, 4474, 4194, 4195, 4230, 4229
3498, 4440, 4441, 4476, 4475, 4195, 4196, 4231, 4230
3499, 4441, 4442, 4477, 4476, 4196, 4197, 4232, 4231
3500, 4442, 4443, 4478, 4477, 4197, 4198, 4233, 4232
3501, 4443, 4444, 4479, 4478, 4198, 4199, 4234, 4233
3502, 4444, 4445, 4480, 4479, 4199, 4200, 4235, 4234
3503, 4446, 4447, 4482, 4481, 4201, 4202, 4237, 4236
3504, 4447, 4448, 4483, 4482, 4202, 4203, 4238, 4237
3505, 4448, 4449, 4484, 4483, 4203, 4204, 4239, 4238
3506, 4449, 4450, 4485, 4484, 4204, 4205, 4240, 4239
3507, 4450, 4451, 4486, 4485, 4205, 4206, 4241, 4240
3508, 4451, 4452, 4487, 4486, 4206, 4207, 4242, 4241
3509, 4452, 4453, 4488, 4487, 4207, 4208, 4243, 4242
3510, 4453, 4454, 4489, 4488, 4208, 4209, 4244, 4243
3511, 4454, 4455, 4490, 4489, 4209, 4210, 4245, 4244
3512, 4455, 4456, 4491, 4490, 4210, 4211, 4246, 4245
3513, 4456, 4457, 4492, 4491, 4211, 4212, 4247, 4246
3514, 4457, 4458, 4493, 4492, 4212, 4213, 4248, 4247
3515, 4458, 4459, 4494, 4493, 4213, 4214, 4249, 4248
3516, 4459, 4460, 4495, 4494, 4214, 4215, 4250, 4249
3517, 4460, 4461, 4496, 4495, 4215, 4216, 4251, 4250
3518, 4461, 4462, 4497, 4496, 4216, 4217, 4252, 4251
3519, 4462, 4463, 4498, 4497, 4217, 4218, 4253, 4252
3520, 4463, 4464, 4499, 4498, 4218, 4219, 4254, 4253
3521, 4464, 4465, 4500, 4499, 4219, 4220, 4255, 4254
3522, 4465, 4466, 4501, 4500, 4220, 4221, 4256, 4255
3523, 4466, 4467, 4502, 4501, 4221, 4222, 4257, 4256
3524, 4467, 4468, 4503, 4502, 4222, 4223, 4258, 4257
3525, 4468, 4469, 4504, 4503, 4223, 4224, 4259, 4258
3526, 4469, 4470, 4505, 4504, 4224, 4225, 4260, 4259
3527, 4470, 4471, 4506, 4505, 4225, 4226, 4261, 4260
3528, 4471, 4472, 4507, 4506, 4226, 4227, 4262, 4261
3529, 4472, 4473, 4508, 4507, 4227, 4228, 4263, 4262
3530, 4473, 4474, 4509, 4508, 4228, 4229, 4264, 4263
3531, 4474, 4475, 4510, 4509, 4229, 4230, 4265, 4264
3532, 4475, 4476, 4511, 4510, 4230, 4231, 4266, 4265
3533, 4476, 4477, 4512, 4511, 4231, 4232, 4267, 4266
3534, 4477, 4478, 4513, 4512, 4232, 4233, 4268, 4267
3535, 4478, 4479, 4514, 4513, 4233, 4234, 4269, 4268
3536, 4479, 4480, 4515, 4514, 4234, 4235, 4270, 4269
3537, 4481, 4482, 4517, 4516, 4236, 4237, 4272, 4271
3538, 4482, 4483, 4518, 4517, 4237, 4238, 4273, 4272
3539, 4483, 4484, 4519, 4518, 4238, 4239, 4274, 4273
3540, 4484, 4485, 4520, 4519, 4239, 4240, 4275, 4274
3541, 4485, 4486, 4521, 4520, 4240, 4241, 4276, 4275
3542, 4486, 4487, 4522, 4521, 4241, 4242, 4277, 4276
3543, 4487, 4488, 4523, 4522, 4242, 4243, 4278, 4277
3544, 4488, 4489, 4524, 4523, 4243, 4244, 4279, 4278
3545, 4489, 4490, 4525, 4524, 4244, 4245, 4280, 4279
3546, 4490, 4491, 4526, 4525, 4245, 4246, 4281, 4280
3547, 4491, 4492, 4527, 4526, 4246, 4247, 4282, 4281
3548, 4492, 4493, 4528, 4527, 4247, 4248, 4283, 4282
3549, 4493, 4494, 4529, 4528, 4248, 4249, 4284, 4283
3550, 4494, 4495, 4530, 4529, 4249, 4250, 4285, 4284
3551, 4495, 4496, 4531, 4530, 4250, 4251, 4286, 4285
3552, 4496, 4497, 4532, 4531, 4251, 4252, 4287, 4286
3553, 4497, 4498, 4533, 4532, 4252, 4253, 4288, 4287
3554, 4498, 4499, 4534, 4533, 4253, 4254, 4289, 4288
3555, 4499, 4500, 4535, 4534, 4254, 4255, 4290, 4289
3556, 4500, 4501, 4536, 4535, 4255, 4256, 4291, 4290
3557, 4501, 4502, 4537, 4536, 4256, 4257, 4292, 4291
3558, 4502, 4503, 4538, 4537, 4257, 4258, 4293, 4292
3559, 4503, 4504, 4539, 4538, 4258, 4259, 4294, 4293
3560, 4504, 4505, 4540, 4539, 4259, 4260, 4295, 4294
3561, 4505, 4506, 4541, 4540, 4260, 4261, 4296, 4295
3562, 4506, 4507, 4542, 4541, 4261, 4262, 4297, 4296
3563, 4507, 4508, 4543, 4542, 4262, 4263, 4298, 4297
3564, 4508, 4509, 4544, 4543, 4263, 4264, 4299, 4298
3565, 4509, 4510, 4545, 4544, 4264, 4265, 4300, 4299
3566, 4510, 4511, 4546, 4545, 4265, 4266, 4301, 4300
3567, 4511, 4512, 4547, 4546, 4266, 4267, 4302, 4301
3568, 4512, 4513, 4548, 4547, 4267, 4268, 4303, 4302
3569, 4513, 4514, 4549, 4548, 4268, 4269, 4304, 4303
3570, 4514, 4515, 4550, 4549, 4269, 4270, 4305, 4304
3571, 4516, 4517, 4552, 4551, 4271, 4272, 4307, 4306
3572, 4517, 4518, 4553, 4552, 4272, 4273, 4308, 4307
3573, 4518, 4519, 4554, 4553, 4273, 4274, 4309, 4308
3574, 4519, 4520, 4555, 4554, 4274, 4275, 4310, 4309
3575, 4520, 4521, 4556, 4555, 4275, 4276, 4311, 4310
3576, 4521, 4522, 4557, 4556, 4276, 4277, 4312, 4311
3577, 4522, 4523, 4558, 4557, 4277, 4278, 4313, 4312
3578, 4523, 4524, 4559, 4558, 4278, 4279, 4314, 4313
3579, 4524, 4525, 4560, 4559, 4279, 4280, 4315, 4314
3580, 4525, 4526, 4561, 4560, 4280, 4281, 4316, 4315
3581, 4526, 4527, 4562, 4561, 4281, 4282, 4317, 4316
3582, 4527, 4528, 4563, 4562, 4282, 4283, 4318, 4317
3583, 4528, 4529, 4564, 4563, 4283, 4284, 4319, 4318
3584, 4529, 4530, 4565, 4564, 4284, 4285, 4320, 4319
3585, 4530, 4531, 4566, 4565, 4285, 4286, 4321, 4320
3586, 4531, 4532, 4567, 4566, 4286, 4287, 4322, 4321
3587, 4532, 4533, 4568, 4567, 4287, 4288, 4323, 4322
3588, 4533, 4534, 4569, 4568, 4288, 4289, 4324, 4323
3589, 4534, 4535, 4570, 4569, 4289, 4290, 4325, 4324
3590, 4535, 4536, 4571, 4570, 4290, 4291, 4326, 4325
3591, 4536, 4537, 4572, 4571, 4291, 4292, 4327, 4326
3592, 4537, 4538, 4573, 4572, 4292, 4293, 4328, 4327
3593, 4538, 4539, 4574, 4573, 4293, 4294, 4329, 4328
3594, 4539, 4540, 4575, 4574, 4294, 4295, 4330, 4329
3595, 4540, 4541, 4576, 4575, 4295, 4296, 4331, 4330
3596, 4541, 4542, 4577, 4576, 4296, 4297, 4332, 4331
3597, 4542, 4543, 4578, 4577, 4297, 4298, 4333, 4332
3598, 4543, 4544, 4579, 4578, 4298, 4299, 4334, 4333
3599, 4544, 4545, 4580, 4579, 4299, 4300, 4335, 4334
3600, 4545, 4546, 4581, 4580, 4300, 4301, 4336, 4335
3601, 4546, 4547, 4582, 4581, 4301, 4302, 4337, 4336
3602, 4547, 4548, 4583, 4582, 4302, 4303, 4338, 4337
3603, 4548, 4549, 4584, 4583, 4303, 4304, 4339, 4338
3604, 4549, 4550, 4585, 4584, 4304, 4305, 4340, 4339
3605, 4551, 4552, 4587, 4586, 4306, 4307, 4342, 4341
3606, 4552, 4553, 4588, 4587, 4307, 4308, 4343, 4342
3607, 4553, 4554, 4589, 4588, 4308, 4309, 4344, 4343
3608, 4554, 4555, 4590, 4589, 4309, 4310, 4345, 4344
3609, 4555, 4556, 4591, 4590, 4310, 4311, 4346, 4345
3610, 4556, 4557, 4592, 4591, 4311, 4312, 4347, 4346
3611, 4557, 4558, 4593, 4592, 4312, 4313, 4348, 4347
3612, 4558, 4559, 4594, 4593, 4313, 4314, 4349, 4348
3613, 4559, 4560, 4595, 4594, 4314, 4315, 4350, 4349
3614, 4560, 4561, 4596, 4595, 4315, 4316, 4351, 4350
3615, 4561, 4562, 4597, 4596, 4316, 4317, 4352, 4351
3616, 4562, 4563, 4598, 4597, 4317, 4318, 4353, 4352
3617, 4563, 4564, 4599, 4598, 4318, 4319, 4354, 4353
3618, 4564, 4565, 4600, 4599, 4319, 4320, 4355, 4354
3619, 4565, 4566, 4601, 4600, 4320, 4321, 4356, 4355
3620, 4566, 4567, 4602, 4601, 4321, 4322, 4357, 4356
3621, 4567, 4568, 4603, 4602, 4322, 4323, 4358, 4357
3622, 4568, 4569, 4604, 4603, 4323, 4324, 4359, 4358
3623, 4569, 4570, 4605, 4604, 4324, 4325, 4360, 4359
3624, 4570, 4571, 4606, 4605, 4325, 4326, 4361, 4360
3625, 4571, 4572, 4607, 4606, 4326, 4327, 4362, 4361
3626, 4572, 4573, 4608, 4607, 4327, 4328, 4363, 4362
3627, 4573, 4574, 4609, 4608, 4328, 4329, 4364, 4363
3628, 4574, 4575, 4610, 4609, 4329, 4330, 4365, 4364
3629, 4575, 4576, 4611, 4610, 4330, 4331, 4366, 4365
3630, 4576, 4577, 4612, 4611, 4331, 4332, 4367, 4366
3631, 4577, 4578, 4613, 4612, 4332, 4333, 4368, 4367
3632, 4578, 4579, 4614, 4613, 4333, 4334, 4369, 4368
3633, 4579, 4580, 4615, 4614, 4334, 4335, 4370, 4369
3634, 4580, 4581, 4616, 4615, 4335, 4336, 4371, 4370
3635, 4581, 4582, 4617, 4616, 4336, 4337, 4372, 4371
3636, 4582, 4583, 4618, 4617, 4337, 4338, 4373, 4372
3637, 4583, 4584, 4619, 4618, 4338, 4339, 4374, 4373
3638, 4584, 4585, 4620, 4619, 4339, 4340, 4375, 4374
3639, 4586, 4587, 4622, 4621, 4341, 4342, 4377, 4376
3640, 4587, 4588, 4623, 4622, 4342, 4343, 4378, 4377
3641, 4588, 4589, 4624, 4623, 4343, 4344, 4379, 4378
3642, 4589, 4590, 4625, 4624, 4344, 4345, 4380, 4379
3643, 4590, 4591, 4626, 4625, 4345, 4346, 4381, 4380
3644, 4591, 4592, 4627, 4626, 4346, 4347, 4382, 4381
3645, 4592, 4593, 4628, 4627, 4347, 4348, 4383, 4382
3646, 4593, 4594, 4629, 4628, 4348, 4349, 4384, 4383
3647, 4594, 4595, 4630, 4629, 4349, 4350, 4385, 4384
3648, 4595, 4596, 4631, 4630, 4350, 4351, 4386, 4385
3649, 4596, 4597, 4632, 4631, 4351, 4352, 4387, 4386
3650, 4597, 4598, 4633, 4632, 4352, 4353, 4388, 4387
3651, 4598, 4599, 4634, 4633, 4353, 4354, 4389, 4388
3652, 4599, 4600, 4635, 4634, 4354, 4355, 4390, 4389
3653, 4600, 4601, 4636, 4635, 4355, 4356, 4391, 4390
3654, 4601, 4602, 4637, 4636, 4356, 4357, 4392, 4391
3655, 4602, 4603, 4638, 4637, 4357, 4358, 4393, 4392
3656, 4603, 4604, 4639, 4638, 4358, 4359, 4394, 4393
3657, 4604, 4605, 4640, 4639, 4359, 4360, 4395, 4394
3658, 4605, 4606, 4641, 4640, 4360, 4361, 4396, 4395
3659, 4606, 4607, 4642, 4641, 4361, 4362, 4397, 4396
3660, 4607, 4608, 4643, 4642, 4362, 4363, 4398, 4397
3661, 4608, 4609, 4644, 4643, 4363, 4364, 4399, 4398
3662, 4609, 4610, 4645, 4644, 4364, 4365, 4400, 4399
3663, 4610, 4611, 4646, 4645, 4365, 4366, 4401, 4400
3664, 4611, 4612, 4647, 4646, 4366, 4367, 4402, 4401
3665, 4612, 4613, 4648, 4647, 4367, 4368, 4403, 4402
3666, 4613, 4614, 4649, 4648, 4368, 4369, 4404, 4403
3667, 4614, 4615, 4650, 4649, 4369, 4370, 4405, 4404
3668, 4615, 4616, 4651, 4650, 4370, 4371, 4406, 4405
3669, 4616, 4617, 4652, 4651, 4371, 4372, 4407, 4406
3670, 4617, 4618, 4653, 4652, 4372, 4373, 4408, 4407
3671, 4618, 4619, 4654, 4653, 4373, 4374, 4409, 4408
3672, 4619, 4620, 4655, 4654, 4374, 4375, 4410, 4409
3673, 4656, 4657, 4692, 4691, 4411, 4412, 4447, 4446
3674, 4657, 4658, 4693, 4692, 4412, 4413, 4448, 4447
3675, 4658, 4659, 4694, 4693, 4413, 4414, 4449, 4448
3676, 4659, 4660, 4695, 4694, 4414, 4415, 4450, 4449
3677, 4660, 4661, 4696, 4695, 4415, 4416, 4451, 4450
3678, 4661, 4662, 4697, 4696, 4416, 4417, 4452, 4451
3679, 4662, 4663, 4698, 4697, 4417, 4418, 4453, 4452
3680, 4663, 4664, 4699, 4698, 4418, 4419, 4454, 4453
3681, 4664, 4665, 4700, 4699, 4419, 4420, 4455, 4454
3682, 4665, 4666, 4701, 4700, 4420, 4421, 4456, 4455
3683, 4666, 4667, 4702, 4701, 4421, 4422, 4457, 4456
3684, 4667, 4668, 4703, 4702, 4422, 4423, 4458, 4457
3685, 4668, 4669, 4704, 4703, 4423, 4424, 4459, 4458
3686, 4669, 4670, 4705, 4704, 4424, 4425, 4460, 4459
3687, 4670, 4671, 4706, 4705, 4425, 4426, 4461, 4460
3688, 4671, 4672, 4707, 4706, 4426, 4427, 4462, 4461
3689, 4672, 4673, 4708, 4707, 4427, 4428, 4463, 4462
3690, 4673, 4674, 4709, 4708, 4428, 4429, 4464, 4463
3691, 4674, 4675, 4710, 4709, 4429, 4430, 4465, 4464
3692, 4675, 4676, 4711, 4710, 4430, 4431, 4466, 4465
3693, 4676, 4677, 4712, 4711, 4431, 4432, 4467, 4466
3694, 4677, 4678, 4713, 4712, 4432, 4433, 4468, 4467
3695, 4678, 4679, 4714, 4713, 4433, 4434, 4469, 4468
3696, 4679, 4680, 4715, 4714, 4434, 4435, 4470, 4469
3697, 4680, 4681, 4716, 4715, 4435, 4436, 4471, 4470
3698, 4681, 4682, 4717, 4716, 4436, 4437, 4472, 4471
3699, 4682, 4683, 4718, 4717, 4437, 4438, 4473, 4472
3700, 4683, 4684, 4719, 4718, 4438, 4439, 4474, 4473
3701, 4684, 4685, 4720, 4719, 4439, 4440, 4475, 4474
3702, 4685, 4686, 4721, 4720, 4440, 4441, 4476, 4475
3703, 4686, 4687, 4722, 4721, 4441, 4442, 4477, 4476
3704, 4687, 4688, 4723, 4722, 4442, 4443, 4478, 4477
3705, 4688, 4689, 4724, 4723, 4443, 4444, 4479, 4478
3706, 4689, 4690, 4725, 4724, 4444, 4445, 4480, 4479
3707, 4691, 4692, 4727, 4726, 4446, 4447, 4482, 4481
3708, 4692, 4693, 4728, 4727, 4447, 4448, 4483, 4482
3709, 4693, 4694, 4729, 4728, 4448, 4449, 4484, 4483
3710, 4694, 4695, 4730, 4729, 4449, 4450, 4485, 4484
3711, 4695, 4696, 4731, 4730, 4450, 4451, 4486, 4485
3712, 4696, 4697, 4732, 4731, 4451, 4452, 4487, 4486
3713, 4697, 4698, 4733, 4732, 4452, 4453, 4488, 4487
3714, 4698, 4699, 4734, 4733, 4453, 4454, 4489, 4488
3715, 4699, 4700, 4735, 4734, 4454, 4455, 4490, 4489
3716, 4700, 4701, 4736, 4735, 4455, 4456, 4491, 4490
3717, 4701, 4702, 4737, 4736, 4456, 4457, 4492, 4491
3718, 4702, 4703, 4738, 4737, 4457, 4458, 4493, 4492
3719, 4703, 4704, 4739, 4738, 4458, 4459, 4494, 4493
3720, 4704, 4705, 4740, 4739, 4459, 4460, 4495, 4494
3721, 4705, 4706, 4741, 4740, 4460, 4461, 4496, 4495
3722, 4706, 4707, 4742, 4741, 4461, 4462, 4497, 4496
3723, 4707, 4708, 4743, 4742, 4462, 4463, 4498, 4497
3724, 4708, 4709, 4744, 4743, 4463, 4464, 4499, 4498
3725, 4709, 4710, 4745, 4744, 4464, 4465, 4500, 4499
3726, 4710, 4711, 4746, 4745, 4465, 4466, 4501, 4500
3727, 4711, 4712, 4747, 4746, 4466, 4467, 4502, 4501
3728, 4712, 4713, 4748, 4747, 4467, 4468, 4503, 4502
3729, 4713, 4714, 4749, 4748, 4468, 4469, 4504, 4503
3730, 4714, 4715, 4750, 4749, 4469, 4470, 4505, 4504
3731, 4715, 4716, 4751, 4750, 4470, 4471, 4506, 4505
3732, 4716, 4717, 4752, 4751, 4471, 4472, 4507, 4506
3733, 4717, 4718, 4753, 4752, 4472, 4473, 4508, 4507
3734, 4718, 4719, 4754, 4753, 4473, 4474, 4509, 4508
3735, 4719, 4720, 4755, 4754, 4474, 4475, 4510, 4509
3736, 4720, 4721, 4756, 4755, 4475, 4476, 4511, 4510
3737, 4721, 4722, 4757, 4756, 4476, 4477, 4512, 4511
3738, 4722, 4723, 4758, 4757, 4477, 4478, 4513, 4512
3739, 4723, 4724, 4759, 4758, 4478, 4479, 4514, 4513
3740, 4724, 4725, 4760, 4759, 4479, 4480, 4515, 4514
3741, 4726, 4727, 4762, 4761, 4481, 4482, 4517, 4516
3742, 4727, 4728, 4763, 4762, 4482, 4483, 4518, 4517
3743, 4728, 4729, 4764, 4763, 4483, 4484, 4519, 4518
3744, 4729, 4730, 4765, 4764, 4484, 4485, 4520, 4519
3745, 4730, 4731, 4766, 4765, 4485, 4486, 4521, 4520
3746, 4731, 4732, 4767, 4766, 4486, 4487, 4522, 4521
3747, 4732, 4733, 4768, 4767, 4487, 4488, 4523, 4522
3748, 4733, 4734, 4769, 4768, 4488, 4489, 4524, 4523
3749, 4734, 4735, 4770, 4769, 4489, 4490, 4525, 4524
3750, 4735, 4736, 4771, 4770, 4490, 4491, 4526, 4525
3751, 4736, 4737, 4772, 4771, 4491, 4492, 4527, 4526
3752, 4737, 4738, 4773, 4772, 4492, 4493, 4528, 4527
3753, 4738, 4739, 4774, 4773, 4493, 4494, 4529, 4528
3754, 4739, 4740, 4775, 4774, 4494, 4495, 4530, 4529
3755, 4740, 4741, 4776, 4775, 4495, 4496, 4531, 4530
3756, 4741, 4742, 4777, 4776, 4496, 4497, 4532, 4531
3757, 4742, 4743, 4778, 4777, 4497, 4498, 4533, 4532
3758, 4743, 4744, 4779, 4778, 4498, 4499, 4534, 4533
3759, 4744, 4745, 4780, 4779, 4499, 4500, 4535, 4534
3760, 4745, 4746, 4781, 4780, 4500, 4501, 4536, 4535
3761, 4746, 4747, 4782, 4781, 4501, 4502, 4537, 4536
3762, 4747, 4748, 4783, 4782, 4502, 4503, 4538, 4537
3763, 4748, 4749, 4784, 4783, 4503, 4504, 4539, 4538
3764, 4749, 4750, 4785, 4784, 4504, 4505, 4540, 4539
3765, 4750, 4751, 4786, 4785, 4505, 4506, 4541, 4540
3766, 4751, 4752, 4787, 4786, 4506, 4507, 4542, 4541
3767, 4752, 4753, 4788, 4787, 4507, 4508, 4543, 4542
3768, 4753, 4754, 4789, 4788, 4508, 4509, 4544, 4543
3769, 4754, 4755, 4790, 4789, 4509, 4510, 4545, 4544
3770, 4755, 4756, 4791, 4790, 4510, 4511, 4546, 4545
3771, 4756, 4757, 4792, 4791, 4511, 4512, 4547, 4546
3772, 4757, 4758, 4793, 4792, 4512, 4513, 4548, 4547
3773, 4758, 4759, 4794, 4793, 4513, 4514, 4549, 4548
3774, 4759, 4760, 4795, 4794, 4514, 4515, 4550, 4549
3775, 4761, 4762, 4797, 4796, 4516, 4517, 4552, 4551
3776, 4762, 4763, 4798, 4797, 4517, 4518, 4553, 4552
3777, 4763, 4764, 4799, 4798, 4518, 4519, 4554, 4553
3778, 4764, 4765, 4800, 4799, 4519, 4520, 4555, 4554
3779, 4765, 4766, 4801, 4800, 4520, 4521, 4556, 4555
3780, 4766, 4767, 4802, 4801, 4521, 4522, 4557, 4556
3781, 4767, 4768, 4803, 4802, 4522, 4523, 4558, 4557
3782, 4768, 4769, 4804, 4803, 4523, 4524, 4559, 4558
3783, 4769, 4770, 4805, 4804, 4524, 4525, 4560, 4559
3784, 4770, 4771, 4806, 4805, 4525, 4526, 4561, 4560
3785, 4771, 4772, 4807, 4806, 4526, 4527, 4562, 4561
3786, 4772, 4773, 4808, 4807, 4527, 4528, 4563, 4562
3787, 4773, 4774, 4809, 4808, 4528, 4529, 4564, 4563
3788, 4774, 4775, 4810, 4809, 4529, 4530, 4565, 4564
3789, 4775, 4776, 4811, 4810, 4530, 4531, 4566, 4565
3790, 4776, 4777, 4812, 4811, 4531, 4532, 4567, 4566
3791, 4777, 4778, 4813, 4812, 4532, 4533, 4568, 4567
3792, 4778, 4779, 4814, 4813, 4533, 4534, 4569, 4568
3793, 4779, 4780, 4815, 4814, 4534, 4535, 4570, 4569
3794, 4780, 4781, 4816, 4815, 4535, 4536, 4571, 4570
3795, 4781, 4782, 4817, 4816, 4536, 4537, 4572, 4571
3796, 4782, 4783, 4818, 4817, 4537, 4538, 4573, 4572
3797, 4783, 4784, 4819, 4818, 4538, 4539, 4574, 4573
3798, 4784, 4785, 4820, 4819, 4539, 4540, 4575, 4574
3799, 4785, 4786, 4821, 4820, 4540, 4541, 4576, 4575
3800, 4786, 4787, 4822, 4821, 4541, 4542, 4577, 4576
3801, 4787, 4788, 4823, 4822, 4542, 4543, 4578, 4577
3802, 4788, 4789, 4824, 4823, 4543, 4544, 4579, 4578
3803, 4789, 4790, 4825, 4824, 4544, 4545, 4580, 4579
3804, 4790, 4791, 4826, 4825, 4545, 4546, 4581, 4580
3805, 4791, 4792, 4827, 4826, 4546, 4547, 4582, 4581
3806, 4792, 4793, 4828, 4827, 4547, 4548, 4583, 4582
3807, 4793, 4794, 4829, 4828, 4548, 4549, 4584, 4583
3808, 4794, 4795, 4830, 4829, 4549, 4550, 4585, 4584
3809, 4796, 4797, 4832, 4831, 4551, 4552, 4587, 4586
3810, 4797, 4798, 4833, 4832, 4552, 4553, 4588, 4587
3811, 4798, 4799, 4834, 4833, 4553, 4554, 4589, 4588
3812, 4799, 4800, 4835, 4834, 4554, 4555, 4590, 4589
3813, 4800, 4801, 4836, 4835, 4555, 4556, 4591, 4590
3814, 4801, 4802, 4837, 4836, 4556, 4557, 4592, 4591
3815, 4802, 4803, 4838, 4837, 4557, 4558, 4593, 4592
3816, 4803, 4804, 4839, 4838, 4558, 4559, 4594, 4593
3817, 4804, 4805, 4840, 4839, 4559, 4560, 4595, 4594
3818, 4805, 4806, 4841, 4840, 4560, 4561, 4596, 4595
3819, 4806, 4807, 4842, 4841, 4561, 4562, 4597, 4596
3820, 4807, 4808, 4843, 4842, 4562, 4563, 4598, 4597
3821, 4808, 4809, 4844, 4843, 4563, 4564, 4599, 4598
3822, 4809, 4810, 4845, 4844, 4564, 4565, 4600, 4599
3823, 4810, 4811, 4846, 4845, 4565, 4566, 4601, 4600
3824, 4811, 4812, 4847, 4846, 4566, 4567, 4602, 4601
3825, 4812, 4813, 4848, 4847, 4567, 4568, 4603, 4602
3826, 4813, 4814, 4849, 4848, 4568, 4569, 4604, 4603
3827, 4814, 4815, 4850, 4849, 4569, 4570, 4605, 4604
3828, 4815, 4816, 4851, 4850, 4570, 4571, 4606, 4605
3829, 4816, 4817, 4852, 4851, 4571, 4572, 4607, 4606
3830, 4817, 4818, 4853, 4852, 4572, 4573, 4608, 4607
3831, 4818, 4819, 4854, 4853, 4573, 4574, 4609, 4608
3832, 4819, 4820, 4855, 4854, 4574, 4575, 4610, 4609
3833, 4820, 4821, 4856, 4855, 4575, 4576, 4611, 4610
3834, 4821, 4822, 4857, 4856, 4576, 4577, 4612, 4611
3835, 4822, 4823, 4858, 4857, 4577, 4578, 4613, 4612
3836, 4823, 4824, 4859, 4858, 4578, 4579, 4614, 4613
3837, 4824, 4825, 4860, 4859, 4579, 4580, 4615, 4614
3838, 4825, 4826, 4861, 4860, 4580, 4581, 4616, 4615
3839, 4826, 4827, 4862, 4861, 4581, 4582, 4617, 4616
3840, 4827, 4828, 4863, 4862, 4582, 4583, 4618, 4617
3841, 4828, 4829, 4864, 4863, 4583, 4584, 4619, 4618
3842, 4829, 4830, 4865, 4864, 4584, 4585, 4620, 4619
3843, 4831, 4832, 4867, 4866, 4586, 4587, 4622, 4621
3844, 4832, 4833, 4868, 4867, 4587, 4588, 4623, 4622
3845, 4833, 4834, 4869, 4868, 4588, 4589, 4624, 4623
3846, 4834, 4835, 4870, 4869, 4589, 4590, 4625, 4624
3847, 4835, 4836, 4871, 4870, 4590, 4591, 4626, 4625
3848, 4836, 4837, 4872, 4871, 4591, 4592, 4627, 4626
3849, 4837, 4838, 4873, 4872, 4592, 4593, 4628, 4627
3850, 4838, 4839, 4874, 4873, 4593, 4594, 4629, 4628
3851, 4839, 4840, 4875, 4874, 4594, 4595, 4630, 4629
3852, 4840, 4841, 4876, 4875, 4595, 4596, 4631, 4630
3853, 4841, 4842, 4877, 4876, 4596, 4597, 4632, 4631
3854, 4842, 4843, 4878, 4877, 4597, 4598, 4633, 4632
3855, 4843, 4844, 4879, 4878, 4598, 4599, 4634, 4633
3856, 4844, 4845, 4880, 4879, 4599, 4600, 4635, 4634
3857, 4845, 4846, 4881, 4880, 4600, 4601, 4636, 4635
3858, 4846, 4847, 4882, 4881, 4601, 4602, 4637, 4636
3859, 4847, 4848, 4883, 4882, 4602, 4603, 4638, 4637
3860, 4848, 4849, 4884, 4883, 4603, 4604, 4639, 4638
3861, 4849, 4850, 4885, 4884, 4604, 4605, 4640, 4639
3862, 4850, 4851, 4886, 4885, 4605, 4606, 4641, 4640
3863, 4851, 4852, 4887, 4886, 4606, 4607, 4642, 4641
3864, 4852, 4853, 4888, 4887, 4607, 4608, 4643, 4642
3865, 4853, 4854, 4889, 4888, 4608, 4609, 4644, 4643
3866, 4854, 4855, 4890, 4889, 4609, 4610, 4645, 4644
3867, 4855, 4856, 4891, 4890, 4610, 4611, 4646, 4645
3868, 4856, 4857, 4892, 4891, 4611, 4612, 4647, 4646
3869, 4857, 4858, 4893, 4892, 4612, 4613, 4648, 4647
3870, 4858, 4859, 4894, 4893, 4613, 4614, 4649, 4648
3871, 4859, 4860, 4895, 4894, 4614, 4615, 4650, 4649
3872, 4860, 4861, 4896, 4895, 4615, 4616, 4651, 4650
3873, 4861, 4862, 4897, 4896, 4616, 4617, 4652, 4651
3874, 4862, 4863, 4898, 4897, 4617, 4618, 4653, 4652
3875, 4863, 4864, 4899, 4898, 4618, 4619, 4654, 4653
3876, 4864, 4865, 4900, 4899, 4619, 4620, 4655, 4654
3877, 4901, 4902, 4937, 4936, 4656, 4657, 4692, 4691
3878, 4902, 4903, 4938, 4937, 4657, 4658, 4693, 4692
3879, 4903, 4904, 4939, 4938, 4658, 4659, 4694, 4693
3880, 4904, 4905, 4940, 4939, 4659, 4660, 4695, 4694
3881, 4905, 4906, 4941, 4940, 4660, 4661, 4696, 4695
3882, 4906, 4907, 4942, 4941, 4661, 4662, 4697, 4696
3883, 4907, 4908, 4943, 4942, 4662, 4663, 4698, 4697
3884, 4908, 4909, 4944, 4943, 4663, 4664, 4699, 4698
3885, 4909, 4910, 4945, 4944, 4664, 4665, 4700, 4699
3886, 4910, 4911, 4946, 4945, 4665, 4666, 4701, 4700
3887, 4911, 4912, 4947, 4946, 4666, 4667, 4702, 4701
3888, 4912, 4913, 4948, 4947, 4667, 4668, 4703, 4702
3889, 4913, 4914, 4949, 4948, 4668, 4669, 4704, 4703
3890, 4914, 4915, 4950, 4949, 4669, 4670, 4705, 4704
3891, 4915, 4916, 4951, 4950, 4670, 4671, 4706, 4705
3892, 4916, 4917, 4952, 4951, 4671, 4672, 4707, 4706
3893, 4917, 4918, 4953, 4952, 4672, 4673, 4708, 4707
3894, 4918, 4919, 4954, 4953, 4673, 4674, 4709, 4708
3895, 4919, 4920, 4955, 4954, 4674, 4675, 4710, 4709
3896, 4920, 4921, 4956, 4955, 4675, 4676, 4711, 4710
3897, 4921, 4922, 4957, 4956, 4676, 4677, 4712, 4711
3898, 4922, 4923, 4958, 4957, 4677, 4678, 4713, 4712
3899, 4923, 4924, 4959, 4958, 4678, 4679, 4714, 4713
3900, 4924, 4925, 4960, 4959, 4679, 4680, 4715, 4714
3901, 4925, 4926, 4961, 4960, 4680, 4681, 4716, 4715
3902, 4926, 4927, 4962, 4961, 4681, 4682, 4717, 4716
3903, 4927, 4928, 4963, 4962, 4682, 4683, 4718, 4717
3904, 4928, 4929, 4964, 4963, 4683, 4684, 4719, 4718
3905, 4929, 4930, 4965, 4964, 4684, 4685, 4720, 4719
3906, 4930, 4931, 4966, 4965, 4685, 4686, 4721, 4720
3907, 4931, 4932, 4967, 4966, 4686, 4687, 4722, 4721
3908, 4932, 4933, 4968, 4967, 4687, 4688, 4723, 4722
3909, 4933, 4934, 4969, 4968, 4688, 4689, 4724, 4723
3910, 4934, 4935, 4970, 4969, 4689, 4690, 4725, 4724
3911, 4936, 4937, 4972, 4971, 4691, 4692, 4727, 4726
3912, 4937, 4938, 4973, 4972, 4692, 4693, 4728, 4727
3913, 4938, 4939, 4974, 4973, 4693, 4694, 4729, 4728
3914, 4939, 4940, 4975, 4974, 4694, 4695, 4730, 4729
3915, 4940, 4941, 4976, 4975, 4695, 4696, 4731, 4730
3916, 4941, 4942, 4977, 4976, 4696, 4697, 4732, 4731
3917, 4942, 4943, 4978, 4977, 4697, 4698, 4733, 4732
3918, 4943, 4944, 4979, 4978, 4698, 4699, 4734, 4733
3919, 4944, 4945, 4980, 4979, 4699, 4700, 4735, 4734
3920, 4945, 4946, 4981, 4980, 4700, 4701, 4736, 4735
3921, 4946, 4947, 4982, 4981, 4701, 4702, 4737, 4736
3922, 4947, 4948, 4983, 4982, 4702, 4703, 4738, 4737
3923, 4948, 4949, 4984, 4983, 4703, 4704, 4739, 4738
3924, 4949, 4950, 4985, 4984, 4704, 4705, 4740, 4739
3925, 4950, 4951, 4986, 4985, 4705, 4706, 4741, 4740
3926, 4951, 4952, 4987, 4986, 4706, 4707, 4742, 4741
3927, 4952, 4953, 4988, 4987, 4707, 4708, 4743, 4742
3928, 4953, 4954, 4989, 4988, 4708, 4709, 4744, 4743
3929, 4954, 4955, 4990, 4989, 4709, 4710, 4745, 4744
3930, 4955, 4956, 4991, 4990, 4710, 4711, 4746, 4745
3931, 4956, 4957, 4992, 4991, 4711, 4712, 4747, 4746
3932, 4957, 4958, 4993, 4992, 4712, 4713, 4748, 4747
3933, 4958, 4959, 4994, 4993, 4713, 4714, 4749, 4748
3934, 4959, 4960, 4995, 4994, 4714, 4715, 4750, 4749
3935, 4960, 4961, 4996, 4995, 4715, 4716, 4751, 4750
3936, 4961, 4962, 4997, 4996, 4716, 4717, 4752, 4751
3937, 4962, 4963, 4998, 4997, 4717, 4718, 4753, 4752
3938, 4963, 4964, 4999, 4998, 4718, 4719, 4754, 4753
3939, 4964, 4965, 5000, 4999, 4719, 4720, 4755, 4754
3940, 4965, 4966, 5001, 5000, 4720, 4721, 4756, 4755
3941, 4966, 4967, 5002, 5001, 4721, 4722, 4757, 4756
3942, 4967, 4968, 5003, 5002, 4722, 4723, 4758, 4757
3943, 4968, 4969, 5004, 5003, 4723, 4724, 4759, 4758
3944, 4969, 4970, 5005, 5004, 4724, 4725, 4760, 4759
3945, 4971, 4972, 5007, 5006, 4726, 4727, 4762, 4761
3946, 4972, 4973, 5008, 5007, 4727, 4728, 4763, 4762
3947, 4973, 4974, 5009, 5008, 4728, 4729, 4764, 4763
3948, 4974, 4975, 5010, 5009, 4729, 4730, 4765, 4764
3949, 4975, 4976, 5011, 5010, 4730, 4731, 4766, 4765
3950, 4976, 4977, 5012, 5011, 4731, 4732, 4767, 4766
3951, 4977, 4978, 5013, 5012, 4732, 4733, 4768, 4767
3952, 4978, 4979, 5014, 5013, 4733, 4734, 4769, 4768
3953, 4979, 4980, 5015, 5014, 4734, 4735, 4770, 4769
3954, 4980, 4981, 5016, 5015, 4735, 4736, 4771, 4770
3955, 4981, 4982, 5017, 5016, 4736, 4737, 4772, 4771
3956, 4982, 4983, 5018, 5017, 4737, 4738, 4773, 4772
3957, 4983, 4984, 5019, 5018, 4738, 4739, 4774, 4773
3958, 4984, 4985, 5020, 5019, 4739, 4740, 4775, 4774
3959, 4985, 4986, 5021, 5020, 4740, 4741, 4776, 4775
3960, 4986, 4987, 5022, 5021, 4741, 4742, 4777, 4776
3961, 4987, 4988, 5023, 5022, 4742, 4743, 4778, 4777
3962, 4988, 4989, 5024, 5023, 4743, 4744, 4779, 4778
3963, 4989, 4990, 5025, 5024, 4744, 4745, 4780, 4779
3964, 4990, 4991, 5026, 5025, 4745, 4746, 4781, 4780
3965, 4991, 4992, 5027, 5026, 4746, 4747, 4782, 4781
3966, 4992, 4993, 5028, 5027, 4747, 4748, 4783, 4782
3967, 4993, 4994, 5029, 5028, 4748, 4749, 4784, 4783
3968, 4994, 4995, 5030, 5029, 4749, 4750, 4785, 4784
3969, 4995, 4996, 5031, 5030, 4750, 4751, 4786, 4785
3970, 4996, 4997, 5032, 5031, 4751, 4752, 4787, 4786
3971, 4997, 4998, 5033, 5032, 4752, 4753, 4788, 4787
3972, 4998, 4999, 5034, 5033, 4753, 4754, 4789, 4788
3973, 4999, 5000, 5035, 5034, 4754, 4755, 4790, 4789
3974, 5000, 5001, 5036, 5035, 4755, 4756, 4791, 4790
3975, 5001, 5002, 5037, 5036, 4756, 4757, 4792, 4791
3976, 5002, 5003, 5038, 5037, 4757, 4758, 4793, 4792
3977, 5003, 5004, 5039, 5038, 4758, 4759, 4794, 4793
3978, 5004, 5005, 5040, 5039, 4759, 4760, 4795, 4794
3979, 5006, 5007, 5042, 5041, 4761, 4762, 4797, 4796
3980, 5007, 5008, 5043, 5042, 4762, 4763, 4798, 4797
3981, 5008, 5009, 5044, 5043, 4763, 4764, 4799, 4798
3982, 5009, 5010, 5045, 5044, 4764, 4765, 4800, 4799
3983, 5010, 5011, 5046, 5045, 4765, 4766, 4801, 4800
3984, 5011, 5012, 5047, 5046, 4766, 4767, 4802, 4801
3985, 5012, 5013, 5048, 5047, 4767, 4768, 4803, 4802
3986, 5013, 5014, 5049, 5048, 4768, 4769, 4804, 4803
3987, 5014, 5015, 5050, 5049, 4769, 4770, 4805, 4804
3988, 5015, 5016, 5051, 5050, 4770, 4771, 4806, 4805
3989, 5016, 5017, 5052, 5051, 4771, 4772, 4807, 4806
3990, 5017, 5018, 5053, 5052, 4772, 4773, 4808, 4807
3991, 5018, 5019, 5054, 5053, 4773, 4774, 4809, 4808
3992, 5019, 5020, 5055, 5054, 4774, 4775, 4810, 4809
3993, 5020, 5021, 5056, 5055, 4775, 4776, 4811, 4810
3994, 5021, 5022, 5057, 5056, 4776, 4777, 4812, 4811
3995, 5022, 5023, 5058, 5057, 4777, 4778, 4813, 4812
3996, 5023, 5024, 5059, 5058, 4778, 4779, 4814, 4813
3997, 5024, 5025, 5060, 5059, 4779, 4780, 4815, 4814
3998, 5025, 5026, 5061, 5060, 4780, 4781, 4816, 4815
3999, 5026, 5027, 5062, 5061, 4781, 4782, 4817, 4816
4000, 5027, 5028, 5063, 5062, 4782, 4783, 4818, 4817
4001, 5028, 5029, 5064, 5063, 4783, 4784, 4819, 4818
4002, 5029, 5030, 5065, 5064, 4784, 4785, 4820, 4819
4003, 5030, 5031, 5066, 5065, 4785, 4786, 4821, 4820
4004, 5031, 5032, 5067, 5066, 4786, 4787, 4822, 4821
4005, 5032, 5033, 5068, 5067, 4787, 4788, 4823, 4822
4006, 5033, 5034, 5069, 5068, 4788, 4789, 4824, 4823
4007, 5034, 5035, 5070, 5069, 4789, 4790, 4825, 4824
4008, 5035, 5036, 5071, 5070, 4790, 4791, 4826, 4825
4009, 5036, 5037, 5072, 5071, 4791, 4792, 4827, 4826
4010, 5037, 5038, 5073, 5072, 4792, 4793, 4828, 4827
4011, 5038, 5039, 5074, 5073, 4793, 4794, 4829, 4828
4012, 5039, 5040, 5075, 5074, 4794, 4795, 4830, 4829
4013, 5041, 5042, 5077, 5076, 4796, 4797, 4832, 4831
4014, 5042, 5043, 5078, 5077, 4797, 4798, 4833, 4832
4015, 5043, 5044, 5079, 5078, 4798, 4799, 4834, 4833
4016, 5044, 5045, 5080, 5079, 4799, 4800, 4835, 4834
4017, 5045, 5046, 5081, 5080, 4800, 4801, 4836, 4835
4018, 5046, 5047, 5082, 5081, 4801, 4802, 4837, 4836
4019, 5047, 5048, 5083, 5082, 4802, 4803, 4838, 4837
4020, 5048, 5049, 5084, 5083, 4803, 4804, 4839, 4838
4021, 5049, 5050, 5085, 5084, 4804, 4805, 4840, 4839
4022, 5050, 5051, 5086, 5085, 4805, 4806, 4841, 4840
4023, 5051, 5052, 5087, 5086, 4806, 4807, 4842, 4841
4024, 5052, 5053, 5088, 5087, 4807, 4808, 4843, 4842
4025, 5053, 5054, 5089, 5088, 4808, 4809, 4844, 4843
4026, 5054, 5055, 5090, 5089, 4809, 4810, 4845, 4844
4027, 5055, 5056, 5091, 5090, 4810, 4811, 4846, 4845
4028, 5056, 5057, 5092, 5091, 4811, 4812, 4847, 4846
4029, 5057, 5058, 5093, 5092, 4812, 4813, 4848, 4847
4030, 5058, 5059, 5094, 5093, 4813, 4814, 4849, 4848
4031, 5059, 5060, 5095, 5094, 4814, 4815, 4850, 4849
4032, 5060, 5061, 5096, 5095, 4815, 4816, 4851, 4850
4033, 5061, 5062, 5097, 5096, 4816, 4817, 4852, 4851
4034, 5062, 5063, 5098, 5097, 4817, 4818, 4853, 4852
4035, 5063, 5064, 5099, 5098, 4818, 4819, 4854, 4853
4036, 5064, 5065, 5100, 5099, 4819, 4820, 4855, 4854
4037, 5065, 5066, 5101, 5100, 4820, 4821, 4856, 4855
4038, 5066, 5067, 5102, 5101, 4821, 4822, 4857, 4856
4039, 5067, 5068, 5103, 5102, 4822, 4823, 4858, 4857
4040, 5068, 5069, 5104, 5103, 4823, 4824, 4859, 4858
4041, 5069, 5070, 5105, 5104, 4824, 4825, 4860, 4859
4042, 5070, 5071, 5106, 5105, 4825, 4826, 4861, 4860
4043, 5071, 5072, 5107, 5106, 4826, 4827, 4862, 4861
4044, 5072, 5073, 5108, 5107, 4827, 4828, 4863, 4862
4045, 5073, 5074, 5109, 5108, 4828, 4829, 4864, 4863
4046, 5074, 5075, 5110, 5109, 4829, 4830, 4865, 4864
4047, 5076, 5077, 5112, 5111, 4831, 4832, 4867, 4866
4048, 5077, 5078, 5113, 5112, 4832, 4833, 4868, 4867
4049, 5078, 5079, 5114, 5113, 4833, 4834, 4869, 4868
4050, 5079, 5080, 5115, 5114, 4834, 4835, 4870, 4869
4051, 5080, 5081, 5116, 5115, 4835, 4836, 4871, 4870
4052, 5081, 5082, 5117, 5116, 4836, 4837, 4872, 4871
4053, 5082, 5083, 5118, 5117, 4837, 4838, 4873, 4872
4054, 5083, 5084, 5119, 5118, 4838, 4839, 4874, 4873
4055, 5084, 5085, 5120, 5119, 4839, 4840, 4875, 4874
4056, 5085, 5086, 5121, 5120, 4840, 4841, 4876, 4875
4057, 5086, 5087, 5122, 5121, 4841, 4842, 4877, 4876
4058, 5087, 5088, 5123, 5122, 4842, 4843, 4878, 4877
4059, 5088, 5089, 5124, 5123, 4843, 4844, 4879, 4878
4060, 5089, 5090, 5125, 5124, 4844, 4845, 4880, 4879
4061, 5090, 5091, 5126, 5125, 4845, 4846, 4881, 4880
4062, 5091, 5092, 5127, 5126, 4846, 4847, 4882, 4881
4063, 5092, 5093, 5128, 5127, 4847, 4848, 4883, 4882
4064, 5093, 5094, 5129, 5128, 4848, 4849, 4884, 4883
4065, 5094, 5095, 5130, 5129, 4849, 4850, 4885, 4884
4066, 5095, 5096, 5131, 5130, 4850, 4851, 4886, 4885
4067, 5096, 5097, 5132, 5131, 4851, 4852, 4887, 4886
4068, 5097, 5098, 5133, 5132, 4852, 4853, 4888, 4887
4069, 5098, 5099, 5134, 5133, 4853, 4854, 4889, 4888
4070, 5099, 5100, 5135, 5134, 4854, 4855, 4890, 4889
4071, 5100, 5101, 5136, 5135, 4855, 4856, 4891, 4890
4072, 5101, 5102, 5137, 5136, 4856, 4857, 4892, 4891
4073, 5102, 5103, 5138, 5137, 4857, 4858, 4893, 4892
4074, 5103, 5104, 5139, 5138, 4858, 4859, 4894, 4893
4075, 5104, 5105, 5140, 5139, 4859, 4860, 4895, 4894
4076, 5105, 5106, 5141, 5140, 4860, 4861, 4896, 4895
4077, 5106, 5107, 5142, 5141, 4861, 4862, 4897, 4896
4078, 5107, 5108, 5143, 5142, 4862, 4863, 4898, 4897
4079, 5108, 5109, 5144, 5143, 4863, 4864, 4899, 4898
4080, 5109, 5110, 5145, 5144, 4864, 4865, 4900, 4899
4081, 5146, 5147, 5182, 5181, 4901, 4902, 4937, 4936
4082, 5147, 5148, 5183, 5182, 4902, 4903, 4938, 4937
4083, 5148, 5149, 5184, 5183, 4903, 4904, 4939, 4938
4084, 5149, 5150, 5185, 5184, 4904, 4905, 4940, 4939
4085, 5150, 5151, 5186, 5185, 4905, 4906, 4941, 4940
4086, 5151, 5152, 5187, 5186, 4906, 4907, 4942, 4941
4087, 5152, 5153, 5188, 5187, 4907, 4908, 4943, 4942
4088, 5153, 5154, 5189, 5188, 4908, 4909, 4944, 4943
4089, 5154, 5155, 5190, 5189, 4909, 4910, 4945, 4944
4090, 5155, 5156, 5191, 5190, 4910, 4911, 4946, 4945
4091, 5156, 5157, 5192, 5191, 4911, 4912, 4947, 4946
4092, 5157, 5158, 5193, 5192, 4912, 4913, 4948, 4947
4093, 5158, 5159, 5194, 5193, 4913, 4914, 4949, 4948
4094, 5159, 5160, 5195, 5194, 4914, 4915, 4950, 4949
4095, 5160, 5161, 5196, 5195, 4915, 4916, 4951, 4950
4096, 5161, 5162, 5197, 5196, 4916, 4917, 4952, 4951
4097, 5162, 5163, 5198, 5197, 4917, 4918, 4953, 4952
4098, 5163, 5164, 5199, 5198, 4918, 4919, 4954, 4953
4099, 5164, 5165, 5200, 5199, 4919, 4920, 4955, 4954
4100, 5165, 5166, 5201, 5200, 4920, 4921, 4956, 4955
4101, 5166, 5167, 5202, 5201, 4921, 4922, 4957, 4956
4102, 5167, 5168, 5203, 5202, 4922, 4923, 4958, 4957
4103, 5168, 5169, 5204, 5203, 4923, 4924, 4959, 4958
4104, 5169, 5170, 5205, 5204, 4924, 4925, 4960, 4959
4105, 5170, 5171, 5206, 5205, 4925, 4926, 4961, 4960
4106, 5171, 5172, 5207, 5206, 4926, 4927, 4962, 4961
4107, 5172, 5173, 5208, 5207, 4927, 4928, 4963, 4962
4108, 5173, 5174, 5209, 5208, 4928, 4929, 4964, 4963
4109, 5174, 5175, 5210, 5209, 4929, 4930, 4965, 4964
4110, 5175, 5176, 5211, 5210, 4930, 4931, 4966, 4965
4111, 5176, 5177, 5212, 5211, 4931, 4932, 4967, 4966
4112, 5177, 5178, 5213, 5212, 4932, 4933, 4968, 4967
4113, 5178, 5179, 5214, 5213, 4933, 4934, 4969, 4968
4114, 5179, 5180, 5215, 5214, 4934, 4935, 4970, 4969
4115, 5181, 5182, 5217, 5216, 4936, 4937, 4972, 4971
4116, 5182, 5183, 5218, 5217, 4937, 4938, 4973, 4972
4117, 5183, 5184, 5219, 5218, 4938, 4939, 4974, 4973
4118, 5184, 5185, 5220, 5219, 4939, 4940, 4975, 4974
4119, 5185, 5186, 5221, 5220, 4940, 4941, 4976, 4975
4120, 5186, 5187, 5222, 5221, 4941, 4942, 4977, 4976
4121, 5187, 5188, 5223, 5222, 4942, 4943, 4978, 4977
4122, 5188, 5189, 5224, 5223, 4943, 4944, 4979, 4978
4123, 5189, 5190, 5225, 5224, 4944, 4945, 4980, 4979
4124, 5190, 5191, 5226, 5225, 4945, 4946, 4981, 4980
4125, 5191, 5192, 5227, 5226, 4946, 4947, 4982, 4981
4126, 5192, 5193, 5228, 5227, 4947, 4948, 4983, 4982
4127, 5193, 5194, 5229, 5228, 4948, 4949, 4984, 4983
4128, 5194, 5195, 5230, 5229, 4949, 4950, 4985, 4984
4129, 5195, 5196, 5231, 5230, 4950, 4951, 4986, 4985
4130, 5196, 5197, 5232, 5231, 4951, 4952, 4987, 4986
4131, 5197, 5198, 5233, 5232, 4952, 4953, 4988, 4987
4132, 5198, 5199, 5234, 5233, 4953, 4954, 4989, 4988
4133, 5199, 5200, 5235, 5234, 4954, 4955, 4990, 4989
4134, 5200, 5201, 5236, 5235, 4955, 4956, 4991, 4990
4135, 5201, 5202, 5237, 5236, 4956, 4957, 4992, 4991
4136, 5202, 5203, 5238, 5237, 4957, 4958, 4993, 4992
4137, 5203, 5204, 5239, 5238, 4958, 4959, 4994, 4993
4138, 5204, 5205, 5240, 5239, 4959, 4960, 4995, 4994
4139, 5205, 5206, 5241, 5240, 4960, 4961, 4996, 4995
4140, 5206, 5207, 5242, 5241, 4961, 4962, 4997, 4996
4141, 5207, 5208, 5243, 5242, 4962, 4963, 4998, 4997
4142, 5208, 5209, 5244, 5243, 4963, 4964, 4999, 4998
4143, 5209, 5210, 5245, 5244, 4964, 4965, 5000, 4999
4144, 5210, 5211, 5246, 5245, 4965, 4966, 5001, 5000
4145, 5211, 5212, 5247, 5246, 4966, 4967, 5002, 5001
4146, 5212, 5213, 5248, 5247, 4967, 4968, 5003, 5002
4147, 5213, 5214, 5249, 5248, 4968, 4969, 5004, 5003
4148, 5214, 5215, 5250, 5249, 4969, 4970, 5005, 5004
4149, 5216, 5217, 5252, 5251, 4971, 4972, 5007, 5006
4150, 5217, 5218, 5253, 5252, 4972, 4973, 5008, 5007
4151, 5218, 5219, 5254, 5253, 4973, 4974, 5009, 5008
4152, 5219, 5220, 5255, 5254, 4974, 4975, 5010, 5009
4153, 5220, 5221, 5256, 5255, 4975, 4976, 5011, 5010
4154, 5221, 5222, 5257, 5256, 4976, 4977, 5012, 5011
4155, 5222, 5223, 5258, 5257, 4977, 4978, 5013, 5012
4156, 5223, 5224, 5259, 5258, 4978, 4979, 5014, 5013
4157, 5224, 5225, 5260, 5259, 4979, 4980, 5015, 5014
4158, 5225, 5226, 5261, 5260, 4980, 4981, 5016, 5015
4159, 5226, 5227, 5262, 5261, 4981, 4982, 5017, 5016
4160, 5227, 5228, 5263, 5262, 4982, 4983, 5018, 5017
4161, 5228, 5229, 5264, 5263, 4983, 4984, 5019, 5018
4162, 5229, 5230, 5265, 5264, 4984, 4985, 5020, 5019
4163, 5230, 5231, 5266, 5265, 4985, 4986, 5021, 5020
4164, 5231, 5232, 5267, 5266, 4986, 4987, 5022, 5021
4165, 5232, 5233, 5268, 5267, 4987, 4988, 5023, 5022
4166, 5233, 5234, 5269, 5268, 4988, 4989, 5024, 5023
4167, 5234, 5235, 5270, 5269, 4989, 4990, 5025, 5024
4168, 5235, 5236, 5271, 5270, 4990, 4991, 5026, 5025
4169, 5236, 5237, 5272, 5271, 4991, 4992, 5027, 5026
4170, 5237, 5238, 5273, 5272, 4992, 4993, 5028, 5027
4171, 5238, 5239, 5274, 5273, 4993, 4994, 5029, 5028
4172, 5239, 5240, 5275, 5274, 4994, 4995, 5030, 5029
4173, 5240, 5241, 5276, 5275, 4995, 4996, 5031, 5030
4174, 5241, 5242, 5277, 5276, 4996, 4997, 5032, 5031
4175, 5242, 5243, 5278, 5277, 4997, 4998, 5033, 5032
4176, 5243, 5244, 5279, 5278, 4998, 4999, 5034, 5033
4177, 5244, 5245, 5280, 5279, 4999, 5000, 5035, 5034
4178, 5245, 5246, 5281, 5280, 5000, 5001, 5036, 5035
4179, 5246, 5247, 5282, 5281, 5001, 5002, 5037, 5036
4180, 5247, 5248, 5283, 5282, 5002, 5003, 5038, 5037
4181, 5248, 5249, 5284, 5283, 5003, 5004, 5039, 5038
4182, 5249, 5250, 5285, 5284, 5004, 5005, 5040, 5039
4183, 5251, 5252, 5287, 5286, 5006, 5007, 5042, 5041
4184, 5252, 5253, 5288, 5287, 5007, 5008, 5043, 5042
4185, 5253, 5254, 5289, 5288, 5008, 5009, 5044, 5043
4186, 5254, 5255, 5290, 5289, 5009, 5010, 5045, 5044
4187, 5255, 5256, 5291, 5290, 5010, 5011, 5046, 5045
4188, 5256, 5257, 5292, 5291, 5011, 5012, 5047, 5046
4189, 5257, 5258, 5293, 5292, 5012, 5013, 5048, 5047
4190, 5258, 5259, 5294, 5293, 5013, 5014, 5049, 5048
4191, 5259, 5260, 5295, 5294, 5014, 5015, 5050, 5049
4192, 5260, 5261, 5296, 5295, 5015, 5016, 5051, 5050
4193, 5261, 5262, 5297, 5296, 5016, 5017, 5052, 5051
4194, 5262, 5263, 5298, 5297, 5017, 5018, 5053, 5052
4195, 5263, 5264, 5299, 5298, 5018, 5019, 5054, 5053
4196, 5264, 5265, 5300, 5299, 5019, 5020, 5055, 5054
4197, 5265, 5266, 5301, 5300, 5020, 5021, 5056, 5055
4198, 5266, 5267, 5302, 5301, 5021, 5022, 5057, 5056
4199, 5267, 5268, 5303, 5302, 5022, 5023, 5058, 5057
4200, 5268, 5269, 5304, 5303, 5023, 5024, 5059, 5058
4201, 5269, 5270, 5305, 5304, 5024, 5025, 5060, 5059
4202, 5270, 5271, 5306, 5305, 5025, 5026, 5061, 5060
4203, 5271, 5272, 5307, 5306, 5026, 5027, 5062, 5061
4204, 5272, 5273, 5308, 5307, 5027, 5028, 5063, 5062
4205, 5273, 5274, 5309, 5308, 5028, 5029, 5064, 5063
4206, 5274, 5275, 5310, 5309, 5029, 5030, 5065, 5064
4207, 5275, 5276, 5311, 5310, 5030, 5031, 5066, 5065
4208, 5276, 5277, 5312, 5311, 5031, 5032, 5067, 5066
4209, 5277, 5278, 5313, 5312, 5032, 5033, 5068, 5067
4210, 5278, 5279, 5314, 5313, 5033, 5034, 5069, 5068
4211, 5279, 5280, 5315, 5314, 5034, 5035, 5070, 5069
4212, 5280, 5281, 5316, 5315, 5035, 5036, 5071, 5070
4213, 5281, 5282, 5317, 5316, 5036, 5037, 5072, 5071
4214, 5282, 5283, 5318, 5317, 5037, 5038, 5073, 5072
4215, 5283, 5284, 5319, 5318, 5038, 5039, 5074, 5073
4216, 5284, 5285, 5320, 5319, 5039, 5040, 5075, 5074
4217, 5286, 5287, 5322, 5321, 5041, 5042, 5077, 5076
4218, 5287, 5288, 5323, 5322, 5042, 5043, 5078, 5077
4219, 5288, 5289, 5324, 5323, 5043, 5044, 5079, 5078
4220, 5289, 5290, 5325, 5324, 5044, 5045, 5080, 5079
4221, 5290, 5291, 5326, 5325, 5045, 5046, 5081, 5080
4222, 5291, 5292, 5327, 5326, 5046, 5047, 5082, 5081
4223, 5292, 5293, 5328, 5327, 5047, 5048, 5083, 5082
4224, 5293, 5294, 5329, 5328, 5048, 5049, 5084, 5083
4225, 5294, 5295, 5330, 5329, 5049, 5050, 5085, 5084
4226, 5295, 5296, 5331, 5330, 5050, 5051, 5086, 5085
4227, 5296, 5297, 5332, 5331, 5051, 5052, 5087, 5086
4228, 5297, 5298, 5333, 5332, 5052, 5053, 5088, 5087
4229, 5298, 5299, 5334, 5333, 5053, 5054, 5089, 5088
4230, 5299, 5300, 5335, 5334, 5054, 5055, 5090, 5089
4231, 5300, 5301, 5336, 5335, 5055, 5056, 5091, 5090
4232, 5301, 5302, 5337, 5336, 5056, 5057, 5092, 5091
4233, 5302, 5303, 5338, 5337, 5057, 5058, 5093, 5092
4234, 5303, 5304, 5339, 5338, 5058, 5059, 5094, 5093
4235, 5304, 5305, 5340, 5339, 5059, 5060, 5095, 5094
4236, 5305, 5306, 5341, 5340, 5060, 5061, 5096, 5095
4237, 5306, 5307, 5342, 5341, 5061, 5062, 5097, 5096
4238, 5307, 5308, 5343, 5342, 5062, 5063, 5098, 5097
4239, 5308, 5309, 5344, 5343, 5063, 5064, 5099, 5098
4240, 5309, 5310, 5345, 5344, 5064, 5065, 5100, 5099
4241, 5310, 5311, 5346, 5345, 5065, 5066, 5101, 5100
4242, 5311, 5312, 5347, 5346, 5066, 5067, 5102, 5101
4243, 5312, 5313, 5348, 5347, 5067, 5068, 5103, 5102
4244, 5313, 5314, 5349, 5348, 5068, 5069, 5104, 5103
4245, 5314, 5315, 5350, 5349, 5069, 5070, 5105, 5104
4246, 5315, 5316, 5351, 5350, 5070, 5071, 5106, 5105
4247, 5316, 5317, 5352, 5351, 5071, 5072, 5107, 5106
4248, 5317, 5318, 5353, 5352, 5072, 5073, 5108, 5107
4249, 5318, 5319, 5354, 5353, 5073, 5074, 5109, 5108
4250, 5319, 5320, 5355, 5354, 5074, 5075, 5110, 5109
4251, 5321, 5322, 5357, 5356, 5076, 5077, 5112, 5111
4252, 5322, 5323, 5358, 5357, 5077, 5078, 5113, 5112
4253, 5323, 5324, 5359, 5358, 5078, 5079, 5114, 5113
4254, 5324, 5325, 5360, 5359, 5079, 5080, 5115, 5114
4255, 5325, 5326, 5361, 5360, 5080, 5081, 5116, 5115
4256, 5326, 5327, 5362, 5361, 5081, 5082, 5117, 5116
4257, 5327, 5328, 5363, 5362, 5082, 5083, 5118, 5117
4258, 5328, 5329, 5364, 5363, 5083, 5084, 5119, 5118
4259, 5329, 5330, 5365, 5364, 5084, 5085, 5120, 5119
4260, 5330, 5331, 5366, 5365, 5085, 5086, 5121, 5120
4261, 5331, 5332, 5367, 5366, 5086, 5087, 5122, 5121
4262, 5332, 5333, 5368, 5367, 5087, 5088, 5123, 5122
4263, 5333, 5334, 5369, 5368, 5088, 5089, 5124, 5123
4264, 5334, 5335, 5370, 5369, 5089, 5090, 5125, 5124
4265, 5335, 5336, 5371, 5370, 5090, 5091, 5126, 5125
4266, 5336, 5337, 5372, 5371, 5091, 5092, 5127, 5126
4267, 5337, 5338, 5373, 5372, 5092, 5093, 5128, 5127
4268, 5338, 5339, 5374, 5373, 5093, 5094, 5129, 5128
4269, 5339, 5340, 5375, 5374, 5094, 5095, 5130, 5129
4270, 5340, 5341, 5376, 5375, 5095, 5096, 5131, 5130
4271, 5341, 5342, 5377, 5376, 5096, 5097, 5132, 5131
4272, 5342, 5343, 5378, 5377, 5097, 5098, 5133, 5132
4273, 5343, 5344, 5379, 5378, 5098, 5099, 5134, 5133
4274, 5344, 5345, 5380, 5379, 5099, 5100, 5135, 5134
4275, 5345, 5346, 5381, 5380, 5100, 5101, 5136, 5135
4276, 5346, 5347, 5382, 5381, 5101, 5102, 5137, 5136
4277, 5347, 5348, 5383, 5382, 5102, 5103, 5138, 5137
4278, 5348, 5349, 5384, 5383, 5103, 5104, 5139, 5138
4279, 5349, 5350, 5385, 5384, 5104, 5105, 5140, 5139
4280, 5350, 5351, 5386, 5385, 5105, 5106, 5141, 5140
4281, 5351, 5352, 5387, 5386, 5106, 5107, 5142, 5141
4282, 5352, 5353, 5388, 5387, 5107, 5108, 5143, 5142
4283, 5353, 5354, 5389, 5388, 5108, 5109, 5144, 5143
4284, 5354, 5355, 5390, 5389, 5109, 5110, 5145, 5144
4285, 5391, 5392, 5427, 5426, 5146, 5147, 5182, 5181
4286, 5392, 5393, 5428, 5427, 5147, 5148, 5183, 5182
4287, 5393, 5394, 5429, 5428, 5148, 5149, 5184, 5183
4288, 5394, 5395, 5430, 5429, 5149, 5150, 5185, 5184
4289, 5395, 5396, 5431, 5430, 5150, 5151, 5186, 5185
4290, 5396, 5397, 5432, 5431, 5151, 5152, 5187, 5186
4291, 5397, 5398, 5433, 5432, 5152, 5153, 5188, 5187
4292, 5398, 5399, 5434, 5433, 5153, 5154, 5189, 5188
4293, 5399, 5400, 5435, 5434, 5154, 5155, 5190, 5189
4294, 5400, 5401, 5436, 5435, 5155, 5156, 5191, 5190
4295, 5401, 5402, 5437, 5436, 5156, 5157, 5192, 5191
4296, 5402, 5403, 5438, 5437, 5157, 5158, 5193, 5192
4297, 5403, 5404, 5439, 5438, 5158, 5159, 5194, 5193
4298, 5404, 5405, 5440, 5439, 5159, 5160, 5195, 5194
4299, 5405, 5406, 5441, 5440, 5160, 5161, 5196, 5195
4300, 5406, 5407, 5442, 5441, 5161, 5162, 5197, 5196
4301, 5407, 5408, 5443, 5442, 5162, 5163, 5198, 5197
4302, 5408, 5409, 5444, 5443, 5163, 5164, 5199, 5198
4303, 5409, 5410, 5445, 5444, 5164, 5165, 5200, 5199
4304, 5410, 5411, 5446, 5445, 5165, 5166, 5201, 5200
4305, 5411, 5412, 5447, 5446, 5166, 5167, 5202, 5201
4306, 5412, 5413, 5448, 5447, 5167, 5168, 5203, 5202
4307, 5413, 5414, 5449, 5448, 5168, 5169, 5204, 5203
4308, 5414, 5415, 5450, 5449, 5169, 5170, 5205, 5204
4309, 5415, 5416, 5451, 5450, 5170, 5171, 5206, 5205
4310, 5416, 5417, 5452, 5451, 5171, 5172, 5207, 5206
4311, 5417, 5418, 5453, 5452, 5172, 5173, 5208, 5207
4312, 5418, 5419, 5454, 5453, 5173, 5174, 5209, 5208
4313, 5419, 5420, 5455, 5454, 5174, 5175, 5210, 5209
4314, 5420, 5421, 5456, 5455, 5175, 5176, 5211, 5210
4315, 5421, 5422, 5457, 5456, 5176, 5177, 5212, 5211
4316, 5422, 5423, 5458, 5457, 5177, 5178, 5213, 5212
4317, 5423, 5424, 5459, 5458, 5178, 5179, 5214, 5213
4318, 5424, 5425, 5460, 5459, 5179, 5180, 5215, 5214
4319, 5426, 5427, 5462, 5461, 5181, 5182, 5217, 5216
4320, 5427, 5428, 5463, 5462, 5182, 5183, 5218, 5217
4321, 5428, 5429, 5464, 5463, 5183, 5184, 5219, 5218
4322, 5429, 5430, 5465, 5464, 5184, 5185, 5220, 5219
4323, 5430, 5431, 5466, 5465, 5185, 5186, 5221, 5220
4324, 5431, 5432, 5467, 5466, 5186, 5187, 5222, 5221
4325, 5432, 5433, 5468, 5467, 5187, 5188, 5223, 5222
4326, 5433, 5434, 5469, 5468, 5188, 5189, 5224, 5223
4327, 5434, 5435, 5470, 5469, 5189, 5190, 5225, 5224
4328, 5435, 5436, 5471, 5470, 5190, 5191, 5226, 5225
4329, 5436, 5437, 5472, 5471, 5191, 5192, 5227, 5226
4330, 5437, 5438, 5473, 5472, 5192, 5193, 5228, 5227
4331, 5438, 5439, 5474, 5473, 5193, 5194, 5229, 5228
4332, 5439, 5440, 5475, 5474, 5194, 5195, 5230, 5229
4333, 5440, 5441, 5476, 5475, 5195, 5196, 5231, 5230
4334, 5441, 5442, 5477, 5476, 5196, 5197, 5232, 5231
4335, 5442, 5443, 5478, 5477, 5197, 5198, 5233, 5232
4336, 5443, 5444, 5479, 5478, 5198, 5199, 5234, 5233
4337, 5444, 5445, 5480, 5479, 5199, 5200, 5235, 5234
4338, 5445, 5446, 5481, 5480, 5200, 5201, 5236, 5235
4339, 5446, 5447, 5482, 5481, 5201, 5202, 5237, 5236
4340, 5447, 5448, 5483, 5482, 5202, 5203, 5238, 5237
4341, 5448, 5449, 5484, 5483, 5203, 5204, 5239, 5238
4342, 5449, 5450, 5485, 5484, 5204, 5205, 5240, 5239
4343, 5450, 5451, 5486, 5485, 5205, 5206, 5241, 5240
4344, 5451, 5452, 5487, 5486, 5206, 5207, 5242, 5241
4345, 5452, 5453, 5488, 5487, 5207, 5208, 5243, 5242
4346, 5453, 5454, 5489, 5488, 5208, 5209, 5244, 5243
4347, 5454, 5455, 5490, 5489, 5209, 5210, 5245, 5244
4348, 5455, 5456, 5491, 5490, 5210, 5211, 5246, 5245
4349, 5456, 5457, 5492, 5491, 5211, 5212, 5247, 5246
4350, 5457, 5458, 5493, 5492, 5212, 5213, 5248, 5247
4351, 5458, 5459, 5494, 5493, 5213, 5214, 5249, 5248
4352, 5459, 5460, 5495, 5494, 5214, 5215, 5250, 5249
4353, 5461, 5462, 5497, 5496, 5216, 5217, 5252, 5251
4354, 5462, 5463, 5498, 5497, 5217, 5218, 5253, 5252
4355, 5463, 5464, 5499, 5498, 5218, 5219, 5254, 5253
4356, 5464, 5465, 5500, 5499, 5219, 5220, 5255, 5254
4357, 5465, 5466, 5501, 5500, 5220, 5221, 5256, 5255
4358, 5466, 5467, 5502, 5501, 5221, 5222, 5257, 5256
4359, 5467, 5468, 5503, 5502, 5222, 5223, 5258, 5257
4360, 5468, 5469, 5504, 5503, 5223, 5224, 5259, 5258
4361, 5469, 5470, 5505, 5504, 5224, 5225, 5260, 5259
4362, 5470, 5471, 5506, 5505, 5225, 5226, 5261, 5260
4363, 5471, 5472, 5507, 5506, 5226, 5227, 5262, 5261
4364, 5472, 5473, 5508, 5507, 5227, 5228, 5263, 5262
4365, 5473, 5474, 5509, 5508, 5228, 5229, 5264, 5263
4366, 5474, 5475, 5510, 5509, 5229, 5230, 5265, 5264
4367, 5475, 5476, 5511, 5510, 5230, 5231, 5266, 5265
4368, 5476, 5477, 5512, 5511, 5231, 5232, 5267, 5266
4369, 5477, 5478, 5513, 5512, 5232, 5233, 5268, 5267
4370, 5478, 5479, 5514, 5513, 5233, 5234, 5269, 5268
4371, 5479, 5480, 5515, 5514, 5234, 5235, 5270, 5269
4372, 5480, 5481, 5516, 5515, 5235, 5236, 5271, 5270
4373, 5481, 5482, 5517, 5516, 5236, 5237, 5272, 5271
4374, 5482, 5483, 5518, 5517, 5237, 5238, 5273, 5272
4375, 5483, 5484, 5519, 5518, 5238, 5239, 5274, 5273
4376, 5484, 5485, 5520, 5519, 5239, 5240, 5275, 5274
4377, 5485, 5486, 5521, 5520, 5240, 5241, 5276, 5275
4378, 5486, 5487, 5522, 5521, 5241, 5242, 5277, 5276
4379, 5487, 5488, 5523, 5522, 5242, 5243, 5278, 5277
4380, 5488, 5489, 5524, 5523, 5243, 5244, 5279, 5278
4381, 5489, 5490, 5525, 5524, 5244, 5245, 5280, 5279
4382, 5490, 5491, 5526, 5525, 5245, 5246, 5281, 5280
4383, 5491, 5492, 5527, 5526, 5246, 5247, 5282, 5281
4384, 5492, 5493, 5528, 5527, 5247, 5248, 5283, 5282
4385, 5493, 5494, 5529, 5528, 5248, 5249, 5284, 5283
4386, 5494, 5495, 5530, 5529, 5249, 5250, 5285, 5284
4387, 5496, 5497, 5532, 5531, 5251, 5252, 5287, 5286
4388, 5497, 5498, 5533, 5532, 5252, 5253, 5288, 5287
4389, 5498, 5499, 5534, 5533, 5253, 5254, 5289, 5288
4390, 5499, 5500, 5535, 5534, 5254, 5255, 5290, 5289
4391, 5500, 5501, 5536, 5535, 5255, 5256, 5291, 5290
4392, 5501, 5502, 5537, 5536, 5256, 5257, 5292, 5291
4393, 5502, 5503, 5538, 5537, 5257, 5258, 5293, 5292
4394, 5503, 5504, 5539, 5538, 5258, 5259, 5294, 5293
4395, 5504, 5505, 5540, 5539, 5259, 5260, 5295, 5294
4396, 5505, 5506, 5541, 5540, 5260, 5261, 5296, 5295
4397, 5506, 5507, 5542, 5541, 5261, 5262, 5297, 5296
4398, 5507, 5508, 5543, 5542, 5262, 5263, 5298, 5297
4399, 5508, 5509, 5544, 5543, 5263, 5264, 5299, 5298
4400, 5509, 5510, 5545, 5544, 5264, 5265, 5300, 5299
4401, 5510, 5511, 5546, 5545, 5265, 5266, 5301, 5300
4402, 5511, 5512, 5547, 5546, 5266, 5267, 5302, 5301
4403, 5512, 5513, 5548, 5547, 5267, 5268, 5303, 5302
4404, 5513, 5514, 5549, 5548, 5268, 5269, 5304, 5303
4405, 5514, 5515, 5550, 5549, 5269, 5270, 5305, 5304
4406, 5515, 5516, 5551, 5550, 5270, 5271, 5306, 5305
4407, 5516, 5517, 5552, 5551, 5271, 5272, 5307, 5306
4408, 5517, 5518, 5553, 5552, 5272, 5273, 5308, 5307
4409, 5518, 5519, 5554, 5553, 5273, 5274, 5309, 5308
4410, 5519, 5520, 5555, 5554, 5274, 5275, 5310, 5309
4411, 5520, 5521, 5556, 5555, 5275, 5276, 5311, 5310
4412, 5521, 5522, 5557, 5556, 5276, 5277, 5312, 5311
4413, 5522, 5523, 5558, 5557, 5277, 5278, 5313, 5312
4414, 5523, 5524, 5559, 5558, 5278, 5279, 5314, 5313
4415, 5524, 5525, 5560, 5559, 5279, 5280, 5315, 5314
4416, 5525, 5526, 5561, 5560, 5280, 5281, 5316, 5315
4417, 5526, 5527, 5562, 5561, 5281, 5282, 5317, 5316
4418, 5527, 5528, 5563, 5562, 5282, 5283, 5318, 5317
4419, 5528, 5529, 5564, 5563, 5283, 5284, 5319, 5318
4420, 5529, 5530, 5565, 5564, 5284, 5285, 5320, 5319
4421, 5531, 5532, 5567, 5566, 5286, 5287, 5322, 5321
4422, 5532, 5533, 5568, 5567, 5287, 5288, 5323, 5322
4423, 5533, 5534, 5569, 5568, 5288, 5289, 5324, 5323
4424, 5534, 5535, 5570, 5569, 5289, 5290, 5325, 5324
4425, 5535, 5536, 5571, 5570, 5290, 5291, 5326, 5325
4426, 5536, 5537, 5572, 5571, 5291, 5292, 5327, 5326
4427, 5537, 5538, 5573, 5572, 5292, 5293, 5328, 5327
4428, 5538, 5539, 5574, 5573, 5293, 5294, 5329, 5328
4429, 5539, 5540, 5575, 5574, 5294, 5295, 5330, 5329
4430, 5540, 5541, 5576, 5575, 5295, 5296, 5331, 5330
4431, 5541, 5542, 5577, 5576, 5296, 5297, 5332, 5331
4432, 5542, 5543, 5578, 5577, 5297, 5298, 5333, 5332
4433, 5543, 5544, 5579, 5578, 5298, 5299, 5334, 5333
4434, 5544, 5545, 5580, 5579, 5299, 5300, 5335, 5334
4435, 5545, 5546, 5581, 5580, 5300, 5301, 5336, 5335
4436, 5546, 5547, 5582, 5581, 5301, 5302, 5337, 5336
4437, 5547, 5548, 5583, 5582, 5302, 5303, 5338, 5337
4438, 5548, 5549, 5584, 5583, 5303, 5304, 5339, 5338
4439, 5549, 5550, 5585, 5584, 5304, 5305, 5340, 5339
4440, 5550, 5551, 5586, 5585, 5305, 5306, 5341, 5340
4441, 5551, 5552, 5587, 5586, 5306, 5307, 5342, 5341
4442, 5552, 5553, 5588, 5587, 5307, 5308, 5343, 5342
4443, 5553, 5554, 5589, 5588, 5308, 5309, 5344, 5343
4444, 5554, 5555, 5590, 5589, 5309, 5310, 5345, 5344
4445, 5555, 5556, 5591, 5590, 5310, 5311, 5346, 5345
4446, 5556, 5557, 5592, 5591, 5311, 5312, 5347, 5346
4447, 5557, 5558, 5593, 5592, 5312, 5313, 5348, 5347
4448, 5558, 5559, 5594, 5593, 5313, 5314, 5349, 5348
4449, 5559, 5560, 5595, 5594, 5314, 5315, 5350, 5349
4450, 5560, 5561, 5596, 5595, 5315, 5316, 5351, 5350
4451, 5561, 5562, 5597, 5596, 5316, 5317, 5352, 5351
4452, 5562, 5563, 5598, 5597, 5317, 5318, 5353, 5352
4453, 5563, 5564, 5599, 5598, 5318, 5319, 5354, 5353
4454, 5564, 5565, 5600, 5599, 5319, 5320, 5355, 5354
4455, 5566, 5567, 5602, 5601, 5321, 5322, 5357, 5356
4456, 5567, 5568, 5603, 5602, 5322, 5323, 5358, 5357
4457, 5568, 5569, 5604, 5603, 5323, 5324, 5359, 5358
4458, 5569, 5570, 5605, 5604, 5324, 5325, 5360, 5359
4459, 5570, 5571, 5606, 5605, 5325, 5326, 5361, 5360
4460, 5571, 5572, 5607, 5606, 5326, 5327, 5362, 5361
4461, 5572, 5573, 5608, 5607, 5327, 5328, 5363, 5362
4462, 5573, 5574, 5609, 5608, 5328, 5329, 5364, 5363
4463, 5574, 5575, 5610, 5609, 5329, 5330, 5365, 5364
4464, 5575, 5576, 5611, 5610, 5330, 5331, 5366, 5365
4465, 5576, 5577, 5612, 5611, 5331, 5332, 5367, 5366
4466, 5577, 5578, 5613, 5612, 5332, 5333, 5368, 5367
4467, 5578, 5579, 5614, 5613, 5333, 5334, 5369, 5368
4468, 5579, 5580, 5615, 5614, 5334, 5335, 5370, 5369
4469, 5580, 5581, 5616, 5615, 5335, 5336, 5371, 5370
4470, 5581, 5582, 5617, 5616, 5336, 5337, 5372, 5371
4471, 5582, 5583, 5618, 5617, 5337, 5338, 5373, 5372
4472, 5583, 5584, 5619, 5618, 5338, 5339, 5374, 5373
4473, 5584, 5585, 5620, 5619, 5339, 5340, 5375, 5374
4474, 5585, 5586, 5621, 5620, 5340, 5341, 5376, 5375
4475, 5586, 5587, 5622, 5621, 5341, 5342, 5377, 5376
4476, 5587, 5588, 5623, 5622, 5342, 5343, 5378, 5377
4477, 5588, 5589, 5624, 5623, 5343, 5344, 5379, 5378
4478, 5589, 5590, 5625, 5624, 5344, 5345, 5380, 5379
4479, 5590, 5591, 5626, 5625, 5345, 5346, 5381, 5380
4480, 5591, 5592, 5627, 5626, 5346, 5347, 5382, 5381
4481, 5592, 5593, 5628, 5627, 5347, 5348, 5383, 5382
4482, 5593, 5594, 5629, 5628, 5348, 5349, 5384, 5383
4483, 5594, 5595, 5630, 5629, 5349, 5350, 5385, 5384
4484, 5595, 5596, 5631, 5630, 5350, 5351, 5386, 5385
4485, 5596, 5597, 5632, 5631, 5351, 5352, 5387, 5386
4486, 5597, 5598, 5633, 5632, 5352, 5353, 5388, 5387
4487, 5598, 5599, 5634, 5633, 5353, 5354, 5389, 5388
4488, 5599, 5600, 5635, 5634, 5354, 5355, 5390, 5389
4489, 5636, 5637, 5672, 5671, 5391, 5392, 5427, 5426
4490, 5637, 5638, 5673, 5672, 5392, 5393, 5428, 5427
4491, 5638, 5639, 5674, 5673, 5393, 5394, 5429, 5428
4492, 5639, 5640, 5675, 5674, 5394, 5395, 5430, 5429
4493, 5640, 5641, 5676, 5675, 5395, 5396, 5431, 5430
4494, 5641, 5642, 5677, 5676, 5396, 5397, 5432, 5431
4495, 5642, 5643, 5678, 5677, 5397, 5398, 5433, 5432
4496, 5643, 5644, 5679, 5678, 5398, 5399, 5434, 5433
4497, 5644, 5645, 5680, 5679, 5399, 5400, 5435, 5434
4498, 5645, 5646, 5681, 5680, 5400, 5401, 5436, 5435
4499, 5646, 5647, 5682, 5681, 5401, 5402, 5437, 5436
4500, 5647, 5648, 5683, 5682, 5402, 5403, 5438, 5437
4501, 5648, 5649, 5684, 5683, 5403, 5404, 5439, 5438
4502, 5649, 5650, 5685, 5684, 5404, 5405, 5440, 5439
4503, 5650, 5651, 5686, 5685, 5405, 5406, 5441, 5440
4504, 5651, 5652, 5687, 5686, 5406, 5407, 5442, 5441
4505, 5652, 5653, 5688, 5687, 5407, 5408, 5443, 5442
4506, 5653, 5654, 5689, 5688, 5408, 5409, 5444, 5443
4507, 5654, 5655, 5690, 5689, 5409, 5410, 5445, 5444
4508, 5655, 5656, 5691, 5690, 5410, 5411, 5446, 5445
4509, 5656, 5657, 5692, 5691, 5411, 5412, 5447, 5446
4510, 5657, 5658, 5693, 5692, 5412, 5413, 5448, 5447
4511, 5658, 5659, 5694, 5693, 5413, 5414, 5449, 5448
4512, 5659, 5660, 5695, 5694, 5414, 5415, 5450, 5449
4513, 5660, 5661, 5696, 5695, 5415, 5416, 5451, 5450
4514, 5661, 5662, 5697, 5696, 5416, 5417, 5452, 5451
4515, 5662, 5663, 5698, 5697, 5417, 5418, 5453, 5452
4516, 5663, 5664, 5699, 5698, 5418, 5419, 5454, 5453
4517, 5664, 5665, 5700, 5699, 5419, 5420, 5455, 5454
4518, 5665, 5666, 5701, 5700, 5420, 5421, 5456, 5455
4519, 5666, 5667, 5702, 5701, 5421, 5422, 5457, 5456
4520, 5667, 5668, 5703, 5702, 5422, 5423, 5458, 5457
4521, 5668, 5669, 5704, 5703, 5423, 5424, 5459, 5458
4522, 5669, 5670, 5705, 5704, 5424, 5425, 5460, 5459
4523, 5671, 5672, 5707, 5706, 5426, 5427, 5462, 5461
4524, 5672, 5673, 5708, 5707, 5427, 5428, 5463, 5462
4525, 5673, 5674, 5709, 5708, 5428, 5429, 5464, 5463
4526, 5674, 5675, 5710, 5709, 5429, 5430, 5465, 5464
4527, 5675, 5676, 5711, 5710, 5430, 5431, 5466, 5465
4528, 5676, 5677, 5712, 5711, 5431, 5432, 5467, 5466
4529, 5677, 5678, 5713, 5712, 5432, 5433, 5468, 5467
4530, 5678, 5679, 5714, 5713, 5433, 5434, 5469, 5468
4531, 5679, 5680, 5715, 5714, 5434, 5435, 5470, 5469
4532, 5680, 5681, 5716, 5715, 5435, 5436, 5471, 5470
4533, 5681, 5682, 5717, 5716, 5436, 5437, 5472, 5471
4534, 5682, 5683, 5718, 5717, 5437, 5438, 5473, 5472
4535, 5683, 5684, 5719, 5718, 5438, 5439, 5474, 5473
4536, 5684, 5685, 5720, 5719, 5439, 5440, 5475, 5474
4537, 5685, 5686, 5721, 5720, 5440, 5441, 5476, 5475
4538, 5686, 5687, 5722, 5721, 5441, 5442, 5477, 5476
4539, 5687, 5688, 5723, 5722, 5442, 5443, 5478, 5477
4540, 5688, 5689, 5724, 5723, 5443, 5444, 5479, 5478
4541, 5689, 5690, 5725, 5724, 5444, 5445, 5480, 5479
4542, 5690, 5691, 5726, 5725, 5445, 5446, 5481, 5480
4543, 5691, 5692, 5727, 5726, 5446, 5447, 5482, 5481
4544, 5692, 5693, 5728, 5727, 5447, 5448, 5483, 5482
4545, 5693, 5694, 5729, 5728, 5448, 5449, 5484, 5483
4546, 5694, 5695, 5730, 5729, 5449, 5450, 5485, 5484
4547, 5695, 5696, 5731, 5730, 5450, 5451, 5486, 5485
4548, 5696, 5697, 5732, 5731, 5451, 5452, 5487, 5486
4549, 5697, 5698, 5733, 5732, 5452, 5453, 5488, 5487
4550, 5698, 5699, 5734, 5733, 5453, 5454, 5489, 5488
4551, 5699, 5700, 5735, 5734, 5454, 5455, 5490, 5489
4552, 5700, 5701, 5736, 5735, 5455, 5456, 5491, 5490
4553, 5701, 5702, 5737, 5736, 5456, 5457, 5492, 5491
4554, 5702, 5703, 5738, 5737, 5457, 5458, 5493, 5492
4555, 5703, 5704, 5739, 5738, 5458, 5459, 5494, 5493
4556, 5704, 5705, 5740, 5739, 5459, 5460, 5495, 5494
4557, 5706, 5707, 5742, 5741, 5461, 5462, 5497, 5496
4558, 5707, 5708, 5743, 5742, 5462, 5463, 5498, 5497
4559, 5708, 5709, 5744, 5743, 5463, 5464, 5499, 5498
4560, 5709, 5710, 5745, 5744, 5464, 5465, 5500, 5499
4561, 5710, 5711, 5746, 5745, 5465, 5466, 5501, 5500
4562, 5711, 5712, 5747, 5746, 5466, 5467, 5502, 5501
4563, 5712, 5713, 5748, 5747, 5467, 5468, 5503, 5502
4564, 5713, 5714, 5749, 5748, 5468, 5469, 5504, 5503
4565, 5714, 5715, 5750, 5749, 5469, 5470, 5505, 5504
4566, 5715, 5716, 5751, 5750, 5470, 5471, 5506, 5505
4567, 5716, 5717, 5752, 5751, 5471, 5472, 5507, 5506
4568, 5717, 5718, 5753, 5752, 5472, 5473, 5508, 5507
4569, 5718, 5719, 5754, 5753, 5473, 5474, 5509, 5508
4570, 5719, 5720, 5755, 5754, 5474, 5475, 5510, 5509
4571, 5720, 5721, 5756, 5755, 5475, 5476, 5511, 5510
4572, 5721, 5722, 5757, 5756, 5476, 5477, 5512, 5511
4573, 5722, 5723, 5758, 5757, 5477, 5478, 5513, 5512
4574, 5723, 5724, 5759, 5758, 5478, 5479, 5514, 5513
4575, 5724, 5725, 5760, 5759, 5479, 5480, 5515, 5514
4576, 5725, 5726, 5761, 5760, 5480, 5481, 5516, 5515
4577, 5726, 5727, 5762, 5761, 5481, 5482, 5517, 5516
4578, 5727, 5728, 5763, 5762, 5482, 5483, 5518, 5517
4579, 5728, 5729, 5764, 5763, 5483, 5484, 5519, 5518
4580, 5729, 5730, 5765, 5764, 5484, 5485, 5520, 5519
4581, 5730, 5731, 5766, 5765, 5485, 5486, 5521, 5520
4582, 5731, 5732, 5767, 5766, 5486, 5487, 5522, 5521
4583, 5732, 5733, 5768, 5767, 5487, 5488, 5523, 5522
4584, 5733, 5734, 5769, 5768, 5488, 5489, 5524, 5523
4585, 5734, 5735, 5770, 5769, 5489, 5490, 5525, 5524
4586, 5735, 5736, 5771, 5770, 5490, 5491, 5526, 5525
4587, 5736, 5737, 5772, 5771, 5491, 5492, 5527, 5526
4588, 5737, 5738, 5773, 5772, 5492, 5493, 5528, 5527
4589, 5738, 5739, 5774, 5773, 5493, 5494, 5529, 5528
4590, 5739, 5740, 5775, 5774, 5494, 5495, 5530, 5529
4591, 5741, 5742, 5777, 5776, 5496, 5497, 5532, 5531
4592, 5742, 5743, 5778, 5777, 5497, 5498, 5533, 5532
4593, 5743, 5744, 5779, 5778, 5498, 5499, 5534, 5533
4594, 5744, 5745, 5780, 5779, 5499, 5500, 5535, 5534
4595, 5745, 5746, 5781, 5780, 5500, 5501, 5536, 5535
4596, 5746, 5747, 5782, 5781, 5501, 5502, 5537, 5536
4597, 5747, 5748, 5783, 5782, 5502, 5503, 5538, 5537
4598, 5748, 5749, 5784, 5783, 5503, 5504, 5539, 5538
4599, 5749, 5750, 5785, 5784, 5504, 5505, 5540, 5539
4600, 5750, 5751, 5786, 5785, 5505, 5506, 5541, 5540
4601, 5751, 5752, 5787, 5786, 5506, 5507, 5542, 5541
4602, 5752, 5753, 5788, 5787, 5507, 5508, 5543, 5542
4603, 5753, 5754, 5789, 5788, 5508, 5509, 5544, 5543
4604, 5754, 5755, 5790, 5789, 5509, 5510, 5545, 5544
4605, 5755, 5756, 5791, 5790, 5510, 5511, 5546, 5545
4606, 5756, 5757, 5792, 5791, 5511, 5512, 5547, 5546
4607, 5757, 5758, 5793, 5792, 5512, 5513, 5548, 5547
4608, 5758, 5759, 5794, 5793, 5513, 5514, 5549, 5548
4609, 5759, 5760, 5795, 5794, 5514, 5515, 5550, 5549
4610, 5760, 5761, 5796, 5795, 5515, 5516, 5551, 5550
4611, 5761, 5762, 5797, 5796, 5516, 5517, 5552, 5551
4612, 5762, 5763, 5798, 5797, 5517, 5518, 5553, 5552
4613, 5763, 5764, 5799, 5798, 5518, 5519, 5554, 5553
4614, 5764, 5765, 5800, 5799, 5519, 5520, 5555, 5554
4615, 5765, 5766, 5801, 5800, 5520, 5521, 5556, 5555
4616, 5766, 5767, 5802, 5801, 5521, 5522, 5557, 5556
4617, 5767, 5768, 5803, 5802, 5522, 5523, 5558, 5557
4618, 5768, 5769, 5804, 5803, 5523, 5524, 5559, 5558
4619, 5769, 5770, 5805, 5804, 5524, 5525, 5560, 5559
4620, 5770, 5771, 5806, 5805, 5525, 5526, 5561, 5560
4621, 5771, 5772, 5807, 5806, 5526, 5527, 5562, 5561
4622, 5772, 5773, 5808, 5807, 5527, 5528, 5563, 5562
4623, 5773, 5774, 5809, 5808, 5528, 5529, 5564, 5563
4624, 5774, 5775, 5810, 5809, 5529, 5530, 5565, 5564
4625, 5776, 5777, 5812, 5811, 5531, 5532, 5567, 5566
4626, 5777, 5778, 5813, 5812, 5532, 5533, 5568, 5567
4627, 5778, 5779, 5814, 5813, 5533, 5534, 5569, 5568
4628, 5779, 5780, 5815, 5814, 5534, 5535, 5570, 5569
4629, 5780, 5781, 5816, 5815, 5535, 5536, 5571, 5570
4630, 5781, 5782, 5817, 5816, 5536, 5537, 5572, 5571
4631, 5782, 5783, 5818, 5817, 5537, 5538, 5573, 5572
4632, 5783, 5784, 5819, 5818, 5538, 5539, 5574, 5573
4633, 5784, 5785, 5820, 5819, 5539, 5540, 5575, 5574
4634, 5785, 5786, 5821, 5820, 5540, 5541, 5576, 5575
4635, 5786, 5787, 5822, 5821, 5541, 5542, 5577, 5576
4636, 5787, 5788, 5823, 5822, 5542, 5543, 5578, 5577
4637, 5788, 5789, 5824, 5823, 5543, 5544, 5579, 5578
4638, 5789, 5790, 5825, 5824, 5544, 5545, 5580, 5579
4639, 5790, 5791, 5826, 5825, 5545, 5546, 5581, 5580
4640, 5791, 5792, 5827, 5826, 5546, 5547, 5582, 5581
4641, 5792, 5793, 5828, 5827, 5547, 5548, 5583, 5582
4642, 5793, 5794, 5829, 5828, 5548, 5549, 5584, 5583
4643, 5794, 5795, 5830, 5829, 5549, 5550, 5585, 5584
4644, 5795, 5796, 5831, 5830, 5550, 5551, 5586, 5585
4645, 5796, 5797, 5832, 5831, 5551, 5552, 5587, 5586
4646, 5797, 5798, 5833, 5832, 5552, 5553, 5588, 5587
4647, 5798, 5799, 5834, 5833, 5553, 5554, 5589, 5588
4648, 5799, 5800, 5835, 5834, 5554, 5555, 5590, 5589
4649, 5800, 5801, 5836, 5835, 5555, 5556, 5591, 5590
4650, 5801, 5802, 5837, 5836, 5556, 5557, 5592, 5591
4651, 5802, 5803, 5838, 5837, 5557, 5558, 5593, 5592
4652, 5803, 5804, 5839, 5838, 5558, 5559, 5594, 5593
4653, 5804, 5805, 5840, 5839, 5559, 5560, 5595, 5594
4654, 5805, 5806, 5841, 5840, 5560, 5561, 5596, 5595
4655, 5806, 5807, 5842, 5841, 5561, 5562, 5597, 5596
4656, 5807, 5808, 5843, 5842, 5562, 5563, 5598, 5597
4657, 5808, 5809, 5844, 5843, 5563, 5564, 5599, 5598
4658, 5809, 5810, 5845, 5844, 5564, 5565, 5600, 5599
4659, 5811, 5812, 5847, 5846, 5566, 5567, 5602, 5601
4660, 5812, 5813, 5848, 5847, 5567, 5568, 5603, 5602
4661, 5813, 5814, 5849, 5848, 5568, 5569, 5604, 5603
4662, 5814, 5815, 5850, 5849, 5569, 5570, 5605, 5604
4663, 5815, 5816, 5851, 5850, 5570, 5571, 5606, 5605
4664, 5816, 5817, 5852, 5851, 5571, 5572, 5607, 5606
4665, 5817, 5818, 5853, 5852, 5572, 5573, 5608, 5607
4666, 5818, 5819, 5854, 5853, 5573, 5574, 5609, 5608
4667, 5819, 5820, 5855, 5854, 5574, 5575, 5610, 5609
4668, 5820, 5821, 5856, 5855, 5575, 5576, 5611, 5610
4669, 5821, 5822, 5857, 5856, 5576, 5577, 5612, 5611
4670, 5822, 5823, 5858, 5857, 5577, 5578, 5613, 5612
4671, 5823, 5824, 5859, 5858, 5578, 5579, 5614, 5613
4672, 5824, 5825, 5860, 5859, 5579, 5580, 5615, 5614
4673, 5825, 5826, 5861, 5860, 5580, 5581, 5616, 5615
4674, 5826, 5827, 5862, 5861, 5581, 5582, 5617, 5616
4675, 5827, 5828, 5863, 5862, 5582, 5583, 5618, 5617
4676, 5828, 5829, 5864, 5863, 5583, 5584, 5619, 5618
4677, 5829, 5830, 5865, 5864, 5584, 5585, 5620, 5619
4678, 5830, 5831, 5866, 5865, 5585, 5586, 5621, 5620
4679, 5831, 5832, 5867, 5866, 5586, 5587, 5622, 5621
4680, 5832, 5833, 5868, 5867, 5587, 5588, 5623, 5622
4681, 5833, 5834, 5869, 5868, 5588, 5589, 5624, 5623
4682, 5834, 5835, 5870, 5869, 5589, 5590, 5625, 5624
4683, 5835, 5836, 5871, 5870, 5590, 5591, 5626, 5625
4684, 5836, 5837, 5872, 5871, 5591, 5592, 5627, 5626
4685, 5837, 5838, 5873, 5872, 5592, 5593, 5628, 5627
4686, 5838, 5839, 5874, 5873, 5593, 5594, 5629, 5628
4687, 5839, 5840, 5875, 5874, 5594, 5595, 5630, 5629
4688, 5840, 5841, 5876, 5875, 5595, 5596, 5631, 5630
4689, 5841, 5842, 5877, 5876, 5596, 5597, 5632, 5631
4690, 5842, 5843, 5878, 5877, 5597, 5598, 5633, 5632
4691, 5843, 5844, 5879, 5878, 5598, 5599, 5634, 5633
4692, 5844, 5845, 5880, 5879, 5599, 5600, 5635, 5634
4693, 5881, 5882, 5917, 5916, 5636, 5637, 5672, 5671
4694, 5882, 5883, 5918, 5917, 5637, 5638, 5673, 5672
4695, 5883, 5884, 5919, 5918, 5638, 5639, 5674, 5673
4696, 5884, 5885, 5920, 5919, 5639, 5640, 5675, 5674
4697, 5885, 5886, 5921, 5920, 5640, 5641, 5676, 5675
4698, 5886, 5887, 5922, 5921, 5641, 5642, 5677, 5676
4699, 5887, 5888, 5923, 5922, 5642, 5643, 5678, 5677
4700, 5888, 5889, 5924, 5923, 5643, 5644, 5679, 5678
4701, 5889, 5890, 5925, 5924, 5644, 5645, 5680, 5679
4702, 5890, 5891, 5926, 5925, 5645, 5646, 5681, 5680
4703, 5891, 5892, 5927, 5926, 5646, 5647, 5682, 5681
4704, 5892, 5893, 5928, 5927, 5647, 5648, 5683, 5682
4705, 5893, 5894, 5929, 5928, 5648, 5649, 5684, 5683
4706, 5894, 5895, 5930, 5929, 5649, 5650, 5685, 5684
4707, 5895, 5896, 5931, 5930, 5650, 5651, 5686, 5685
4708, 5896, 5897, 5932, 5931, 5651, 5652, 5687, 5686
4709, 5897, 5898, 5933, 5932, 5652, 5653, 5688, 5687
4710, 5898, 5899, 5934, 5933, 5653, 5654, 5689, 5688
4711, 5899, 5900, 5935, 5934, 5654, 5655, 5690, 5689
4712, 5900, 5901, 5936, 5935, 5655, 5656, 5691, 5690
4713, 5901, 5902, 5937, 5936, 5656, 5657, 5692, 5691
4714, 5902, 5903, 5938, 5937, 5657, 5658, 5693, 5692
4715, 5903, 5904, 5939, 5938, 5658, 5659, 5694, 5693
4716, 5904, 5905, 5940, 5939, 5659, 5660, 5695, 5694
4717, 5905, 5906, 5941, 5940, 5660, 5661, 5696, 5695
4718, 5906, 5907, 5942, 5941, 5661, 5662, 5697, 5696
4719, 5907, 5908, 5943, 5942, 5662, 5663, 5698, 5697
4720, 5908, 5909, 5944, 5943, 5663, 5664, 5699, 5698
4721, 5909, 5910, 5945, 5944, 5664, 5665, 5700, 5699
4722, 5910, 5911, 5946, 5945, 5665, 5666, 5701, 5700
4723, 5911, 5912, 5947, 5946, 5666, 5667, 5702, 5701
4724, 5912, 5913, 5948, 5947, 5667, 5668, 5703, 5702
4725, 5913, 5914, 5949, 5948, 5668, 5669, 5704, 5703
4726, 5914, 5915, 5950, 5949, 5669, 5670, 5705, 5704
4727, 5916, 5917, 5952, 5951, 5671, 5672, 5707, 5706
4728, 5917, 5918, 5953, 5952, 5672, 5673, 5708, 5707
4729, 5918, 5919, 5954, 5953, 5673, 5674, 5709, 5708
4730, 5919, 5920, 5955, 5954, 5674, 5675, 5710, 5709
4731, 5920, 5921, 5956, 5955, 5675, 5676, 5711, 5710
4732, 5921, 5922, 5957, 5956, 5676, 5677, 5712, 5711
4733, 5922, 5923, 5958, 5957, 5677, 5678, 5713, 5712
4734, 5923, 5924, 5959, 5958, 5678, 5679, 5714, 5713
4735, 5924, 5925, 5960, 5959, 5679, 5680, 5715, 5714
4736, 5925, 5926, 5961, 5960, 5680, 5681, 5716, 5715
4737, 5926, 5927, 5962, 5961, 5681, 5682, 5717, 5716
4738, 5927, 5928, 5963, 5962, 5682, 5683, 5718, 5717
4739, 5928, 5929, 5964, 5963, 5683, 5684, 5719, 5718
4740, 5929, 5930, 5965, 5964, 5684, 5685, 5720, 5719
4741, 5930, 5931, 5966, 5965, 5685, 5686, 5721, 5720
4742, 5931, 5932, 5967, 5966, 5686, 5687, 5722, 5721
4743, 5932, 5933, 5968, 5967, 5687, 5688, 5723, 5722
4744, 5933, 5934, 5969, 5968, 5688, 5689, 5724, 5723
4745, 5934, 5935, 5970, 5969, 5689, 5690, 5725, 5724
4746, 5935, 5936, 5971, 5970, 5690, 5691, 5726, 5725
4747, 5936, 5937, 5972, 5971, 5691, 5692, 5727, 5726
4748, 5937, 5938, 5973, 5972, 5692, 5693, 5728, 5727
4749, 5938, 5939, 5974, 5973, 5693, 5694, 5729, 5728
4750, 5939, 5940, 5975, 5974, 5694, 5695, 5730, 5729
4751, 5940, 5941, 5976, 5975, 5695, 5696, 5731, 5730
4752, 5941, 5942, 5977, 5976, 5696, 5697, 5732, 5731
4753, 5942, 5943, 5978, 5977, 5697, 5698, 5733, 5732
4754, 5943, 5944, 5979, 5978, 5698, 5699, 5734, 5733
4755, 5944, 5945, 5980, 5979, 5699, 5700, 5735, 5734
4756, 5945, 5946, 5981, 5980, 5700, 5701, 5736, 5735
4757, 5946, 5947, 5982, 5981, 5701, 5702, 5737, 5736
4758, 5947, 5948, 5983, 5982, 5702, 5703, 5738, 5737
4759, 5948, 5949, 5984, 5983, 5703, 5704, 5739, 5738
4760, 5949, 5950, 5985, 5984, 5704, 5705, 5740, 5739
4761, 5951, 5952, 5987, 5986, 5706, 5707, 5742, 5741
4762, 5952, 5953, 5988, 5987, 5707, 5708, 5743, 5742
4763, 5953, 5954, 5989, 5988, 5708, 5709, 5744, 5743
4764, 5954, 5955, 5990, 5989, 5709, 5710, 5745, 5744
4765, 5955, 5956, 5991, 5990, 5710, 5711, 5746, 5745
4766, 5956, 5957, 5992, 5991, 5711, 5712, 5747, 5746
4767, 5957, 5958, 5993, 5992, 5712, 5713, 5748, 5747
4768, 5958, 5959, 5994, 5993, 5713, 5714, 5749, 5748
4769, 5959, 5960, 5995, 5994, 5714, 5715, 5750, 5749
4770, 5960, 5961, 5996, 5995, 5715, 5716, 5751, 5750
4771, 5961, 5962, 5997, 5996, 5716, 5717, 5752, 5751
4772, 5962, 5963, 5998, 5997, 5717, 5718, 5753, 5752
4773, 5963, 5964, 5999, 5998, 5718, 5719, 5754, 5753
4774, 5964, 5965, 6000, 5999, 5719, 5720, 5755, 5754
4775, 5965, 5966, 6001, 6000, 5720, 5721, 5756, 5755
4776, 5966, 5967, 6002, 6001, 5721, 5722, 5757, 5756
4777, 5967, 5968, 6003, 6002, 5722, 5723, 5758, 5757
4778, 5968, 5969, 6004, 6003, 5723, 5724, 5759, 5758
4779, 5969, 5970, 6005, 6004, 5724, 5725, 5760, 5759
4780, 5970, 5971, 6006, 6005, 5725, 5726, 5761, 5760
4781, 5971, 5972, 6007, 6006, 5726, 5727, 5762, 5761
4782, 5972, 5973, 6008, 6007, 5727, 5728, 5763, 5762
4783, 5973, 5974, 6009, 6008, 5728, 5729, 5764, 5763
4784, 5974, 5975, 6010, 6009, 5729, 5730, 5765, 5764
4785, 5975, 5976, 6011, 6010, 5730, 5731, 5766, 5765
4786, 5976, 5977, 6012, 6011, 5731, 5732, 5767, 5766
4787, 5977, 5978, 6013, 6012, 5732, 5733, 5768, 5767
4788, 5978, 5979, 6014, 6013, 5733, 5734, 5769, 5768
4789, 5979, 5980, 6015, 6014, 5734, 5735, 5770, 5769
4790, 5980, 5981, 6016, 6015, 5735, 5736, 5771, 5770
4791, 5981, 5982, 6017, 6016, 5736, 5737, 5772, 5771
4792, 5982, 5983, 6018, 6017, 5737, 5738, 5773, 5772
4793, 5983, 5984, 6019, 6018, 5738, 5739, 5774, 5773
4794, 5984, 5985, 6020, 6019, 5739, 5740, 5775, 5774
4795, 5986, 5987, 6022, 6021, 5741, 5742, 5777, 5776
4796, 5987, 5988, 6023, 6022, 5742, 5743, 5778, 5777
4797, 5988, 5989, 6024, 6023, 5743, 5744, 5779, 5778
4798, 5989, 5990, 6025, 6024, 5744, 5745, 5780, 5779
4799, 5990, 5991, 6026, 6025, 5745, 5746, 5781, 5780
4800, 5991, 5992, 6027, 6026, 5746, 5747, 5782, 5781
4801, 5992, 5993, 6028, 6027, 5747, 5748, 5783, 5782
4802, 5993, 5994, 6029, 6028, 5748, 5749, 5784, 5783
4803, 5994, 5995, 6030, 6029, 5749, 5750, 5785, 5784
4804, 5995, 5996, 6031, 6030, 5750, 5751, 5786, 5785
4805, 5996, 5997, 6032, 6031, 5751, 5752, 5787, 5786
4806, 5997, 5998, 6033, 6032, 5752, 5753, 5788, 5787
4807, 5998, 5999, 6034, 6033, 5753, 5754, 5789, 5788
4808, 5999, 6000, 6035, 6034, 5754, 5755, 5790, 5789
4809, 6000, 6001, 6036, 6035, 5755, 5756, 5791, 5790
4810, 6001, 6002, 6037, 6036, 5756, 5757, 5792, 5791
4811, 6002, 6003, 6038, 6037, 5757, 5758, 5793, 5792
4812, 6003, 6004, 6039, 6038, 5758, 5759, 5794, 5793
4813, 6004, 6005, 6040, 6039, 5759, 5760, 5795, 5794
4814, 6005, 6006, 6041, 6040, 5760, 5761, 5796, 5795
4815, 6006, 6007, 6042, 6041, 5761, 5762, 5797, 5796
4816, 6007, 6008, 6043, 6042, 5762, 5763, 5798, 5797
4817, 6008, 6009, 6044, 6043, 5763, 5764, 5799, 5798
4818, 6009, 6010, 6045, 6044, 5764, 5765, 5800, 5799
4819, 6010, 6011, 6046, 6045, 5765, 5766, 5801, 5800
4820, 6011, 6012, 6047, 6046, 5766, 5767, 5802, 5801
4821, 6012, 6013, 6048, 6047, 5767, 5768, 5803, 5802
4822, 6013, 6014, 6049, 6048, 5768, 5769, 5804, 5803
4823, 6014, 6015, 6050, 6049, 5769, 5770, 5805, 5804
4824, 6015, 6016, 6051, 6050, 5770, 5771, 5806, 5805
4825, 6016, 6017, 6052, 6051, 5771, 5772, 5807, 5806
4826, 6017, 6018, 6053, 6052, 5772, 5773, 5808, 5807
4827, 6018, 6019, 6054, 6053, 5773, 5774, 5809, 5808
4828, 6019, 6020, 6055, 6054, 5774, 5775, 5810, 5809
4829, 6021, 6022, 6057, 6056, 5776, 5777, 5812, 5811
4830, 6022, 6023, 6058, 6057, 5777, 5778, 5813, 5812
4831, 6023, 6024, 6059, 6058, 5778, 5779, 5814, 5813
4832, 6024, 6025, 6060, 6059, 5779, 5780, 5815, 5814
4833, 6025, 6026, 6061, 6060, 5780, 5781, 5816, 5815
4834, 6026, 6027, 6062, 6061, 5781, 5782, 5817, 5816
4835, 6027, 6028, 6063, 6062, 5782, 5783, 5818, 5817
4836, 6028, 6029, 6064, 6063, 5783, 5784, 5819, 5818
4837, 6029, 6030, 6065, 6064, 5784, 5785, 5820, 5819
4838, 6030, 6031, 6066, 6065, 5785, 5786, 5821, 5820
4839, 6031, 6032, 6067, 6066, 5786, 5787, 5822, 5821
4840, 6032, 6033, 6068, 6067, 5787, 5788, 5823, 5822
4841, 6033, 6034, 6069, 6068, 5788, 5789, 5824, 5823
4842, 6034, 6035, 6070, 6069, 5789, 5790, 5825, 5824
4843, 6035, 6036, 6071, 6070, 5790, 5791, 5826, 5825
4844, 6036, 6037, 6072, 6071, 5791, 5792, 5827, 5826
4845, 6037, 6038, 6073, 6072, 5792, 5793, 5828, 5827
4846, 6038, 6039, 6074, 6073, 5793, 5794, 5829, 5828
4847, 6039, 6040, 6075, 6074, 5794, 5795, 5830, 5829
4848, 6040, 6041, 6076, 6075, 5795, 5796, 5831, 5830
4849, 6041, 6042, 6077, 6076, 5796, 5797, 5832, 5831
4850, 6042, 6043, 6078, 6077, 5797, 5798, 5833, 5832
4851, 6043, 6044, 6079, 6078, 5798, 5799, 5834, 5833
4852, 6044, 6045, 6080, 6079, 5799, 5800, 5835, 5834
4853, 6045, 6046, 6081, 6080, 5800, 5801, 5836, 5835
4854, 6046, 6047, 6082, 6081, 5801, 5802, 5837, 5836
4855, 6047, 6048, 6083, 6082, 5802, 5803, 5838, 5837
4856, 6048, 6049, 6084, 6083, 5803, 5804, 5839, 5838
4857, 6049, 6050, 6085, 6084, 5804, 5805, 5840, 5839
4858, 6050, 6051, 6086, 6085, 5805, 5806, 5841, 5840
4859, 6051, 6052, 6087, 6086, 5806, 5807, 5842, 5841
4860, 6052, 6053, 6088, 6087, 5807, 5808, 5843, 5842
4861, 6053, 6054, 6089, 6088, 5808, 5809, 5844, 5843
4862, 6054, 6055, 6090, 6089, 5809, 5810, 5845, 5844
4863, 6056, 6057, 6092, 6091, 5811, 5812, 5847, 5846
4864, 6057, 6058, 6093, 6092, 5812, 5813, 5848, 5847
4865, 6058, 6059, 6094, 6093, 5813, 5814, 5849, 5848
4866, 6059, 6060, 6095, 6094, 5814, 5815, 5850, 5849
4867, 6060, 6061, 6096, 6095, 5815, 5816, 5851, 5850
4868, 6061, 6062, 6097, 6096, 5816, 5817, 5852, 5851
4869, 6062, 6063, 6098, 6097, 5817, 5818, 5853, 5852
4870, 6063, 6064, 6099, 6098, 5818, 5819, 5854, 5853
4871, 6064, 6065, 6100, 6099, 5819, 5820, 5855, 5854
4872, 6065, 6066, 6101, 6100, 5820, 5821, 5856, 5855
4873, 6066, 6067, 6102, 6101, 5821, 5822, 5857, 5856
4874, 6067, 6068, 6103, 6102, 5822, 5823, 5858, 5857
4875, 6068, 6069, 6104, 6103, 5823, 5824, 5859, 5858
4876, 6069, 6070, 6105, 6104, 5824, 5825, 5860, 5859
4877, 6070, 6071, 6106, 6105, 5825, 5826, 5861, 5860
4878, 6071, 6072, 6107, 6106, 5826, 5827, 5862, 5861
4879, 6072, 6073, 6108, 6107, 5827, 5828, 5863, 5862
4880, 6073, 6074, 6109, 6108, 5828, 5829, 5864, 5863
4881, 6074, 6075, 6110, 6109, 5829, 5830, 5865, 5864
4882, 6075, 6076, 6111, 6110, 5830, 5831, 5866, 5865
4883, 6076, 6077, 6112, 6111, 5831, 5832, 5867, 5866
4884, 6077, 6078, 6113, 6112, 5832, 5833, 5868, 5867
4885, 6078, 6079, 6114, 6113, 5833, 5834, 5869, 5868
4886, 6079, 6080, 6115, 6114, 5834, 5835, 5870, 5869
4887, 6080, 6081, 6116, 6115, 5835, 5836, 5871, 5870
4888, 6081, 6082, 6117, 6116, 5836, 5837, 5872, 5871
4889, 6082, 6083, 6118, 6117, 5837, 5838, 5873, 5872
4890, 6083, 6084, 6119, 6118, 5838, 5839, 5874, 5873
4891, 6084, 6085, 6120, 6119, 5839, 5840, 5875, 5874
4892, 6085, 6086, 6121, 6120, 5840, 5841, 5876, 5875
4893, 6086, 6087, 6122, 6121, 5841, 5842, 5877, 5876
4894, 6087, 6088, 6123, 6122, 5842, 5843, 5878, 5877
4895, 6088, 6089, 6124, 6123, 5843, 5844, 5879, 5878
4896, 6089, 6090, 6125, 6124, 5844, 5845, 5880, 5879
4897, 6126, 6127, 6162, 6161, 5881, 5882, 5917, 5916
4898, 6127, 6128, 6163, 6162, 5882, 5883, 5918, 5917
4899, 6128, 6129, 6164, 6163, 5883, 5884, 5919, 5918
4900, 6129, 6130, 6165, 6164, 5884, 5885, 5920, 5919
4901, 6130, 6131, 6166, 6165, 5885, 5886, 5921, 5920
4902, 6131, 6132, 6167, 6166, 5886, 5887, 5922, 5921
4903, 6132, 6133, 6168, 6167, 5887, 5888, 5923, 5922
4904, 6133, 6134, 6169, 6168, 5888, 5889, 5924, 5923
4905, 6134, 6135, 6170, 6169, 5889, 5890, 5925, 5924
4906, 6135, 6136, 6171, 6170, 5890, 5891, 5926, 5925
4907, 6136, 6137, 6172, 6171, 5891, 5892, 5927, 5926
4908, 6137, 6138, 6173, 6172, 5892, 5893, 5928, 5927
4909, 6138, 6139, 6174, 6173, 5893, 5894, 5929, 5928
4910, 6139, 6140, 6175, 6174, 5894, 5895, 5930, 5929
4911, 6140, 6141, 6176, 6175, 5895, 5896, 5931, 5930
4912, 6141, 6142, 6177, 6176, 5896, 5897, 5932, 5931
4913, 6142, 6143, 6178, 6177, 5897, 5898, 5933, 5932
4914, 6143, 6144, 6179, 6178, 5898, 5899, 5934, 5933
4915, 6144, 6145, 6180, 6179, 5899, 5900, 5935, 5934
4916, 6145, 6146, 6181, 6180, 5900, 5901, 5936, 5935
4917, 6146, 6147, 6182, 6181, 5901, 5902, 5937, 5936
4918, 6147, 6148, 6183, 6182, 5902, 5903, 5938, 5937
4919, 6148, 6149, 6184, 6183, 5903, 5904, 5939, 5938
4920, 6149, 6150, 6185, 6184, 5904, 5905, 5940, 5939
4921, 6150, 6151, 6186, 6185, 5905, 5906, 5941, 5940
4922, 6151, 6152, 6187, 6186, 5906, 5907, 5942, 5941
4923, 6152, 6153, 6188, 6187, 5907, 5908, 5943, 5942
4924, 6153, 6154, 6189, 6188, 5908, 5909, 5944, 5943
4925, 6154, 6155, 6190, 6189, 5909, 5910, 5945, 5944
4926, 6155, 6156, 6191, 6190, 5910, 5911, 5946, 5945
4927, 6156, 6157, 6192, 6191, 5911, 5912, 5947, 5946
4928, 6157, 6158, 6193, 6192, 5912, 5913, 5948, 5947
4929, 6158, 6159, 6194, 6193, 5913, 5914, 5949, 5948
4930, 6159, 6160, 6195, 6194, 5914, 5915, 5950, 5949
4931, 6161, 6162, 6197, 6196, 5916, 5917, 5952, 5951
4932, 6162, 6163, 6198, 6197, 5917, 5918, 5953, 5952
4933, 6163, 6164, 6199, 6198, 5918, 5919, 5954, 5953
4934, 6164, 6165, 6200, 6199, 5919, 5920, 5955, 5954
4935, 6165, 6166, 6201, 6200, 5920, 5921, 5956, 5955
4936, 6166, 6167, 6202, 6201, 5921, 5922, 5957, 5956
4937, 6167, 6168, 6203, 6202, 5922, 5923, 5958, 5957
4938, 6168, 6169, 6204, 6203, 5923, 5924, 5959, 5958
4939, 6169, 6170, 6205, 6204, 5924, 5925, 5960, 5959
4940, 6170, 6171, 6206, 6205, 5925, 5926, 5961, 5960
4941, 6171, 6172, 6207, 6206, 5926, 5927, 5962, 5961
4942, 6172, 6173, 6208, 6207, 5927, 5928, 5963, 5962
4943, 6173, 6174, 6209, 6208, 5928, 5929, 5964, 5963
4944, 6174, 6175, 6210, 6209, 5929, 5930, 5965, 5964
4945, 6175, 6176, 6211, 6210, 5930, 5931, 5966, 5965
4946, 6176, 6177, 6212, 6211, 5931, 5932, 5967, 5966
4947, 6177, 6178, 6213, 6212, 5932, 5933, 5968, 5967
4948, 6178, 6179, 6214, 6213, 5933, 5934, 5969, 5968
4949, 6179, 6180, 6215, 6214, 5934, 5935, 5970, 5969
4950, 6180, 6181, 6216, 6215, 5935, 5936, 5971, 5970
4951, 6181, 6182, 6217, 6216, 5936, 5937, 5972, 5971
4952, 6182, 6183, 6218, 6217, 5937, 5938, 5973, 5972
4953, 6183, 6184, 6219, 6218, 5938, 5939, 5974, 5973
4954, 6184, 6185, 6220, 6219, 5939, 5940, 5975, 5974
4955, 6185, 6186, 6221, 6220, 5940, 5941, 5976, 5975
4956, 6186, 6187, 6222, 6221, 5941, 5942, 5977, 5976
4957, 6187, 6188, 6223, 6222, 5942, 5943, 5978, 5977
4958, 6188, 6189, 6224, 6223, 5943, 5944, 5979, 5978
4959, 6189, 6190, 6225, 6224, 5944, 5945, 5980, 5979
4960, 6190, 6191, 6226, 6225, 5945, 5946, 5981, 5980
4961, 6191, 6192, 6227, 6226, 5946, 5947, 5982, 5981
4962, 6192, 6193, 6228, 6227, 5947, 5948, 5983, 5982
4963, 6193, 6194, 6229, 6228, 5948, 5949, 5984, 5983
4964, 6194, 6195, 6230, 6229, 5949, 5950, 5985, 5984
4965, 6196, 6197, 6232, 6231, 5951, 5952, 5987, 5986
4966, 6197, 6198, 6233, 6232, 5952, 5953, 5988, 5987
4967, 6198, 6199, 6234, 6233, 5953, 5954, 5989, 5988
4968, 6199, 6200, 6235, 6234, 5954, 5955, 5990, 5989
4969, 6200, 6201, 6236, 6235, 5955, 5956, 5991, 5990
4970, 6201, 6202, 6237, 6236, 5956, 5957, 5992, 5991
4971, 6202, 6203, 6238, 6237, 5957, 5958, 5993, 5992
4972, 6203, 6204, 6239, 6238, 5958, 5959, 5994, 5993
4973, 6204, 6205, 6240, 6239, 5959, 5960, 5995, 5994
4974, 6205, 6206, 6241, 6240, 5960, 5961, 5996, 5995
4975, 6206, 6207, 6242, 6241, 5961, 5962, 5997, 5996
4976, 6207, 6208, 6243, 6242, 5962, 5963, 5998, 5997
4977, 6208, 6209, 6244, 6243, 5963, 5964, 5999, 5998
4978, 6209, 6210, 6245, 6244, 5964, 5965, 6000, 5999
4979, 6210, 6211, 6246, 6245, 5965, 5966, 6001, 6000
4980, 6211, 6212, 6247, 6246, 5966, 5967, 6002, 6001
4981, 6212, 6213, 6248, 6247, 5967, 5968, 6003, 6002
4982, 6213, 6214, 6249, 6248, 5968, 5969, 6004, 6003
4983, 6214, 6215, 6250, 6249, 5969, 5970, 6005, 6004
4984, 6215, 6216, 6251, 6250, 5970, 5971, 6006, 6005
4985, 6216, 6217, 6252, 6251, 5971, 5972, 6007, 6006
4986, 6217, 6218, 6253, 6252, 5972, 5973, 6008, 6007
4987, 6218, 6219, 6254, 6253, 5973, 5974, 6009, 6008
4988, 6219, 6220, 6255, 6254, 5974, 5975, 6010, 6009
4989, 6220, 6221, 6256, 6255, 5975, 5976, 6011, 6010
4990, 6221, 6222, 6257, 6256, 5976, 5977, 6012, 6011
4991, 6222, 6223, 6258, 6257, 5977, 5978, 6013, 6012
4992, 6223, 6224, 6259, 6258, 5978, 5979, 6014, 6013
4993, 6224, 6225, 6260, 6259, 5979, 5980, 6015, 6014
4994, 6225, 6226, 6261, 6260, 5980, 5981, 6016, 6015
4995, 6226, 6227, 6262, 6261, 5981, 5982, 6017, 6016
4996, 6227, 6228, 6263, 6262, 5982, 5983, 6018, 6017
4997, 6228, 6229, 6264, 6263, 5983, 5984, 6019, 6018
4998, 6229, 6230, 6265, 6264, 5984, 5985, 6020, 6019
4999, 6231, 6232, 6267, 6266, 5986, 5987, 6022, 6021
5000, 6232, 6233, 6268, 6267, 5987, 5988, 6023, 6022
5001, 6233, 6234, 6269, 6268, 5988, 5989, 6024, 6023
5002, 6234, 6235, 6270, 6269, 5989, 5990, 6025, 6024
5003, 6235, 6236, 6271, 6270, 5990, 5991, 6026, 6025
5004, 6236, 6237, 6272, 6271, 5991, 5992, 6027, 6026
5005, 6237, 6238, 6273, 6272, 5992, 5993, 6028, 6027
5006, 6238, 6239, 6274, 6273, 5993, 5994, 6029, 6028
5007, 6239, 6240, 6275, 6274, 5994, 5995, 6030, 6029
5008, 6240, 6241, 6276, 6275, 5995, 5996, 6031, 6030
5009, 6241, 6242, 6277, 6276, 5996, 5997, 6032, 6031
5010, 6242, 6243, 6278, 6277, 5997, 5998, 6033, 6032
5011, 6243, 6244, 6279, 6278, 5998, 5999, 6034, 6033
5012, 6244, 6245, 6280, 6279, 5999, 6000, 6035, 6034
5013, 6245, 6246, 6281, 6280, 6000, 6001, 6036, 6035
5014, 6246, 6247, 6282, 6281, 6001, 6002, 6037, 6036
5015, 6247, 6248, 6283, 6282, 6002, 6003, 6038, 6037
5016, 6248, 6249, 6284, 6283, 6003, 6004, 6039, 6038
5017, 6249, 6250, 6285, 6284, 6004, 6005, 6040, 6039
5018, 6250, 6251, 6286, 6285, 6005, 6006, 6041, 6040
5019, 6251, 6252, 6287, 6286, 6006, 6007, 6042, 6041
5020, 6252, 6253, 6288, 6287, 6007, 6008, 6043, 6042
5021, 6253, 6254, 6289, 6288, 6008, 6009, 6044, 6043
5022, 6254, 6255, 6290, 6289, 6009, 6010, 6045, 6044
5023, 6255, 6256, 6291, 6290, 6010, 6011, 6046, 6045
5024, 6256, 6257, 6292, 6291, 6011, 6012, 6047, 6046
5025, 6257, 6258, 6293, 6292, 6012, 6013, 6048, 6047
5026, 6258, 6259, 6294, 6293, 6013, 6014, 6049, 6048
5027, 6259, 6260, 6295, 6294, 6014, 6015, 6050, 6049
5028, 6260, 6261, 6296, 6295, 6015, 6016, 6051, 6050
5029, 6261, 6262, 6297, 6296, 6016, 6017, 6052, 6051
5030, 6262, 6263, 6298, 6297, 6017, 6018, 6053, 6052
5031, 6263, 6264, 6299, 6298, 6018, 6019, 6054, 6053
5032, 6264, 6265, 6300, 6299, 6019, 6020, 6055, 6054
5033, 6266, 6267, 6302, 6301, 6021, 6022, 6057, 6056
5034, 6267, 6268, 6303, 6302, 6022, 6023, 6058, 6057
5035, 6268, 6269, 6304, 6303, 6023, 6024, 6059, 6058
5036, 6269, 6270, 6305, 6304, 6024, 6025, 6060, 6059
5037, 6270, 6271, 6306, 6305, 6025, 6026, 6061, 6060
5038, 6271, 6272, 6307, 6306, 6026, 6027, 6062, 6061
5039, 6272, 6273, 6308, 6307, 6027, 6028, 6063, 6062
5040, 6273, 6274, 6309, 6308, 6028, 6029, 6064, 6063
5041, 6274, 6275, 6310, 6309, 6029, 6030, 6065, 6064
5042, 6275, 6276, 6311, 6310, 6030, 6031, 6066, 6065
5043, 6276, 6277, 6312, 6311, 6031, 6032, 6067, 6066
5044, 6277, 6278, 6313, 6312, 6032, 6033, 6068, 6067
5045, 6278, 6279, 6314, 6313, 6033, 6034, 6069, 6068
5046, 6279, 6280, 6315, 6314, 6034, 6035, 6070, 6069
5047, 6280, 6281, 6316, 6315, 6035, 6036, 6071, 6070
5048, 6281, 6282, 6317, 6316, 6036, 6037, 6072, 6071
5049, 6282, 6283, 6318, 6317, 6037, 6038, 6073, 6072
5050, 6283, 6284, 6319, 6318, 6038, 6039, 6074, 6073
5051, 6284, 6285, 6320, 6319, 6039, 6040, 6075, 6074
5052, 6285, 6286, 6321, 6320, 6040, 6041, 6076, 6075
5053, 6286, 6287, 6322, 6321, 6041, 6042, 6077, 6076
5054, 6287, 6288, 6323, 6322, 6042, 6043, 6078, 6077
5055, 6288, 6289, 6324, 6323, 6043, 6044, 6079, 6078
5056, 6289, 6290, 6325, 6324, 6044, 6045, 6080, 6079
5057, 6290, 6291, 6326, 6325, 6045, 6046, 6081, 6080
5058, 6291, 6292, 6327, 6326, 6046, 6047, 6082, 6081
5059, 6292, 6293, 6328, 6327, 6047, 6048, 6083, 6082
5060, 6293, 6294, 6329, 6328, 6048, 6049, 6084, 6083
5061, 6294, 6295, 6330, 6329, 6049, 6050, 6085, 6084
5062, 6295, 6296, 6331, 6330, 6050, 6051, 6086, 6085
5063, 6296, 6297, 6332, 6331, 6051, 6052, 6087, 6086
5064, 6297, 6298, 6333, 6332, 6052, 6053, 6088, 6087
5065, 6298, 6299, 6334, 6333, 6053, 6054, 6089, 6088
5066, 6299, 6300, 6335, 6334, 6054, 6055, 6090, 6089
5067, 6301, 6302, 6337, 6336, 6056, 6057, 6092, 6091
5068, 6302, 6303, 6338, 6337, 6057, 6058, 6093, 6092
5069, 6303, 6304, 6339, 6338, 6058, 6059, 6094, 6093
5070, 6304, 6305, 6340, 6339, 6059, 6060, 6095, 6094
5071, 6305, 6306, 6341, 6340, 6060, 6061, 6096, 6095
5072, 6306, 6307, 6342, 6341, 6061, 6062, 6097, 6096
5073, 6307, 6308, 6343, 6342, 6062, 6063, 6098, 6097
5074, 6308, 6309, 6344, 6343, 6063, 6064, 6099, 6098
5075, 6309, 6310, 6345, 6344, 6064, 6065, 6100, 6099
5076, 6310, 6311, 6346, 6345, 6065, 6066, 6101, 6100
5077, 6311, 6312, 6347, 6346, 6066, 6067, 6102, 6101
5078, 6312, 6313, 6348, 6347, 6067, 6068, 6103, 6102
5079, 6313, 6314, 6349, 6348, 6068, 6069, 6104, 6103
5080, 6314, 6315, 6350, 6349, 6069, 6070, 6105, 6104
5081, 6315, 6316, 6351, 6350, 6070, 6071, 6106, 6105
5082, 6316, 6317, 6352, 6351, 6071, 6072, 6107, 6106
5083, 6317, 6318, 6353, 6352, 6072, 6073, 6108, 6107
5084, 6318, 6319, 6354, 6353, 6073, 6074, 6109, 6108
5085, 6319, 6320, 6355, 6354, 6074, 6075, 6110, 6109
5086, 6320, 6321, 6356, 6355, 6075, 6076, 6111, 6110
5087, 6321, 6322, 6357, 6356, 6076, 6077, 6112, 6111
5088, 6322, 6323, 6358, 6357, 6077, 6078, 6113, 6112
5089, 6323, 6324, 6359, 6358, 6078, 6079, 6114, 6113
5090, 6324, 6325, 6360, 6359, 6079, 6080, 6115, 6114
5091, 6325, 6326, 6361, 6360, 6080, 6081, 6116, 6115
5092, 6326, 6327, 6362, 6361, 6081, 6082, 6117, 6116
5093, 6327, 6328, 6363, 6362, 6082, 6083, 6118, 6117
5094, 6328, 6329, 6364, 6363, 6083, 6084, 6119, 6118
5095, 6329, 6330, 6365, 6364, 6084, 6085, 6120, 6119
5096, 6330, 6331, 6366, 6365, 6085, 6086, 6121, 6120
5097, 6331, 6332, 6367, 6366, 6086, 6087, 6122, 6121
5098, 6332, 6333, 6368, 6367, 6087, 6088, 6123, 6122
5099, 6333, 6334, 6369, 6368, 6088, 6089, 6124, 6123
5100, 6334, 6335, 6370, 6369, 6089, 6090, 6125, 6124
5101, 6371, 6372, 6407, 6406, 6126, 6127, 6162, 6161
5102, 6372, 6373, 6408, 6407, 6127, 6128, 6163, 6162
5103, 6373, 6374, 6409, 6408, 6128, 6129, 6164, 6163
5104, 6374, 6375, 6410, 6409, 6129, 6130, 6165, 6164
5105, 6375, 6376, 6411, 6410, 6130, 6131, 6166, 6165
5106, 6376, 6377, 6412, 6411, 6131, 6132, 6167, 6166
5107, 6377, 6378, 6413, 6412, 6132, 6133, 6168, 6167
5108, 6378, 6379, 6414, 6413, 6133, 6134, 6169, 6168
5109, 6379, 6380, 6415, 6414, 6134, 6135, 6170, 6169
5110, 6380, 6381, 6416, 6415, 6135, 6136, 6171, 6170
5111, 6381, 6382, 6417, 6416, 6136, 6137, 6172, 6171
5112, 6382, 6383, 6418, 6417, 6137, 6138, 6173, 6172
5113, 6383, 6384, 6419, 6418, 6138, 6139, 6174, 6173
5114, 6384, 6385, 6420, 6419, 6139, 6140, 6175, 6174
5115, 6385, 6386, 6421, 6420, 6140, 6141, 6176, 6175
5116, 6386, 6387, 6422, 6421, 6141, 6142, 6177, 6176
5117, 6387, 6388, 6423, 6422, 6142, 6143, 6178, 6177
5118, 6388, 6389, 6424, 6423, 6143, 6144, 6179, 6178
5119, 6389, 6390, 6425, 6424, 6144, 6145, 6180, 6179
5120, 6390, 6391, 6426, 6425, 6145, 6146, 6181, 6180
5121, 6391, 6392, 6427, 6426, 6146, 6147, 6182, 6181
5122, 6392, 6393, 6428, 6427, 6147, 6148, 6183, 6182
5123, 6393, 6394, 6429, 6428, 6148, 6149, 6184, 6183
5124, 6394, 6395, 6430, 6429, 6149, 6150, 6185, 6184
5125, 6395, 6396, 6431, 6430, 6150, 6151, 6186, 6185
5126, 6396, 6397, 6432, 6431, 6151, 6152, 6187, 6186
5127, 6397, 6398, 6433, 6432, 6152, 6153, 6188, 6187
5128, 6398, 6399, 6434, 6433, 6153, 6154, 6189, 6188
5129, 6399, 6400, 6435, 6434, 6154, 6155, 6190, 6189
5130, 6400, 6401, 6436, 6435, 6155, 6156, 6191, 6190
5131, 6401, 6402, 6437, 6436, 6156, 6157, 6192, 6191
5132, 6402, 6403, 6438, 6437, 6157, 6158, 6193, 6192
5133, 6403, 6404, 6439, 6438, 6158, 6159, 6194, 6193
5134, 6404, 6405, 6440, 6439, 6159, 6160, 6195, 6194
5135, 6406, 6407, 6442, 6441, 6161, 6162, 6197, 6196
5136, 6407, 6408, 6443, 6442, 6162, 6163, 6198, 6197
5137, 6408, 6409, 6444, 6443, 6163, 6164, 6199, 6198
5138, 6409, 6410, 6445, 6444, 6164, 6165, 6200, 6199
5139, 6410, 6411, 6446, 6445, 6165, 6166, 6201, 6200
5140, 6411, 6412, 6447, 6446, 6166, 6167, 6202, 6201
5141, 6412, 6413, 6448, 6447, 6167, 6168, 6203, 6202
5142, 6413, 6414, 6449, 6448, 6168, 6169, 6204, 6203
5143, 6414, 6415, 6450, 6449, 6169, 6170, 6205, 6204
5144, 6415, 6416, 6451, 6450, 6170, 6171, 6206, 6205
5145, 6416, 6417, 6452, 6451, 6171, 6172, 6207, 6206
5146, 6417, 6418, 6453, 6452, 6172, 6173, 6208, 6207
5147, 6418, 6419, 6454, 6453, 6173, 6174, 6209, 6208
5148, 6419, 6420, 6455, 6454, 6174, 6175, 6210, 6209
5149, 6420, 6421, 6456, 6455, 6175, 6176, 6211, 6210
5150, 6421, 6422, 6457, 6456, 6176, 6177, 6212, 6211
5151, 6422, 6423, 6458, 6457, 6177, 6178, 6213, 6212
5152, 6423, 6424, 6459, 6458, 6178, 6179, 6214, 6213
5153, 6424, 6425, 6460, 6459, 6179, 6180, 6215, 6214
5154, 6425, 6426, 6461, 6460, 6180, 6181, 6216, 6215
5155, 6426, 6427, 6462, 6461, 6181, 6182, 6217, 6216
5156, 6427, 6428, 6463, 6462, 6182, 6183, 6218, 6217
5157, 6428, 6429, 6464, 6463, 6183, 6184, 6219, 6218
5158, 6429, 6430, 6465, 6464, 6184, 6185, 6220, 6219
5159, 6430, 6431, 6466, 6465, 6185, 6186, 6221, 6220
5160, 6431, 6432, 6467, 6466, 6186, 6187, 6222, 6221
5161, 6432, 6433, 6468, 6467, 6187, 6188, 6223, 6222
5162, 6433, 6434, 6469, 6468, 6188, 6189, 6224, 6223
5163, 6434, 6435, 6470, 6469, 6189, 6190, 6225, 6224
5164, 6435, 6436, 6471, 6470, 6190, 6191, 6226, 6225
5165, 6436, 6437, 6472, 6471, 6191, 6192, 6227, 6226
5166, 6437, 6438, 6473, 6472, 6192, 6193, 6228, 6227
5167, 6438, 6439, 6474, 6473, 6193, 6194, 6229, 6228
5168, 6439, 6440, 6475, 6474, 6194, 6195, 6230, 6229
5169, 6441, 6442, 6477, 6476, 6196, 6197, 6232, 6231
5170, 6442, 6443, 6478, 6477, 6197, 6198, 6233, 6232
5171, 6443, 6444, 6479, 6478, 6198, 6199, 6234, 6233
5172, 6444, 6445, 6480, 6479, 6199, 6200, 6235, 6234
5173, 6445, 6446, 6481, 6480, 6200, 6201, 6236, 6235
5174, 6446, 6447, 6482, 6481, 6201, 6202, 6237, 6236
5175, 6447, 6448, 6483, 6482, 6202, 6203, 6238, 6237
5176, 6448, 6449, 6484, 6483, 6203, 6204, 6239, 6238
5177, 6449, 6450, 6485, 6484, 6204, 6205, 6240, 6239
5178, 6450, 6451, 6486, 6485, 6205, 6206, 6241, 6240
5179, 6451, 6452, 6487, 6486, 6206, 6207, 6242, 6241
5180, 6452, 6453, 6488, 6487, 6207, 6208, 6243, 6242
5181, 6453, 6454, 6489, 6488, 6208, 6209, 6244, 6243
5182, 6454, 6455, 6490, 6489, 6209, 6210, 6245, 6244
5183, 6455, 6456, 6491, 6490, 6210, 6211, 6246, 6245
5184, 6456, 6457, 6492, 6491, 6211, 6212, 6247, 6246
5185, 6457, 6458, 6493, 6492, 6212, 6213, 6248, 6247
5186, 6458, 6459, 6494, 6493, 6213, 6214, 6249, 6248
5187, 6459, 6460, 6495, 6494, 6214, 6215, 6250, 6249
5188, 6460, 6461, 6496, 6495, 6215, 6216, 6251, 6250
5189, 6461, 6462, 6497, 6496, 6216, 6217, 6252, 6251
5190, 6462, 6463, 6498, 6497, 6217, 6218, 6253, 6252
5191, 6463, 6464, 6499, 6498, 6218, 6219, 6254, 6253
5192, 6464, 6465, 6500, 6499, 6219, 6220, 6255, 6254
5193, 6465, 6466, 6501, 6500, 6220, 6221, 6256, 6255
5194, 6466, 6467, 6502, 6501, 6221, 6222, 6257, 6256
5195, 6467, 6468, 6503, 6502, 6222, 6223, 6258, 6257
5196, 6468, 6469, 6504, 6503, 6223, 6224, 6259, 6258
5197, 6469, 6470, 6505, 6504, 6224, 6225, 6260, 6259
5198, 6470, 6471, 6506, 6505, 6225, 6226, 6261, 6260
5199, 6471, 6472, 6507, 6506, 6226, 6227, 6262, 6261
5200, 6472, 6473, 6508, 6507, 6227, 6228, 6263, 6262
5201, 6473, 6474, 6509, 6508, 6228, 6229, 6264, 6263
5202, 6474, 6475, 6510, 6509, 6229, 6230, 6265, 6264
5203, 6476, 6477, 6512, 6511, 6231, 6232, 6267, 6266
5204, 6477, 6478, 6513, 6512, 6232, 6233, 6268, 6267
5205, 6478, 6479, 6514, 6513, 6233, 6234, 6269, 6268
5206, 6479, 6480, 6515, 6514, 6234, 6235, 6270, 6269
5207, 6480, 6481, 6516, 6515, 6235, 6236, 6271, 6270
5208, 6481, 6482, 6517, 6516, 6236, 6237, 6272, 6271
5209, 6482, 6483, 6518, 6517, 6237, 6238, 6273, 6272
5210, 6483, 6484, 6519, 6518, 6238, 6239, 6274, 6273
5211, 6484, 6485, 6520, 6519, 6239, 6240, 6275, 6274
5212, 6485, 6486, 6521, 6520, 6240, 6241, 6276, 6275
5213, 6486, 6487, 6522, 6521, 6241, 6242, 6277, 6276
5214, 6487, 6488, 6523, 6522, 6242, 6243, 6278, 6277
5215, 6488, 6489, 6524, 6523, 6243, 6244, 6279, 6278
5216, 6489, 6490, 6525, 6524, 6244, 6245, 6280, 6279
5217, 6490, 6491, 6526, 6525, 6245, 6246, 6281, 6280
5218, 6491, 6492, 6527, 6526, 6246, 6247, 6282, 6281
5219, 6492, 6493, 6528, 6527, 6247, 6248, 6283, 6282
5220, 6493, 6494, 6529, 6528, 6248, 6249, 6284, 6283
5221, 6494, 6495, 6530, 6529, 6249, 6250, 6285, 6284
5222, 6495, 6496, 6531, 6530, 6250, 6251, 6286, 6285
5223, 6496, 6497, 6532, 6531, 6251, 6252, 6287, 6286
5224, 6497, 6498, 6533, 6532, 6252, 6253, 6288, 6287
5225, 6498, 6499, 6534, 6533, 6253, 6254, 6289, 6288
5226, 6499, 6500, 6535, 6534, 6254, 6255, 6290, 6289
5227, 6500, 6501, 6536, 6535, 6255, 6256, 6291, 6290
5228, 6501, 6502, 6537, 6536, 6256, 6257, 6292, 6291
5229, 6502, 6503, 6538, 6537, 6257, 6258, 6293, 6292
5230, 6503, 6504, 6539, 6538, 6258, 6259, 6294, 6293
5231, 6504, 6505, 6540, 6539, 6259, 6260, 6295, 6294
5232, 6505, 6506, 6541, 6540, 6260, 6261, 6296, 6295
5233, 6506, 6507, 6542, 6541, 6261, 6262, 6297, 6296
5234, 6507, 6508, 6543, 6542, 6262, 6263, 6298, 6297
5235, 6508, 6509, 6544, 6543, 6263, 6264, 6299, 6298
5236, 6509, 6510, 6545, 6544, 6264, 6265, 6300, 6299
5237, 6511, 6512, 6547, 6546, 6266, 6267, 6302, 6301
5238, 6512, 6513, 6548, 6547, 6267, 6268, 6303, 6302
5239, 6513, 6514, 6549, 6548, 6268, 6269, 6304, 6303
5240, 6514, 6515, 6550, 6549, 6269, 6270, 6305, 6304
5241, 6515, 6516, 6551, 6550, 6270, 6271, 6306, 6305
5242, 6516, 6517, 6552, 6551, 6271, 6272, 6307, 6306
5243, 6517, 6518, 6553, 6552, 6272, 6273, 6308, 6307
5244, 6518, 6519, 6554, 6553, 6273, 6274, 6309, 6308
5245, 6519, 6520, 6555, 6554, 6274, 6275, 6310, 6309
5246, 6520, 6521, 6556, 6555, 6275, 6276, 6311, 6310
5247, 6521, 6522, 6557, 6556, 6276, 6277, 6312, 6311
5248, 6522, 6523, 6558, 6557, 6277, 6278, 6313, 6312
5249, 6523, 6524, 6559, 6558, 6278, 6279, 6314, 6313
5250, 6524, 6525, 6560, 6559, 6279, 6280, 6315, 6314
5251, 6525, 6526, 6561, 6560, 6280, 6281, 6316, 6315
5252, 6526, 6527, 6562, 6561, 6281, 6282, 6317, 6316
5253, 6527, 6528, 6563, 6562, 6282, 6283, 6318, 6317
5254, 6528, 6529, 6564, 6563, 6283, 6284, 6319, 6318
5255, 6529, 6530, 6565, 6564, 6284, 6285, 6320, 6319
5256, 6530, 6531, 6566, 6565, 6285, 6286, 6321, 6320
5257, 6531, 6532, 6567, 6566, 6286, 6287, 6322, 6321
5258, 6532, 6533, 6568, 6567, 6287, 6288, 6323, 6322
5259, 6533, 6534, 6569, 6568, 6288, 6289, 6324, 6323
5260, 6534, 6535, 6570, 6569, 6289, 6290, 6325, 6324
5261, 6535, 6536, 6571, 6570, 6290, 6291, 6326, 6325
5262, 6536, 6537, 6572, 6571, 6291, 6292, 6327, 6326
5263, 6537, 6538, 6573, 6572, 6292, 6293, 6328, 6327
5264, 6538, 6539, 6574, 6573, 6293, 6294, 6329, 6328
5265, 6539, 6540, 6575, 6574, 6294, 6295, 6330, 6329
5266, 6540, 6541, 6576, 6575, 6295, 6296, 6331, 6330
5267, 6541, 6542, 6577, 6576, 6296, 6297, 6332, 6331
5268, 6542, 6543, 6578, 6577, 6297, 6298, 6333, 6332
5269, 6543, 6544, 6579, 6578, 6298, 6299, 6334, 6333
5270, 6544, 6545, 6580, 6579, 6299, 6300, 6335, 6334
5271, 6546, 6547, 6582, 6581, 6301, 6302, 6337, 6336
5272, 6547, 6548, 6583, 6582, 6302, 6303, 6338, 6337
5273, 6548, 6549, 6584, 6583, 6303, 6304, 6339, 6338
5274, 6549, 6550, 6585, 6584, 6304, 6305, 6340, 6339
5275, 6550, 6551, 6586, 6585, 6305, 6306, 6341, 6340
5276, 6551, 6552, 6587, 6586, 6306, 6307, 6342, 6341
5277, 6552, 6553, 6588, 6587, 6307, 6308, 6343, 6342
5278, 6553, 6554, 6589, 6588, 6308, 6309, 6344, 6343
5279, 6554, 6555, 6590, 6589, 6309, 6310, 6345, 6344
5280, 6555, 6556, 6591, 6590, 6310, 6311, 6346, 6345
5281, 6556, 6557, 6592, 6591, 6311, 6312, 6347, 6346
5282, 6557, 6558, 6593, 6592, 6312, 6313, 6348, 6347
5283, 6558, 6559, 6594, 6593, 6313, 6314, 6349, 6348
5284, 6559, 6560, 6595, 6594, 6314, 6315, 6350, 6349
5285, 6560, 6561, 6596, 6595, 6315, 6316, 6351, 6350
5286, 6561, 6562, 6597, 6596, 6316, 6317, 6352, 6351
5287, 6562, 6563, 6598, 6597, 6317, 6318, 6353, 6352
5288, 6563, 6564, 6599, 6598, 6318, 6319, 6354, 6353
5289, 6564, 6565, 6600, 6599, 6319, 6320, 6355, 6354
5290, 6565, 6566, 6601, 6600, 6320, 6321, 6356, 6355
5291, 6566, 6567, 6602, 6601, 6321, 6322, 6357, 6356
5292, 6567, 6568, 6603, 6602, 6322, 6323, 6358, 6357
5293, 6568, 6569, 6604, 6603, 6323, 6324, 6359, 6358
5294, 6569, 6570, 6605, 6604, 6324, 6325, 6360, 6359
5295, 6570, 6571, 6606, 6605, 6325, 6326, 6361, 6360
5296, 6571, 6572, 6607, 6606, 6326, 6327, 6362, 6361
5297, 6572, 6573, 6608, 6607, 6327, 6328, 6363, 6362
5298, 6573, 6574, 6609, 6608, 6328, 6329, 6364, 6363
5299, 6574, 6575, 6610, 6609, 6329, 6330, 6365, 6364
5300, 6575, 6576, 6611, 6610, 6330, 6331, 6366, 6365
5301, 6576, 6577, 6612, 6611, 6331, 6332, 6367, 6366
5302, 6577, 6578, 6613, 6612, 6332, 6333, 6368, 6367
5303, 6578, 6579, 6614, 6613, 6333, 6334, 6369, 6368
5304, 6579, 6580, 6615, 6614, 6334, 6335, 6370, 6369
5305, 6616, 6617, 6652, 6651, 6371, 6372, 6407, 6406
5306, 6617, 6618, 6653, 6652, 6372, 6373, 6408, 6407
5307, 6618, 6619, 6654, 6653, 6373, 6374, 6409, 6408
5308, 6619, 6620, 6655, 6654, 6374, 6375, 6410, 6409
5309, 6620, 6621, 6656, 6655, 6375, 6376, 6411, 6410
5310, 6621, 6622, 6657, 6656, 6376, 6377, 6412, 6411
5311, 6622, 6623, 6658, 6657, 6377, 6378, 6413, 6412
5312, 6623, 6624, 6659, 6658, 6378, 6379, 6414, 6413
5313, 6624, 6625, 6660, 6659, 6379, 6380, 6415, 6414
5314, 6625, 6626, 6661, 6660, 6380, 6381, 6416, 6415
5315, 6626, 6627, 6662, 6661, 6381, 6382, 6417, 6416
5316, 6627, 6628, 6663, 6662, 6382, 6383, 6418, 6417
5317, 6628, 6629, 6664, 6663, 6383, 6384, 6419, 6418
5318, 6629, 6630, 6665, 6664, 6384, 6385, 6420, 6419
5319, 6630, 6631, 6666, 6665, 6385, 6386, 6421, 6420
5320, 6631, 6632, 6667, 6666, 6386, 6387, 6422, 6421
5321, 6632, 6633, 6668, 6667, 6387, 6388, 6423, 6422
5322, 6633, 6634, 6669, 6668, 6388, 6389, 6424, 6423
5323, 6634, 6635, 6670, 6669, 6389, 6390, 6425, 6424
5324, 6635, 6636, 6671, 6670, 6390, 6391, 6426, 6425
5325, 6636, 6637, 6672, 6671, 6391, 6392, 6427, 6426
5326, 6637, 6638, 6673, 6672, 6392, 6393, 6428, 6427
5327, 6638, 6639, 6674, 6673, 6393, 6394, 6429, 6428
5328, 6639, 6640, 6675, 6674, 6394, 6395, 6430, 6429
5329, 6640, 6641, 6676, 6675, 6395, 6396, 6431, 6430
5330, 6641, 6642, 6677, 6676, 6396, 6397, 6432, 6431
5331, 6642, 6643, 6678, 6677, 6397, 6398, 6433, 6432
5332, 6643, 6644, 6679, 6678, 6398, 6399, 6434, 6433
5333, 6644, 6645, 6680, 6679, 6399, 6400, 6435, 6434
5334, 6645, 6646, 6681, 6680, 6400, 6401, 6436, 6435
5335, 6646, 6647, 6682, 6681, 6401, 6402, 6437, 6436
5336, 6647, 6648, 6683, 6682, 6402, 6403, 6438, 6437
5337, 6648, 6649, 6684, 6683, 6403, 6404, 6439, 6438
5338, 6649, 6650, 6685, 6684, 6404, 6405, 6440, 6439
5339, 6651, 6652, 6687, 6686, 6406, 6407, 6442, 6441
5340, 6652, 6653, 6688, 6687, 6407, 6408, 6443, 6442
5341, 6653, 6654, 6689, 6688, 6408, 6409, 6444, 6443
5342, 6654, 6655, 6690, 6689, 6409, 6410, 6445, 6444
5343, 6655, 6656, 6691, 6690, 6410, 6411, 6446, 6445
5344, 6656, 6657, 6692, 6691, 6411, 6412, 6447, 6446
5345, 6657, 6658, 6693, 6692, 6412, 6413, 6448, 6447
5346, 6658, 6659, 6694, 6693, 6413, 6414, 6449, 6448
5347, 6659, 6660, 6695, 6694, 6414, 6415, 6450, 6449
5348, 6660, 6661, 6696, 6695, 6415, 6416, 6451, 6450
5349, 6661, 6662, 6697, 6696, 6416, 6417, 6452, 6451
5350, 6662, 6663, 6698, 6697, 6417, 6418, 6453, 6452
5351, 6663, 6664, 6699, 6698, 6418, 6419, 6454, 6453
5352, 6664, 6665, 6700, 6699, 6419, 6420, 6455, 6454
5353, 6665, 6666, 6701, 6700, 6420, 6421, 6456, 6455
5354, 6666, 6667, 6702, 6701, 6421, 6422, 6457, 6456
5355, 6667, 6668, 6703, 6702, 6422, 6423, 6458, 6457
5356, 6668, 6669, 6704, 6703, 6423, 6424, 6459, 6458
5357, 6669, 6670, 6705, 6704, 6424, 6425, 6460, 6459
5358, 6670, 6671, 6706, 6705, 6425, 6426, 6461, 6460
5359, 6671, 6672, 6707, 6706, 6426, 6427, 6462, 6461
5360, 6672, 6673, 6708, 6707, 6427, 6428, 6463, 6462
5361, 6673, 6674, 6709, 6708, 6428, 6429, 6464, 6463
5362, 6674, 6675, 6710, 6709, 6429, 6430, 6465, 6464
5363, 6675, 6676, 6711, 6710, 6430, 6431, 6466, 6465
5364, 6676, 6677, 6712, 6711, 6431, 6432, 6467, 6466
5365, 6677, 6678, 6713, 6712, 6432, 6433, 6468, 6467
5366, 6678, 6679, 6714, 6713, 6433, 6434, 6469, 6468
5367, 6679, 6680, 6715, 6714, 6434, 6435, 6470, 6469
5368, 6680, 6681, 6716, 6715, 6435, 6436, 6471, 6470
5369, 6681, 6682, 6717, 6716, 6436, 6437, 6472, 6471
5370, 6682, 6683, 6718, 6717, 6437, 6438, 6473, 6472
5371, 6683, 6684, 6719, 6718, 6438, 6439, 6474, 6473
5372, 6684, 6685, 6720, 6719, 6439, 6440, 6475, 6474
5373, 6686, 6687, 6722, 6721, 6441, 6442, 6477, 6476
5374, 6687, 6688, 6723, 6722, 6442, 6443, 6478, 6477
5375, 6688, 6689, 6724, 6723, 6443, 6444, 6479, 6478
5376, 6689, 6690, 6725, 6724, 6444, 6445, 6480, 6479
5377, 6690, 6691, 6726, 6725, 6445, 6446, 6481, 6480
5378, 6691, 6692, 6727, 6726, 6446, 6447, 6482, 6481
5379, 6692, 6693, 6728, 6727, 6447, 6448, 6483, 6482
5380, 6693, 6694, 6729, 6728, 6448, 6449, 6484, 6483
5381, 6694, 6695, 6730, 6729, 6449, 6450, 6485, 6484
5382, 6695, 6696, 6731, 6730, 6450, 6451, 6486, 6485
5383, 6696, 6697, 6732, 6731, 6451, 6452, 6487, 6486
5384, 6697, 6698, 6733, 6732, 6452, 6453, 6488, 6487
5385, 6698, 6699, 6734, 6733, 6453, 6454, 6489, 6488
5386, 6699, 6700, 6735, 6734, 6454, 6455, 6490, 6489
5387, 6700, 6701, 6736, 6735, 6455, 6456, 6491, 6490
5388, 6701, 6702, 6737, 6736, 6456, 6457, 6492, 6491
5389, 6702, 6703, 6738, 6737, 6457, 6458, 6493, 6492
5390, 6703, 6704, 6739, 6738, 6458, 6459, 6494, 6493
5391, 6704, 6705, 6740, 6739, 6459, 6460, 6495, 6494
5392, 6705, 6706, 6741, 6740, 6460, 6461, 6496, 6495
5393, 6706, 6707, 6742, 6741, 6461, 6462, 6497, 6496
5394, 6707, 6708, 6743, 6742, 6462, 6463, 6498, 6497
5395, 6708, 6709, 6744, 6743, 6463, 6464, 6499, 6498
5396, 6709, 6710, 6745, 6744, 6464, 6465, 6500, 6499
5397, 6710, 6711, 6746, 6745, 6465, 6466, 6501, 6500
5398, 6711, 6712, 6747, 6746, 6466, 6467, 6502, 6501
5399, 6712, 6713, 6748, 6747, 6467, 6468, 6503, 6502
5400, 6713, 6714, 6749, 6748, 6468, 6469, 6504, 6503
5401, 6714, 6715, 6750, 6749, 6469, 6470, 6505, 6504
5402, 6715, 6716, 6751, 6750, 6470, 6471, 6506, 6505
5403, 6716, 6717, 6752, 6751, 6471, 6472, 6507, 6506
5404, 6717, 6718, 6753, 6752, 6472, 6473, 6508, 6507
5405, 6718, 6719, 6754, 6753, 6473, 6474, 6509, 6508
5406, 6719, 6720, 6755, 6754, 6474, 6475, 6510, 6509
5407, 6721, 6722, 6757, 6756, 6476, 6477, 6512, 6511
5408, 6722, 6723, 6758, 6757, 6477, 6478, 6513, 6512
5409, 6723, 6724, 6759, 6758, 6478, 6479, 6514, 6513
5410, 6724, 6725, 6760, 6759, 6479, 6480, 6515, 6514
5411, 6725, 6726, 6761, 6760, 6480, 6481, 6516, 6515
5412, 6726, 6727, 6762, 6761, 6481, 6482, 6517, 6516
5413, 6727, 6728, 6763, 6762, 6482, 6483, 6518, 6517
5414, 6728, 6729, 6764, 6763, 6483, 6484, 6519, 6518
5415, 6729, 6730, 6765, 6764, 6484, 6485, 6520, 6519
5416, 6730, 6731, 6766, 6765, 6485, 6486, 6521, 6520
5417, 6731, 6732, 6767, 6766, 6486, 6487, 6522, 6521
5418, 6732, 6733, 6768, 6767, 6487, 6488, 6523, 6522
5419, 6733, 6734, 6769, 6768, 6488, 6489, 6524, 6523
5420, 6734, 6735, 6770, 6769, 6489, 6490, 6525, 6524
5421, 6735, 6736, 6771, 6770, 6490, 6491, 6526, 6525
5422, 6736, 6737, 6772, 6771, 6491, 6492, 6527, 6526
5423, 6737, 6738, 6773, 6772, 6492, 6493, 6528, 6527
5424, 6738, 6739, 6774, 6773, 6493, 6494, 6529, 6528
5425, 6739, 6740, 6775, 6774, 6494, 6495, 6530, 6529
5426, 6740, 6741, 6776, 6775, 6495, 6496, 6531, 6530
5427, 6741, 6742, 6777, 6776, 6496, 6497, 6532, 6531
5428, 6742, 6743, 6778, 6777, 6497, 6498, 6533, 6532
5429, 6743, 6744, 6779, 6778, 6498, 6499, 6534, 6533
5430, 6744, 6745, 6780, 6779, 6499, 6500, 6535, 6534
5431, 6745, 6746, 6781, 6780, 6500, 6501, 6536, 6535
5432, 6746, 6747, 6782, 6781, 6501, 6502, 6537, 6536
5433, 6747, 6748, 6783, 6782, 6502, 6503, 6538, 6537
5434, 6748, 6749, 6784, 6783, 6503, 6504, 6539, 6538
5435, 6749, 6750, 6785, 6784, 6504, 6505, 6540, 6539
5436, 6750, 6751, 6786, 6785, 6505, 6506, 6541, 6540
5437, 6751, 6752, 6787, 6786, 6506, 6507, 6542, 6541
5438, 6752, 6753, 6788, 6787, 6507, 6508, 6543, 6542
5439, 6753, 6754, 6789, 6788, 6508, 6509, 6544, 6543
5440, 6754, 6755, 6790, 6789, 6509, 6510, 6545, 6544
5441, 6756, 6757, 6792, 6791, 6511, 6512, 6547, 6546
5442, 6757, 6758, 6793, 6792, 6512, 6513, 6548, 6547
5443, 6758, 6759, 6794, 6793, 6513, 6514, 6549, 6548
5444, 6759, 6760, 6795, 6794, 6514, 6515, 6550, 6549
5445, 6760, 6761, 6796, 6795, 6515, 6516, 6551, 6550
5446, 6761, 6762, 6797, 6796, 6516, 6517, 6552, 6551
5447, 6762, 6763, 6798, 6797, 6517, 6518, 6553, 6552
5448, 6763, 6764, 6799, 6798, 6518, 6519, 6554, 6553
5449, 6764, 6765, 6800, 6799, 6519, 6520, 6555, 6554
5450, 6765, 6766, 6801, 6800, 6520, 6521, 6556, 6555
5451, 6766, 6767, 6802, 6801, 6521, 6522, 6557, 6556
5452, 6767, 6768, 6803, 6802, 6522, 6523, 6558, 6557
5453, 6768, 6769, 6804, 6803, 6523, 6524, 6559, 6558
5454, 6769, 6770, 6805, 6804, 6524, 6525, 6560, 6559
5455, 6770, 6771, 6806, 6805, 6525, 6526, 6561, 6560
5456, 6771, 6772, 6807, 6806, 6526, 6527, 6562, 6561
5457, 6772, 6773, 6808, 6807, 6527, 6528, 6563, 6562
5458, 6773, 6774, 6809, 6808, 6528, 6529, 6564, 6563
5459, 6774, 6775, 6810, 6809, 6529, 6530, 6565, 6564
5460, 6775, 6776, 6811, 6810, 6530, 6531, 6566, 6565
5461, 6776, 6777, 6812, 6811, 6531, 6532, 6567, 6566
5462, 6777, 6778, 6813, 6812, 6532, 6533, 6568, 6567
5463, 6778, 6779, 6814, 6813, 6533, 6534, 6569, 6568
5464, 6779, 6780, 6815, 6814, 6534, 6535, 6570, 6569
5465, 6780, 6781, 6816, 6815, 6535, 6536, 6571, 6570
5466, 6781, 6782, 6817, 6816, 6536, 6537, 6572, 6571
5467, 6782, 6783, 6818, 6817, 6537, 6538, 6573, 6572
5468, 6783, 6784, 6819, 6818, 6538, 6539, 6574, 6573
5469, 6784, 6785, 6820, 6819, 6539, 6540, 6575, 6574
5470, 6785, 6786, 6821, 6820, 6540, 6541, 6576, 6575
5471, 6786, 6787, 6822, 6821, 6541, 6542, 6577, 6576
5472, 6787, 6788, 6823, 6822, 6542, 6543, 6578, 6577
5473, 6788, 6789, 6824, 6823, 6543, 6544, 6579, 6578
5474, 6789, 6790, 6825, 6824, 6544, 6545, 6580, 6579
5475, 6791, 6792, 6827, 6826, 6546, 6547, 6582, 6581
5476, 6792, 6793, 6828, 6827, 6547, 6548, 6583, 6582
5477, 6793, 6794, 6829, 6828, 6548, 6549, 6584, 6583
5478, 6794, 6795, 6830, 6829, 6549, 6550, 6585, 6584
5479, 6795, 6796, 6831, 6830, 6550, 6551, 6586, 6585
5480, 6796, 6797, 6832, 6831, 6551, 6552, 6587, 6586
5481, 6797, 6798, 6833, 6832, 6552, 6553, 6588, 6587
5482, 6798, 6799, 6834, 6833, 6553, 6554, 6589, 6588
5483, 6799, 6800, 6835, 6834, 6554, 6555, 6590, 6589
5484, 6800, 6801, 6836, 6835, 6555, 6556, 6591, 6590
5485, 6801, 6802, 6837, 6836, 6556, 6557, 6592, 6591
5486, 6802, 6803, 6838, 6837, 6557, 6558, 6593, 6592
5487, 6803, 6804, 6839, 6838, 6558, 6559, 6594, 6593
5488, 6804, 6805, 6840, 6839, 6559, 6560, 6595, 6594
5489, 6805, 6806, 6841, 6840, 6560, 6561, 6596, 6595
5490, 6806, 6807, 6842, 6841, 6561, 6562, 6597, 6596
5491, 6807, 6808, 6843, 6842, 6562, 6563, 6598, 6597
5492, 6808, 6809, 6844, 6843, 6563, 6564, 6599, 6598
5493, 6809, 6810, 6845, 6844, 6564, 6565, 6600, 6599
5494, 6810, 6811, 6846, 6845, 6565, 6566, 6601, 6600
5495, 6811, 6812, 6847, 6846, 6566, 6567, 6602, 6601
5496, 6812, 6813, 6848, 6847, 6567, 6568, 6603, 6602
5497, 6813, 6814, 6849, 6848, 6568, 6569, 6604, 6603
5498, 6814, 6815, 6850, 6849, 6569, 6570, 6605, 6604
5499, 6815, 6816, 6851, 6850, 6570, 6571, 6606, 6605
5500, 6816, 6817, 6852, 6851, 6571, 6572, 6607, 6606
5501, 6817, 6818, 6853, 6852, 6572, 6573, 6608, 6607
5502, 6818, 6819, 6854, 6853, 6573, 6574, 6609, 6608
5503, 6819, 6820, 6855, 6854, 6574, 6575, 6610, 6609
5504, 6820, 6821, 6856, 6855, 6575, 6576, 6611, 6610
5505, 6821, 6822, 6857, 6856, 6576, 6577, 6612, 6611
5506, 6822, 6823, 6858, 6857, 6577, 6578, 6613, 6612
5507, 6823, 6824, 6859, 6858, 6578, 6579, 6614, 6613
5508, 6824, 6825, 6860, 6859, 6579, 6580, 6615, 6614
5509, 6861, 6862, 6897, 6896, 6616, 6617, 6652, 6651
5510, 6862, 6863, 6898, 6897, 6617, 6618, 6653, 6652
5511, 6863, 6864, 6899, 6898, 6618, 6619, 6654, 6653
5512, 6864, 6865, 6900, 6899, 6619, 6620, 6655, 6654
5513, 6865, 6866, 6901, 6900, 6620, 6621, 6656, 6655
5514, 6866, 6867, 6902, 6901, 6621, 6622, 6657, 6656
5515, 6867, 6868, 6903, 6902, 6622, 6623, 6658, 6657
5516, 6868, 6869, 6904, 6903, 6623, 6624, 6659, 6658
5517, 6869, 6870, 6905, 6904, 6624, 6625, 6660, 6659
5518, 6870, 6871, 6906, 6905, 6625, 6626, 6661, 6660
5519, 6871, 6872, 6907, 6906, 6626, 6627, 6662, 6661
5520, 6872, 6873, 6908, 6907, 6627, 6628, 6663, 6662
5521, 6873, 6874, 6909, 6908, 6628, 6629, 6664, 6663
5522, 6874, 6875, 6910, 6909, 6629, 6630, 6665, 6664
5523, 6875, 6876, 6911, 6910, 6630, 6631, 6666, 6665
5524, 6876, 6877, 6912, 6911, 6631, 6632, 6667, 6666
5525, 6877, 6878, 6913, 6912, 6632, 6633, 6668, 6667
5526, 6878, 6879, 6914, 6913, 6633, 6634, 6669, 6668
5527, 6879, 6880, 6915, 6914, 6634, 6635, 6670, 6669
5528, 6880, 6881, 6916, 6915, 6635, 6636, 6671, 6670
5529, 6881, 6882, 6917, 6916, 6636, 6637, 6672, 6671
5530, 6882, 6883, 6918, 6917, 6637, 6638, 6673, 6672
5531, 6883, 6884, 6919, 6918, 6638, 6639, 6674, 6673
5532, 6884, 6885, 6920, 6919, 6639, 6640, 6675, 6674
5533, 6885, 6886, 6921, 6920, 6640, 6641, 6676, 6675
5534, 6886, 6887, 6922, 6921, 6641, 6642, 6677, 6676
5535, 6887, 6888, 6923, 6922, 6642, 6643, 6678, 6677
5536, 6888, 6889, 6924, 6923, 6643, 6644, 6679, 6678
5537, 6889, 6890, 6925, 6924, 6644, 6645, 6680, 6679
5538, 6890, 6891, 6926, 6925, 6645, 6646, 6681, 6680
5539, 6891, 6892, 6927, 6926, 6646, 6647, 6682, 6681
5540, 6892, 6893, 6928, 6927, 6647, 6648, 6683, 6682
5541, 6893, 6894, 6929, 6928, 6648, 6649, 6684, 6683
5542, 6894, 6895, 6930, 6929, 6649, 6650, 6685, 6684
5543, 6896, 6897, 6932, 6931, 6651, 6652, 6687, 6686
5544, 6897, 6898, 6933, 6932, 6652, 6653, 6688, 6687
5545, 6898, 6899, 6934, 6933, 6653, 6654, 6689, 6688
5546, 6899, 6900, 6935, 6934, 6654, 6655, 6690, 6689
5547, 6900, 6901, 6936, 6935, 6655, 6656, 6691, 6690
5548, 6901, 6902, 6937, 6936, 6656, 6657, 6692, 6691
5549, 6902, 6903, 6938, 6937, 6657, 6658, 6693, 6692
5550, 6903, 6904, 6939, 6938, 6658, 6659, 6694, 6693
5551, 6904, 6905, 6940, 6939, 6659, 6660, 6695, 6694
5552, 6905, 6906, 6941, 6940, 6660, 6661, 6696, 6695
5553, 6906, 6907, 6942, 6941, 6661, 6662, 6697, 6696
5554, 6907, 6908, 6943, 6942, 6662, 6663, 6698, 6697
5555, 6908, 6909, 6944, 6943, 6663, 6664, 6699, 6698
5556, 6909, 6910, 6945, 6944, 6664, 6665, 6700, 6699
5557, 6910, 6911, 6946, 6945, 6665, 6666, 6701, 6700
5558, 6911, 6912, 6947, 6946, 6666, 6667, 6702, 6701
5559, 6912, 6913, 6948, 6947, 6667, 6668, 6703, 6702
5560, 6913, 6914, 6949, 6948, 6668, 6669, 6704, 6703
5561, 6914, 6915, 6950, 6949, 6669, 6670, 6705, 6704
5562, 6915, 6916, 6951, 6950, 6670, 6671, 6706, 6705
5563, 6916, 6917, 6952, 6951, 6671, 6672, 6707, 6706
5564, 6917, 6918, 6953, 6952, 6672, 6673, 6708, 6707
5565, 6918, 6919, 6954, 6953, 6673, 6674, 6709, 6708
5566, 6919, 6920, 6955, 6954, 6674, 6675, 6710, 6709
5567, 6920, 6921, 6956, 6955, 6675, 6676, 6711, 6710
5568, 6921, 6922, 6957, 6956, 6676, 6677, 6712, 6711
5569, 6922, 6923, 6958, 6957, 6677, 6678, 6713, 6712
5570, 6923, 6924, 6959, 6958, 6678, 6679, 6714, 6713
5571, 6924, 6925, 6960, 6959, 6679, 6680, 6715, 6714
5572, 6925, 6926, 6961, 6960, 6680, 6681, 6716, 6715
5573, 6926, 6927, 6962, 6961, 6681, 6682, 6717, 6716
5574, 6927, 6928, 6963, 6962, 6682, 6683, 6718, 6717
5575, 6928, 6929, 6964, 6963, 6683, 6684, 6719, 6718
5576, 6929, 6930, 6965, 6964, 6684, 6685, 6720, 6719
5577, 6931, 6932, 6967, 6966, 6686, 6687, 6722, 6721
5578, 6932, 6933, 6968, 6967, 6687, 6688, 6723, 6722
5579, 6933, 6934, 6969, 6968, 6688, 6689, 6724, 6723
5580, 6934, 6935, 6970, 6969, 6689, 6690, 6725, 6724
5581, 6935, 6936, 6971, 6970, 6690, 6691, 6726, 6725
5582, 6936, 6937, 6972, 6971, 6691, 6692, 6727, 6726
5583, 6937, 6938, 6973, 6972, 6692, 6693, 6728, 6727
5584, 6938, 6939, 6974, 6973, 6693, 6694, 6729, 6728
5585, 6939, 6940, 6975, 6974, 6694, 6695, 6730, 6729
5586, 6940, 6941, 6976, 6975, 6695, 6696, 6731, 6730
5587, 6941, 6942, 6977, 6976, 6696, 6697, 6732, 6731
5588, 6942, 6943, 6978, 6977, 6697, 6698, 6733, 6732
5589, 6943, 6944, 6979, 6978, 6698, 6699, 6734, 6733
5590, 6944, 6945, 6980, 6979, 6699, 6700, 6735, 6734
5591, 6945, 6946, 6981, 6980, 6700, 6701, 6736, 6735
5592, 6946, 6947, 6982, 6981, 6701, 6702, 6737, 6736
5593, 6947, 6948, 6983, 6982, 6702, 6703, 6738, 6737
5594, 6948, 6949, 6984, 6983, 6703, 6704, 6739, 6738
5595, 6949, 6950, 6985, 6984, 6704, 6705, 6740, 6739
5596, 6950, 6951, 6986, 6985, 6705, 6706, 6741, 6740
5597, 6951, 6952, 6987, 6986, 6706, 6707, 6742, 6741
5598, 6952, 6953, 6988, 6987, 6707, 6708, 6743, 6742
5599, 6953, 6954, 6989, 6988, 6708, 6709, 6744, 6743
5600, 6954, 6955, 6990, 6989, 6709, 6710, 6745, 6744
5601, 6955, 6956, 6991, 6990, 6710, 6711, 6746, 6745
5602, 6956, 6957, 6992, 6991, 6711, 6712, 6747, 6746
5603, 6957, 6958, 6993, 6992, 6712, 6713, 6748, 6747
5604, 6958, 6959, 6994, 6993, 6713, 6714, 6749, 6748
5605, 6959, 6960, 6995, 6994, 6714, 6715, 6750, 6749
5606, 6960, 6961, 6996, 6995, 6715, 6716, 6751, 6750
5607, 6961, 6962, 6997, 6996, 6716, 6717, 6752, 6751
5608, 6962, 6963, 6998, 6997, 6717, 6718, 6753, 6752
5609, 6963, 6964, 6999, 6998, 6718, 6719, 6754, 6753
5610, 6964, 6965, 7000, 6999, 6719, 6720, 6755, 6754
5611, 6966, 6967, 7002, 7001, 6721, 6722, 6757, 6756
5612, 6967, 6968, 7003, 7002, 6722, 6723, 6758, 6757
5613, 6968, 6969, 7004, 7003, 6723, 6724, 6759, 6758
5614, 6969, 6970, 7005, 7004, 6724, 6725, 6760, 6759
5615, 6970, 6971, 7006, 7005, 6725, 6726, 6761, 6760
5616, 6971, 6972, 7007, 7006, 6726, 6727, 6762, 6761
5617, 6972, 6973, 7008, 7007, 6727, 6728, 6763, 6762
5618, 6973, 6974, 7009, 7008, 6728, 6729, 6764, 6763
5619, 6974, 6975, 7010, 7009, 6729, 6730, 6765, 6764
5620, 6975, 6976, 7011, 7010, 6730, 6731, 6766, 6765
5621, 6976, 6977, 7012, 7011, 6731, 6732, 6767, 6766
5622, 6977, 6978, 7013, 7012, 6732, 6733, 6768, 6767
5623, 6978, 6979, 7014, 7013, 6733, 6734, 6769, 6768
5624, 6979, 6980, 7015, 7014, 6734, 6735, 6770, 6769
5625, 6980, 6981, 7016, 7015, 6735, 6736, 6771, 6770
5626, 6981, 6982, 7017, 7016, 6736, 6737, 6772, 6771
5627, 6982, 6983, 7018, 7017, 6737, 6738, 6773, 6772
5628, 6983, 6984, 7019, 7018, 6738, 6739, 6774, 6773
5629, 6984, 6985, 7020, 7019, 6739, 6740, 6775, 6774
5630, 6985, 6986, 7021, 7020, 6740, 6741, 6776, 6775
5631, 6986, 6987, 7022, 7021, 6741, 6742, 6777, 6776
5632, 6987, 6988, 7023, 7022, 6742, 6743, 6778, 6777
5633, 6988, 6989, 7024, 7023, 6743, 6744, 6779, 6778
5634, 6989, 6990, 7025, 7024, 6744, 6745, 6780, 6779
5635, 6990, 6991, 7026, 7025, 6745, 6746, 6781, 6780
5636, 6991, 6992, 7027, 7026, 6746, 6747, 6782, 6781
5637, 6992, 6993, 7028, 7027, 6747, 6748, 6783, 6782
5638, 6993, 6994, 7029, 7028, 6748, 6749, 6784, 6783
5639, 6994, 6995, 7030, 7029, 6749, 6750, 6785, 6784
5640, 6995, 6996, 7031, 7030, 6750, 6751, 6786, 6785
5641, 6996, 6997, 7032, 7031, 6751, 6752, 6787, 6786
5642, 6997, 6998, 7033, 7032, 6752, 6753, 6788, 6787
5643, 6998, 6999, 7034, 7033, 6753, 6754, 6789, 6788
5644, 6999, 7000, 7035, 7034, 6754, 6755, 6790, 6789
5645, 7001, 7002, 7037, 7036, 6756, 6757, 6792, 6791
5646, 7002, 7003, 7038, 7037, 6757, 6758, 6793, 6792
5647, 7003, 7004, 7039, 7038, 6758, 6759, 6794, 6793
5648, 7004, 7005, 7040, 7039, 6759, 6760, 6795, 6794
5649, 7005, 7006, 7041, 7040, 6760, 6761, 6796, 6795
5650, 7006, 7007, 7042, 7041, 6761, 6762, 6797, 6796
5651, 7007, 7008, 7043, 7042, 6762, 6763, 6798, 6797
5652, 7008, 7009, 7044, 7043, 6763, 6764, 6799, 6798
5653, 7009, 7010, 7045, 7044, 6764, 6765, 6800, 6799
5654, 7010, 7011, 7046, 7045, 6765, 6766, 6801, 6800
5655, 7011, 7012, 7047, 7046, 6766, 6767, 6802, 6801
5656, 7012, 7013, 7048, 7047, 6767, 6768, 6803, 6802
5657, 7013, 7014, 7049, 7048, 6768, 6769, 6804, 6803
5658, 7014, 7015, 7050, 7049, 6769, 6770, 6805, 6804
5659, 7015, 7016, 7051, 7050, 6770, 6771, 6806, 6805
5660, 7016, 7017, 7052, 7051, 6771, 6772, 6807, 6806
5661, 7017, 7018, 7053, 7052, 6772, 6773, 6808, 6807
5662, 7018, 7019, 7054, 7053, 6773, 6774, 6809, 6808
5663, 7019, 7020, 7055, 7054, 6774, 6775, 6810, 6809
5664, 7020, 7021, 7056, 7055, 6775, 6776, 6811, 6810
5665, 7021, 7022, 7057, 7056, 6776, 6777, 6812, 6811
5666, 7022, 7023, 7058, 7057, 6777, 6778, 6813, 6812
5667, 7023, 7024, 7059, 7058, 6778, 6779, 6814, 6813
5668, 7024, 7025, 7060, 7059, 6779, 6780, 6815, 6814
5669, 7025, 7026, 7061, 7060, 6780, 6781, 6816, 6815
5670, 7026, 7027, 7062, 7061, 6781, 6782, 6817, 6816
5671, 7027, 7028, 7063, 7062, 6782, 6783, 6818, 6817
5672, 7028, 7029, 7064, 7063, 6783, 6784, 6819, 6818
5673, 7029, 7030, 7065, 7064, 6784, 6785, 6820, 6819
5674, 7030, 7031, 7066, 7065, 6785, 6786, 6821, 6820
5675, 7031, 7032, 7067, 7066, 6786, 6787, 6822, 6821
5676, 7032, 7033, 7068, 7067, 6787, 6788, 6823, 6822
5677, 7033, 7034, 7069, 7068, 6788, 6789, 6824, 6823
5678, 7034, 7035, 7070, 7069, 6789, 6790, 6825, 6824
5679, 7036, 7037, 7072, 7071, 6791, 6792, 6827, 6826
5680, 7037, 7038, 7073, 7072, 6792, 6793, 6828, 6827
5681, 7038, 7039, 7074, 7073, 6793, 6794, 6829, 6828
5682, 7039, 7040, 7075, 7074, 6794, 6795, 6830, 6829
5683, 7040, 7041, 7076, 7075, 6795, 6796, 6831, 6830
5684, 7041, 7042, 7077, 7076, 6796, 6797, 6832, 6831
5685, 7042, 7043, 7078, 7077, 6797, 6798, 6833, 6832
5686, 7043, 7044, 7079, 7078, 6798, 6799, 6834, 6833
5687, 7044, 7045, 7080, 7079, 6799, 6800, 6835, 6834
5688, 7045, 7046, 7081, 7080, 6800, 6801, 6836, 6835
5689, 7046, 7047, 7082, 7081, 6801, 6802, 6837, 6836
5690, 7047, 7048, 7083, 7082, 6802, 6803, 6838, 6837
5691, 7048, 7049, 7084, 7083, 6803, 6804, 6839, 6838
5692, 7049, 7050, 7085, 7084, 6804, 6805, 6840, 6839
5693, 7050, 7051, 7086, 7085, 6805, 6806, 6841, 6840
5694, 7051, 7052, 7087, 7086, 6806, 6807, 6842, 6841
5695, 7052, 7053, 7088, 7087, 6807, 6808, 6843, 6842
5696, 7053, 7054, 7089, 7088, 6808, 6809, 6844, 6843
5697, 7054, 7055, 7090, 7089, 6809, 6810, 6845, 6844
5698, 7055, 7056, 7091, 7090, 6810, 6811, 6846, 6845
5699, 7056, 7057, 7092, 7091, 6811, 6812, 6847, 6846
5700, 7057, 7058, 7093, 7092, 6812, 6813, 6848, 6847
5701, 7058, 7059, 7094, 7093, 6813, 6814, 6849, 6848
5702, 7059, 7060, 7095, 7094, 6814, 6815, 6850, 6849
5703, 7060, 7061, 7096, 7095, 6815, 6816, 6851, 6850
5704, 7061, 7062, 7097, 7096, 6816, 6817, 6852, 6851
5705, 7062, 7063, 7098, 7097, 6817, 6818, 6853, 6852
5706, 7063, 7064, 7099, 7098, 6818, 6819, 6854, 6853
5707, 7064, 7065, 7100, 7099, 6819, 6820, 6855, 6854
5708, 7065, 7066, 7101, 7100, 6820, 6821, 6856, 6855
5709, 7066, 7067, 7102, 7101, 6821, 6822, 6857, 6856
5710, 7067, 7068, 7103, 7102, 6822, 6823, 6858, 6857
5711, 7068, 7069, 7104, 7103, 6823, 6824, 6859, 6858
5712, 7069, 7070, 7105, 7104, 6824, 6825, 6860, 6859
5713, 7106, 7107, 7142, 7141, 6861, 6862, 6897, 6896
5714, 7107, 7108, 7143, 7142, 6862, 6863, 6898, 6897
5715, 7108, 7109, 7144, 7143, 6863, 6864, 6899, 6898
5716, 7109, 7110, 7145, 7144, 6864, 6865, 6900, 6899
5717, 7110, 7111, 7146, 7145, 6865, 6866, 6901, 6900
5718, 7111, 7112, 7147, 7146, 6866, 6867, 6902, 6901
5719, 7112, 7113, 7148, 7147, 6867, 6868, 6903, 6902
5720, 7113, 7114, 7149, 7148, 6868, 6869, 6904, 6903
5721, 7114, 7115, 7150, 7149, 6869, 6870, 6905, 6904
5722, 7115, 7116, 7151, 7150, 6870, 6871, 6906, 6905
5723, 7116, 7117, 7152, 7151, 6871, 6872, 6907, 6906
5724, 7117, 7118, 7153, 7152, 6872, 6873, 6908, 6907
5725, 7118, 7119, 7154, 7153, 6873, 6874, 6909, 6908
5726, 7119, 7120, 7155, 7154, 6874, 6875, 6910, 6909
5727, 7120, 7121, 7156, 7155, 6875, 6876, 6911, 6910
5728, 7121, 7122, 7157, 7156, 6876, 6877, 6912, 6911
5729, 7122, 7123, 7158, 7157, 6877, 6878, 6913, 6912
5730, 7123, 7124, 7159, 7158, 6878, 6879, 6914, 6913
5731, 7124, 7125, 7160, 7159, 6879, 6880, 6915, 6914
5732, 7125, 7126, 7161, 7160, 6880, 6881, 6916, 6915
5733, 7126, 7127, 7162, 7161, 6881, 6882, 6917, 6916
5734, 7127, 7128, 7163, 7162, 6882, 6883, 6918, 6917
5735, 7128, 7129, 7164, 7163, 6883, 6884, 6919, 6918
5736, 7129, 7130, 7165, 7164, 6884, 6885, 6920, 6919
5737, 7130, 7131, 7166, 7165, 6885, 6886, 6921, 6920
5738, 7131, 7132, 7167, 7166, 6886, 6887, 6922, 6921
5739, 7132, 7133, 7168, 7167, 6887, 6888, 6923, 6922
5740, 7133, 7134, 7169, 7168, 6888, 6889, 6924, 6923
5741, 7134, 7135, 7170, 7169, 6889, 6890, 6925, 6924
5742, 7135, 7136, 7171, 7170, 6890, 6891, 6926, 6925
5743, 7136, 7137, 7172, 7171, 6891, 6892, 6927, 6926
5744, 7137, 7138, 7173, 7172, 6892, 6893, 6928, 6927
5745, 7138, 7139, 7174, 7173, 6893, 6894, 6929, 6928
5746, 7139, 7140, 7175, 7174, 6894, 6895, 6930, 6929
5747, 7141, 7142, 7177, 7176, 6896, 6897, 6932, 6931
5748, 7142, 7143, 7178, 7177, 6897, 6898, 6933, 6932
5749, 7143, 7144, 7179, 7178, 6898, 6899, 6934, 6933
5750, 7144, 7145, 7180, 7179, 6899, 6900, 6935, 6934
5751, 7145, 7146, 7181, 7180, 6900, 6901, 6936, 6935
5752, 7146, 7147, 7182, 7181, 6901, 6902, 6937, 6936
5753, 7147, 7148, 7183, 7182, 6902, 6903, 6938, 6937
5754, 7148, 7149, 7184, 7183, 6903, 6904, 6939, 6938
5755, 7149, 7150, 7185, 7184, 6904, 6905, 6940, 6939
5756, 7150, 7151, 7186, 7185, 6905, 6906, 6941, 6940
5757, 7151, 7152, 7187, 7186, 6906, 6907, 6942, 6941
5758, 7152, 7153, 7188, 7187, 6907, 6908, 6943, 6942
5759, 7153, 7154, 7189, 7188, 6908, 6909, 6944, 6943
5760, 7154, 7155, 7190, 7189, 6909, 6910, 6945, 6944
5761, 7155, 7156, 7191, 7190, 6910, 6911, 6946, 6945
5762, 7156, 7157, 7192, 7191, 6911, 6912, 6947, 6946
5763, 7157, 7158, 7193, 7192, 6912, 6913, 6948, 6947
5764, 7158, 7159, 7194, 7193, 6913, 6914, 6949, 6948
5765, 7159, 7160, 7195, 7194, 6914, 6915, 6950, 6949
5766, 7160, 7161, 7196, 7195, 6915, 6916, 6951, 6950
5767, 7161, 7162, 7197, 7196, 6916, 6917, 6952, 6951
5768, 7162, 7163, 7198, 7197, 6917, 6918, 6953, 6952
5769, 7163, 7164, 7199, 7198, 6918, 6919, 6954, 6953
5770, 7164, 7165, 7200, 7199, 6919, 6920, 6955, 6954
5771, 7165, 7166, 7201, 7200, 6920, 6921, 6956, 6955
5772, 7166, 7167, 7202, 7201, 6921, 6922, 6957, 6956
5773, 7167, 7168, 7203, 7202, 6922, 6923, 6958, 6957
5774, 7168, 7169, 7204, 7203, 6923, 6924, 6959, 6958
5775, 7169, 7170, 7205, 7204, 6924, 6925, 6960, 6959
5776, 7170, 7171, 7206, 7205, 6925, 6926, 6961, 6960
5777, 7171, 7172, 7207, 7206, 6926, 6927, 6962, 6961
5778, 7172, 7173, 7208, 7207, 6927, 6928, 6963, 6962
5779, 7173, 7174, 7209, 7208, 6928, 6929, 6964, 6963
5780, 7174, 7175, 7210, 7209, 6929, 6930, 6965, 6964
5781, 7176, 7177, 7212, 7211, 6931, 6932, 6967, 6966
5782, 7177, 7178, 7213, 7212, 6932, 6933, 6968, 6967
5783, 7178, 7179, 7214, 7213, 6933, 6934, 6969, 6968
5784, 7179, 7180, 7215, 7214, 6934, 6935, 6970, 6969
5785, 7180, 7181, 7216, 7215, 6935, 6936, 6971, 6970
5786, 7181, 7182, 7217, 7216, 6936, 6937, 6972, 6971
5787, 7182, 7183, 7218, 7217, 6937, 6938, 6973, 6972
5788, 7183, 7184, 7219, 7218, 6938, 6939, 6974, 6973
5789, 7184, 7185, 7220, 7219, 6939, 6940, 6975, 6974
5790, 7185, 7186, 7221, 7220, 6940, 6941, 6976, 6975
5791, 7186, 7187, 7222, 7221, 6941, 6942, 6977, 6976
5792, 7187, 7188, 7223, 7222, 6942, 6943, 6978, 6977
5793, 7188, 7189, 7224, 7223, 6943, 6944, 6979, 6978
5794, 7189, 7190, 7225, 7224, 6944, 6945, 6980, 6979
5795, 7190, 7191, 7226, 7225, 6945, 6946, 6981, 6980
5796, 7191, 7192, 7227, 7226, 6946, 6947, 6982, 6981
5797, 7192, 7193, 7228, 7227, 6947, 6948, 6983, 6982
5798, 7193, 7194, 7229, 7228, 6948, 6949, 6984, 6983
5799, 7194, 7195, 7230, 7229, 6949, 6950, 6985, 6984
5800, 7195, 7196, 7231, 7230, 6950, 6951, 6986, 6985
5801, 7196, 7197, 7232, 7231, 6951, 6952, 6987, 6986
5802, 7197, 7198, 7233, 7232, 6952, 6953, 6988, 6987
5803, 7198, 7199, 7234, 7233, 6953, 6954, 6989, 6988
5804, 7199, 7200, 7235, 7234, 6954, 6955, 6990, 6989
5805, 7200, 7201, 7236, 7235, 6955, 6956, 6991, 6990
5806, 7201, 7202, 7237, 7236, 6956, 6957, 6992, 6991
5807, 7202, 7203, 7238, 7237, 6957, 6958, 6993, 6992
5808, 7203, 7204, 7239, 7238, 6958, 6959, 6994, 6993
5809, 7204, 7205, 7240, 7239, 6959, 6960, 6995, 6994
5810, 7205, 7206, 7241, 7240, 6960, 6961, 6996, 6995
5811, 7206, 7207, 7242, 7241, 6961, 6962, 6997, 6996
5812, 7207, 7208, 7243, 7242, 6962, 6963, 6998, 6997
5813, 7208, 7209, 7244, 7243, 6963, 6964, 6999, 6998
5814, 7209, 7210, 7245, 7244, 6964, 6965, 7000, 6999
5815, 7211, 7212, 7247, 7246, 6966, 6967, 7002, 7001
5816, 7212, 7213, 7248, 7247, 6967, 6968, 7003, 7002
5817, 7213, 7214, 7249, 7248, 6968, 6969, 7004, 7003
5818, 7214, 7215, 7250, 7249, 6969, 6970, 7005, 7004
5819, 7215, 7216, 7251, 7250, 6970, 6971, 7006, 7005
5820, 7216, 7217, 7252, 7251, 6971, 6972, 7007, 7006
5821, 7217, 7218, 7253, 7252, 6972, 6973, 7008, 7007
5822, 7218, 7219, 7254, 7253, 6973, 6974, 7009, 7008
5823, 7219, 7220, 7255, 7254, 6974, 6975, 7010, 7009
5824, 7220, 7221, 7256, 7255, 6975, 6976, 7011, 7010
5825, 7221, 7222, 7257, 7256, 6976, 6977, 7012, 7011
5826, 7222, 7223, 7258, 7257, 6977, 6978, 7013, 7012
5827, 7223, 7224, 7259, 7258, 6978, 6979, 7014, 7013
5828, 7224, 7225, 7260, 7259, 6979, 6980, 7015, 7014
5829, 7225, 7226, 7261, 7260, 6980, 6981, 7016, 7015
5830, 7226, 7227, 7262, 7261, 6981, 6982, 7017, 7016
5831, 7227, 7228, 7263, 7262, 6982, 6983, 7018, 7017
5832, 7228, 7229, 7264, 7263, 6983, 6984, 7019, 7018
5833, 7229, 7230, 7265, 7264, 6984, 6985, 7020, 7019
5834, 7230, 7231, 7266, 7265, 6985, 6986, 7021, 7020
5835, 7231, 7232, 7267, 7266, 6986, 6987, 7022, 7021
5836, 7232, 7233, 7268, 7267, 6987, 6988, 7023, 7022
5837, 7233, 7234, 7269, 7268, 6988, 6989, 7024, 7023
5838, 7234, 7235, 7270, 7269, 6989, 6990, 7025, 7024
5839, 7235, 7236, 7271, 7270, 6990, 6991, 7026, 7025
5840, 7236, 7237, 7272, 7271, 6991, 6992, 7027, 7026
5841, 7237, 7238, 7273, 7272, 6992, 6993, 7028, 7027
5842, 7238, 7239, 7274, 7273, 6993, 6994, 7029, 7028
5843, 7239, 7240, 7275, 7274, 6994, 6995, 7030, 7029
5844, 7240, 7241, 7276, 7275, 6995, 6996, 7031, 7030
5845, 7241, 7242, 7277, 7276, 6996, 6997, 7032, 7031
5846, 7242, 7243, 7278, 7277, 6997, 6998, 7033, 7032
5847, 7243, 7244, 7279, 7278, 6998, 6999, 7034, 7033
5848, 7244, 7245, 7280, 7279, 6999, 7000, 7035, 7034
5849, 7246, 7247, 7282, 7281, 7001, 7002, 7037, 7036
5850, 7247, 7248, 7283, 7282, 7002, 7003, 7038, 7037
5851, 7248, 7249, 7284, 7283, 7003, 7004, 7039, 7038
5852, 7249, 7250, 7285, 7284, 7004, 7005, 7040, 7039
5853, 7250, 7251, 7286, 7285, 7005, 7006, 7041, 7040
5854, 7251, 7252, 7287, 7286, 7006, 7007, 7042, 7041
5855, 7252, 7253, 7288, 7287, 7007, 7008, 7043, 7042
5856, 7253, 7254, 7289, 7288, 7008, 7009, 7044, 7043
5857, 7254, 7255, 7290, 7289, 7009, 7010, 7045, 7044
5858, 7255, 7256, 7291, 7290, 7010, 7011, 7046, 7045
5859, 7256, 7257, 7292, 7291, 7011, 7012, 7047, 7046
5860, 7257, 7258, 7293, 7292, 7012, 7013, 7048, 7047
5861, 7258, 7259, 7294, 7293, 7013, 7014, 7049, 7048
5862, 7259, 7260, 7295, 7294, 7014, 7015, 7050, 7049
5863, 7260, 7261, 7296, 7295, 7015, 7016, 7051, 7050
5864, 7261, 7262, 7297, 7296, 7016, 7017, 7052, 7051
5865, 7262, 7263, 7298, 7297, 7017, 7018, 7053, 7052
5866, 7263, 7264, 7299, 7298, 7018, 7019, 7054, 7053
5867, 7264, 7265, 7300, 7299, 7019, 7020, 7055, 7054
5868, 7265, 7266, 7301, 7300, 7020, 7021, 7056, 7055
5869, 7266, 7267, 7302, 7301, 7021, 7022, 7057, 7056
5870, 7267, 7268, 7303, 7302, 7022, 7023, 7058, 7057
5871, 7268, 7269, 7304, 7303, 7023, 7024, 7059, 7058
5872, 7269, 7270, 7305, 7304, 7024, 7025, 7060, 7059
5873, 7270, 7271, 7306, 7305, 7025, 7026, 7061, 7060
5874, 7271, 7272, 7307, 7306, 7026, 7027, 7062, 7061
5875, 7272, 7273, 7308, 7307, 7027, 7028, 7063, 7062
5876, 7273, 7274, 7309, 7308, 7028, 7029, 7064, 7063
5877, 7274, 7275, 7310, 7309, 7029, 7030, 7065, 7064
5878, 7275, 7276, 7311, 7310, 7030, 7031, 7066, 7065
5879, 7276, 7277, 7312, 7311, 7031, 7032, 7067, 7066
5880, 7277, 7278, 7313, 7312, 7032, 7033, 7068, 7067
5881, 7278, 7279, 7314, 7313, 7033, 7034, 7069, 7068
5882, 7279, 7280, 7315, 7314, 7034, 7035, 7070, 7069
5883, 7281, 7282, 7317, 7316, 7036, 7037, 7072, 7071
5884, 7282, 7283, 7318, 7317, 7037, 7038, 7073, 7072
5885, 7283, 7284, 7319, 7318, 7038, 7039, 7074, 7073
5886, 7284, 7285, 7320, 7319, 7039, 7040, 7075, 7074
5887, 7285, 7286, 7321, 7320, 7040, 7041, 7076, 7075
5888, 7286, 7287, 7322, 7321, 7041, 7042, 7077, 7076
5889, 7287, 7288, 7323, 7322, 7042, 7043, 7078, 7077
5890, 7288, 7289, 7324, 7323, 7043, 7044, 7079, 7078
5891, 7289, 7290, 7325, 7324, 7044, 7045, 7080, 7079
5892, 7290, 7291, 7326, 7325, 7045, 7046, 7081, 7080
5893, 7291, 7292, 7327, 7326, 7046, 7047, 7082, 7081
5894, 7292, 7293, 7328, 7327, 7047, 7048, 7083, 7082
5895, 7293, 7294, 7329, 7328, 7048, 7049, 7084, 7083
5896, 7294, 7295, 7330, 7329, 7049, 7050, 7085, 7084
5897, 7295, 7296, 7331, 7330, 7050, 7051, 7086, 7085
5898, 7296, 7297, 7332, 7331, 7051, 7052, 7087, 7086
5899, 7297, 7298, 7333, 7332, 7052, 7053, 7088, 7087
5900, 7298, 7299, 7334, 7333, 7053, 7054, 7089, 7088
5901, 7299, 7300, 7335, 7334, 7054, 7055, 7090, 7089
5902, 7300, 7301, 7336, 7335, 7055, 7056, 7091, 7090
5903, 7301, 7302, 7337, 7336, 7056, 7057, 7092, 7091
5904, 7302, 7303, 7338, 7337, 7057, 7058, 7093, 7092
5905, 7303, 7304, 7339, 7338, 7058, 7059, 7094, 7093
5906, 7304, 7305, 7340, 7339, 7059, 7060, 7095, 7094
5907, 7305, 7306, 7341, 7340, 7060, 7061, 7096, 7095
5908, 7306, 7307, 7342, 7341, 7061, 7062, 7097, 7096
5909, 7307, 7308, 7343, 7342, 7062, 7063, 7098, 7097
5910, 7308, 7309, 7344, 7343, 7063, 7064, 7099, 7098
5911, 7309, 7310, 7345, 7344, 7064, 7065, 7100, 7099
5912, 7310, 7311, 7346, 7345, 7065, 7066, 7101, 7100
5913, 7311, 7312, 7347, 7346, 7066, 7067, 7102, 7101
5914, 7312, 7313, 7348, 7347, 7067, 7068, 7103, 7102
5915, 7313, 7314, 7349, 7348, 7068, 7069, 7104, 7103
5916, 7314, 7315, 7350, 7349, 7069, 7070, 7105, 7104
5917, 7351, 7352, 7387, 7386, 7106, 7107, 7142, 7141
5918, 7352, 7353, 7388, 7387, 7107, 7108, 7143, 7142
5919, 7353, 7354, 7389, 7388, 7108, 7109, 7144, 7143
5920, 7354, 7355, 7390, 7389, 7109, 7110, 7145, 7144
5921, 7355, 7356, 7391, 7390, 7110, 7111, 7146, 7145
5922, 7356, 7357, 7392, 7391, 7111, 7112, 7147, 7146
5923, 7357, 7358, 7393, 7392, 7112, 7113, 7148, 7147
5924, 7358, 7359, 7394, 7393, 7113, 7114, 7149, 7148
5925, 7359, 7360, 7395, 7394, 7114, 7115, 7150, 7149
5926, 7360, 7361, 7396, 7395, 7115, 7116, 7151, 7150
5927, 7361, 7362, 7397, 7396, 7116, 7117, 7152, 7151
5928, 7362, 7363, 7398, 7397, 7117, 7118, 7153, 7152
5929, 7363, 7364, 7399, 7398, 7118, 7119, 7154, 7153
5930, 7364, 7365, 7400, 7399, 7119, 7120, 7155, 7154
5931, 7365, 7366, 7401, 7400, 7120, 7121, 7156, 7155
5932, 7366, 7367, 7402, 7401, 7121, 7122, 7157, 7156
5933, 7367, 7368, 7403, 7402, 7122, 7123, 7158, 7157
5934, 7368, 7369, 7404, 7403, 7123, 7124, 7159, 7158
5935, 7369, 7370, 7405, 7404, 7124, 7125, 7160, 7159
5936, 7370, 7371, 7406, 7405, 7125, 7126, 7161, 7160
5937, 7371, 7372, 7407, 7406, 7126, 7127, 7162, 7161
5938, 7372, 7373, 7408, 7407, 7127, 7128, 7163, 7162
5939, 7373, 7374, 7409, 7408, 7128, 7129, 7164, 7163
5940, 7374, 7375, 7410, 7409, 7129, 7130, 7165, 7164
5941, 7375, 7376, 7411, 7410, 7130, 7131, 7166, 7165
5942, 7376, 7377, 7412, 7411, 7131, 7132, 7167, 7166
5943, 7377, 7378, 7413, 7412, 7132, 7133, 7168, 7167
5944, 7378, 7379, 7414, 7413, 7133, 7134, 7169, 7168
5945, 7379, 7380, 7415, 7414, 7134, 7135, 7170, 7169
5946, 7380, 7381, 7416, 7415, 7135, 7136, 7171, 7170
5947, 7381, 7382, 7417, 7416, 7136, 7137, 7172, 7171
5948, 7382, 7383, 7418, 7417, 7137, 7138, 7173, 7172
5949, 7383, 7384, 7419, 7418, 7138, 7139, 7174, 7173
5950, 7384, 7385, 7420, 7419, 7139, 7140, 7175, 7174
5951, 7386, 7387, 7422, 7421, 7141, 7142, 7177, 7176
5952, 7387, 7388, 7423, 7422, 7142, 7143, 7178, 7177
5953, 7388, 7389, 7424, 7423, 7143, 7144, 7179, 7178
5954, 7389, 7390, 7425, 7424, 7144, 7145, 7180, 7179
5955, 7390, 7391, 7426, 7425, 7145, 7146, 7181, 7180
5956, 7391, 7392, 7427, 7426, 7146, 7147, 7182, 7181
5957, 7392, 7393, 7428, 7427, 7147, 7148, 7183, 7182
5958, 7393, 7394, 7429, 7428, 7148, 7149, 7184, 7183
5959, 7394, 7395, 7430, 7429, 7149, 7150, 7185, 7184
5960, 7395, 7396, 7431, 7430, 7150, 7151, 7186, 7185
5961, 7396, 7397, 7432, 7431, 7151, 7152, 7187, 7186
5962, 7397, 7398, 7433, 7432, 7152, 7153, 7188, 7187
5963, 7398, 7399, 7434, 7433, 7153, 7154, 7189, 7188
5964, 7399, 7400, 7435, 7434, 7154, 7155, 7190, 7189
5965, 7400, 7401, 7436, 7435, 7155, 7156, 7191, 7190
5966, 7401, 7402, 7437, 7436, 7156, 7157, 7192, 7191
5967, 7402, 7403, 7438, 7437, 7157, 7158, 7193, 7192
5968, 7403, 7404, 7439, 7438, 7158, 7159, 7194, 7193
5969, 7404, 7405, 7440, 7439, 7159, 7160, 7195, 7194
5970, 7405, 7406, 7441, 7440, 7160, 7161, 7196, 7195
5971, 7406, 7407, 7442, 7441, 7161, 7162, 7197, 7196
5972, 7407, 7408, 7443, 7442, 7162, 7163, 7198, 7197
5973, 7408, 7409, 7444, 7443, 7163, 7164, 7199, 7198
5974, 7409, 7410, 7445, 7444, 7164, 7165, 7200, 7199
5975, 7410, 7411, 7446, 7445, 7165, 7166, 7201, 7200
5976, 7411, 7412, 7447, 7446, 7166, 7167, 7202, 7201
5977, 7412, 7413, 7448, 7447, 7167, 7168, 7203, 7202
5978, 7413, 7414, 7449, 7448, 7168, 7169, 7204, 7203
5979, 7414, 7415, 7450, 7449, 7169, 7170, 7205, 7204
5980, 7415, 7416, 7451, 7450, 7170, 7171, 7206, 7205
5981, 7416, 7417, 7452, 7451, 7171, 7172, 7207, 7206
5982, 7417, 7418, 7453, 7452, 7172, 7173, 7208, 7207
5983, 7418, 7419, 7454, 7453, 7173, 7174, 7209, 7208
5984, 7419, 7420, 7455, 7454, 7174, 7175, 7210, 7209
5985, 7421, 7422, 7457, 7456, 7176, 7177, 7212, 7211
5986, 7422, 7423, 7458, 7457, 7177, 7178, 7213, 7212
5987, 7423, 7424, 7459, 7458, 7178, 7179, 7214, 7213
5988, 7424, 7425, 7460, 7459, 7179, 7180, 7215, 7214
5989, 7425, 7426, 7461, 7460, 7180, 7181, 7216, 7215
5990, 7426, 7427, 7462, 7461, 7181, 7182, 7217, 7216
5991, 7427, 7428, 7463, 7462, 7182, 7183, 7218, 7217
5992, 7428, 7429, 7464, 7463, 7183, 7184, 7219, 7218
5993, 7429, 7430, 7465, 7464, 7184, 7185, 7220, 7219
5994, 7430, 7431, 7466, 7465, 7185, 7186, 7221, 7220
5995, 7431, 7432, 7467, 7466, 7186, 7187, 7222, 7221
5996, 7432, 7433, 7468, 7467, 7187, 7188, 7223, 7222
5997, 7433, 7434, 7469, 7468, 7188, 7189, 7224, 7223
5998, 7434, 7435, 7470, 7469, 7189, 7190, 7225, 7224
5999, 7435, 7436, 7471, 7470, 7190, 7191, 7226, 7225
6000, 7436, 7437, 7472, 7471, 7191, 7192, 7227, 7226
6001, 7437, 7438, 7473, 7472, 7192, 7193, 7228, 7227
6002, 7438, 7439, 7474, 7473, 7193, 7194, 7229, 7228
6003, 7439, 7440, 7475, 7474, 7194, 7195, 7230, 7229
6004, 7440, 7441, 7476, 7475, 7195, 7196, 7231, 7230
6005, 7441, 7442, 7477, 7476, 7196, 7197, 7232, 7231
6006, 7442, 7443, 7478, 7477, 7197, 7198, 7233, 7232
6007, 7443, 7444, 7479, 7478, 7198, 7199, 7234, 7233
6008, 7444, 7445, 7480, 7479, 7199, 7200, 7235, 7234
6009, 7445, 7446, 7481, 7480, 7200, 7201, 7236, 7235
6010, 7446, 7447, 7482, 7481, 7201, 7202, 7237, 7236
6011, 7447, 7448, 7483, 7482, 7202, 7203, 7238, 7237
6012, 7448, 7449, 7484, 7483, 7203, 7204, 7239, 7238
6013, 7449, 7450, 7485, 7484, 7204, 7205, 7240, 7239
6014, 7450, 7451, 7486, 7485, 7205, 7206, 7241, 7240
6015, 7451, 7452, 7487, 7486, 7206, 7207, 7242, 7241
6016, 7452, 7453, 7488, 7487, 7207, 7208, 7243, 7242
6017, 7453, 7454, 7489, 7488, 7208, 7209, 7244, 7243
6018, 7454, 7455, 7490, 7489, 7209, 7210, 7245, 7244
6019, 7456, 7457, 7492, 7491, 7211, 7212, 7247, 7246
6020, 7457, 7458, 7493, 7492, 7212, 7213, 7248, 7247
6021, 7458, 7459, 7494, 7493, 7213, 7214, 7249, 7248
6022, 7459, 7460, 7495, 7494, 7214, 7215, 7250, 7249
6023, 7460, 7461, 7496, 7495, 7215, 7216, 7251, 7250
6024, 7461, 7462, 7497, 7496, 7216, 7217, 7252, 7251
6025, 7462, 7463, 7498, 7497, 7217, 7218, 7253, 7252
6026, 7463, 7464, 7499, 7498, 7218, 7219, 7254, 7253
6027, 7464, 7465, 7500, 7499, 7219, 7220, 7255, 7254
6028, 7465, 7466, 7501, 7500, 7220, 7221, 7256, 7255
6029, 7466, 7467, 7502, 7501, 7221, 7222, 7257, 7256
6030, 7467, 7468, 7503, 7502, 7222, 7223, 7258, 7257
6031, 7468, 7469, 7504, 7503, 7223, 7224, 7259, 7258
6032, 7469, 7470, 7505, 7504, 7224, 7225, 7260, 7259
6033, 7470, 7471, 7506, 7505, 7225, 7226, 7261, 7260
6034, 7471, 7472, 7507, 7506, 7226, 7227, 7262, 7261
6035, 7472, 7473, 7508, 7507, 7227, 7228, 7263, 7262
6036, 7473, 7474, 7509, 7508, 7228, 7229, 7264, 7263
6037, 7474, 7475, 7510, 7509, 7229, 7230, 7265, 7264
6038, 7475, 7476, 7511, 7510, 7230, 7231, 7266, 7265
6039, 7476, 7477, 7512, 7511, 7231, 7232, 7267, 7266
6040, 7477, 7478, 7513, 7512, 7232, 7233, 7268, 7267
6041, 7478, 7479, 7514, 7513, 7233, 7234, 7269, 7268
6042, 7479, 7480, 7515, 7514, 7234, 7235, 7270, 7269
6043, 7480, 7481, 7516, 7515, 7235, 7236, 7271, 7270
6044, 7481, 7482, 7517, 7516, 7236, 7237, 7272, 7271
6045, 7482, 7483, 7518, 7517, 7237, 7238, 7273, 7272
6046, 7483, 7484, 7519, 7518, 7238, 7239, 7274, 7273
6047, 7484, 7485, 7520, 7519, 7239, 7240, 7275, 7274
6048, 7485, 7486, 7521, 7520, 7240, 7241, 7276, 7275
6049, 7486, 7487, 7522, 7521, 7241, 7242, 7277, 7276
6050, 7487, 7488, 7523, 7522, 7242, 7243, 7278, 7277
6051, 7488, 7489, 7524, 7523, 7243, 7244, 7279, 7278
6052, 7489, 7490, 7525, 7524, 7244, 7245, 7280, 7279
6053, 7491, 7492, 7527, 7526, 7246, 7247, 7282, 7281
6054, 7492, 7493, 7528, 7527, 7247, 7248, 7283, 7282
6055, 7493, 7494, 7529, 7528, 7248, 7249, 7284, 7283
6056, 7494, 7495, 7530, 7529, 7249, 7250, 7285, 7284
6057, 7495, 7496, 7531, 7530, 7250, 7251, 7286, 7285
6058, 7496, 7497, 7532, 7531, 7251, 7252, 7287, 7286
6059, 7497, 7498, 7533, 7532, 7252, 7253, 7288, 7287
6060, 7498, 7499, 7534, 7533, 7253, 7254, 7289, 7288
6061, 7499, 7500, 7535, 7534, 7254, 7255, 7290, 7289
6062, 7500, 7501, 7536, 7535, 7255, 7256, 7291, 7290
6063, 7501, 7502, 7537, 7536, 7256, 7257, 7292, 7291
6064, 7502, 7503, 7538, 7537, 7257, 7258, 7293, 7292
6065, 7503, 7504, 7539, 7538, 7258, 7259, 7294, 7293
6066, 7504, 7505, 7540, 7539, 7259, 7260, 7295, 7294
6067, 7505, 7506, 7541, 7540, 7260, 7261, 7296, 7295
6068, 7506, 7507, 7542, 7541, 7261, 7262, 7297, 7296
6069, 7507, 7508, 7543, 7542, 7262, 7263, 7298, 7297
6070, 7508, 7509, 7544, 7543, 7263, 7264, 7299, 7298
6071, 7509, 7510, 7545, 7544, 7264, 7265, 7300, 7299
6072, 7510, 7511, 7546, 7545, 7265, 7266, 7301, 7300
6073, 7511, 7512, 7547, 7546, 7266, 7267, 7302, 7301
6074, 7512, 7513, 7548, 7547, 7267, 7268, 7303, 7302
6075, 7513, 7514, 7549, 7548, 7268, 7269, 7304, 7303
6076, 7514, 7515, 7550, 7549, 7269, 7270, 7305, 7304
6077, 7515, 7516, 7551, 7550, 7270, 7271, 7306, 7305
6078, 7516, 7517, 7552, 7551, 7271, 7272, 7307, 7306
6079, 7517, 7518, 7553, 7552, 7272, 7273, 7308, 7307
6080, 7518, 7519, 7554, 7553, 7273, 7274, 7309, 7308
6081, 7519, 7520, 7555, 7554, 7274, 7275, 7310, 7309
6082, 7520, 7521, 7556, 7555, 7275, 7276, 7311, 7310
6083, 7521, 7522, 7557, 7556, 7276, 7277, 7312, 7311
6084, 7522, 7523, 7558, 7557, 7277, 7278, 7313, 7312
6085, 7523, 7524, 7559, 7558, 7278, 7279, 7314, 7313
6086, 7524, 7525, 7560, 7559, 7279, 7280, 7315, 7314
6087, 7526, 7527, 7562, 7561, 7281, 7282, 7317, 7316
6088, 7527, 7528, 7563, 7562, 7282, 7283, 7318, 7317
6089, 7528, 7529, 7564, 7563, 7283, 7284, 7319, 7318
6090, 7529, 7530, 7565, 7564, 7284, 7285, 7320, 7319
6091, 7530, 7531, 7566, 7565, 7285, 7286, 7321, 7320
6092, 7531, 7532, 7567, 7566, 7286, 7287, 7322, 7321
6093, 7532, 7533, 7568, 7567, 7287, 7288, 7323, 7322
6094, 7533, 7534, 7569, 7568, 7288, 7289, 7324, 7323
6095, 7534, 7535, 7570, 7569, 7289, 7290, 7325, 7324
6096, 7535, 7536, 7571, 7570, 7290, 7291, 7326, 7325
6097, 7536, 7537, 7572, 7571, 7291, 7292, 7327, 7326
6098, 7537, 7538, 7573, 7572, 7292, 7293, 7328, 7327
6099, 7538, 7539, 7574, 7573, 7293, 7294, 7329, 7328
6100, 7539, 7540, 7575, 7574, 7294, 7295, 7330, 7329
6101, 7540, 7541, 7576, 7575, 7295, 7296, 7331, 7330
6102, 7541, 7542, 7577, 7576, 7296, 7297, 7332, 7331
6103, 7542, 7543, 7578, 7577, 7297, 7298, 7333, 7332
6104, 7543, 7544, 7579, 7578, 7298, 7299, 7334, 7333
6105, 7544, 7545, 7580, 7579, 7299, 7300, 7335, 7334
6106, 7545, 7546, 7581, 7580, 7300, 7301, 7336, 7335
6107, 7546, 7547, 7582, 7581, 7301, 7302, 7337, 7336
6108, 7547, 7548, 7583, 7582, 7302, 7303, 7338, 7337
6109, 7548, 7549, 7584, 7583, 7303, 7304, 7339, 7338
6110, 7549, 7550, 7585, 7584, 7304, 7305, 7340, 7339
6111, 7550, 7551, 7586, 7585, 7305, 7306, 7341, 7340
6112, 7551, 7552, 7587, 7586, 7306, 7307, 7342, 7341
6113, 7552, 7553, 7588, 7587, 7307, 7308, 7343, 7342
6114, 7553, 7554, 7589, 7588, 7308, 7309, 7344, 7343
6115, 7554, 7555, 7590, 7589, 7309, 7310, 7345, 7344
6116, 7555, 7556, 7591, 7590, 7310, 7311, 7346, 7345
6117, 7556, 7557, 7592, 7591, 7311, 7312, 7347, 7346
6118, 7557, 7558, 7593, 7592, 7312, 7313, 7348, 7347
6119, 7558, 7559, 7594, 7593, 7313, 7314, 7349, 7348
6120, 7559, 7560, 7595, 7594, 7314, 7315, 7350, 7349
6121, 7596, 7597, 7632, 7631, 7351, 7352, 7387, 7386
6122, 7597, 7598, 7633, 7632, 7352, 7353, 7388, 7387
6123, 7598, 7599, 7634, 7633, 7353, 7354, 7389, 7388
6124, 7599, 7600, 7635, 7634, 7354, 7355, 7390, 7389
6125, 7600, 7601, 7636, 7635, 7355, 7356, 7391, 7390
6126, 7601, 7602, 7637, 7636, 7356, 7357, 7392, 7391
6127, 7602, 7603, 7638, 7637, 7357, 7358, 7393, 7392
6128, 7603, 7604, 7639, 7638, 7358, 7359, 7394, 7393
6129, 7604, 7605, 7640, 7639, 7359, 7360, 7395, 7394
6130, 7605, 7606, 7641, 7640, 7360, 7361, 7396, 7395
6131, 7606, 7607, 7642, 7641, 7361, 7362, 7397, 7396
6132, 7607, 7608, 7643, 7642, 7362, 7363, 7398, 7397
6133, 7608, 7609, 7644, 7643, 7363, 7364, 7399, 7398
6134, 7609, 7610, 7645, 7644, 7364, 7365, 7400, 7399
6135, 7610, 7611, 7646, 7645, 7365, 7366, 7401, 7400
6136, 7611, 7612, 7647, 7646, 7366, 7367, 7402, 7401
6137, 7612, 7613, 7648, 7647, 7367, 7368, 7403, 7402
6138, 7613, 7614, 7649, 7648, 7368, 7369, 7404, 7403
6139, 7614, 7615, 7650, 7649, 7369, 7370, 7405, 7404
6140, 7615, 7616, 7651, 7650, 7370, 7371, 7406, 7405
6141, 7616, 7617, 7652, 7651, 7371, 7372, 7407, 7406
6142, 7617, 7618, 7653, 7652, 7372, 7373, 7408, 7407
6143, 7618, 7619, 7654, 7653, 7373, 7374, 7409, 7408
6144, 7619, 7620, 7655, 7654, 7374, 7375, 7410, 7409
6145, 7620, 7621, 7656, 7655, 7375, 7376, 7411, 7410
6146, 7621, 7622, 7657, 7656, 7376, 7377, 7412, 7411
6147, 7622, 7623, 7658, 7657, 7377, 7378, 7413, 7412
6148, 7623, 7624, 7659, 7658, 7378, 7379, 7414, 7413
6149, 7624, 7625, 7660, 7659, 7379, 7380, 7415, 7414
6150, 7625, 7626, 7661, 7660, 7380, 7381, 7416, 7415
6151, 7626, 7627, 7662, 7661, 7381, 7382, 7417, 7416
6152, 7627, 7628, 7663, 7662, 7382, 7383, 7418, 7417
6153, 7628, 7629, 7664, 7663, 7383, 7384, 7419, 7418
6154, 7629, 7630, 7665, 7664, 7384, 7385, 7420, 7419
6155, 7631, 7632, 7667, 7666, 7386, 7387, 7422, 7421
6156, 7632, 7633, 7668, 7667, 7387, 7388, 7423, 7422
6157, 7633, 7634, 7669, 7668, 7388, 7389, 7424, 7423
6158, 7634, 7635, 7670, 7669, 7389, 7390, 7425, 7424
6159, 7635, 7636, 7671, 7670, 7390, 7391, 7426, 7425
6160, 7636, 7637, 7672, 7671, 7391, 7392, 7427, 7426
6161, 7637, 7638, 7673, 7672, 7392, 7393, 7428, 7427
6162, 7638, 7639, 7674, 7673, 7393, 7394, 7429, 7428
6163, 7639, 7640, 7675, 7674, 7394, 7395, 7430, 7429
6164, 7640, 7641, 7676, 7675, 7395, 7396, 7431, 7430
6165, 7641, 7642, 7677, 7676, 7396, 7397, 7432, 7431
6166, 7642, 7643, 7678, 7677, 7397, 7398, 7433, 7432
6167, 7643, 7644, 7679, 7678, 7398, 7399, 7434, 7433
6168, 7644, 7645, 7680, 7679, 7399, 7400, 7435, 7434
6169, 7645, 7646, 7681, 7680, 7400, 7401, 7436, 7435
6170, 7646, 7647, 7682, 7681, 7401, 7402, 7437, 7436
6171, 7647, 7648, 7683, 7682, 7402, 7403, 7438, 7437
6172, 7648, 7649, 7684, 7683, 7403, 7404, 7439, 7438
6173, 7649, 7650, 7685, 7684, 7404, 7405, 7440, 7439
6174, 7650, 7651, 7686, 7685, 7405, 7406, 7441, 7440
6175, 7651, 7652, 7687, 7686, 7406, 7407, 7442, 7441
6176, 7652, 7653, 7688, 7687, 7407, 7408, 7443, 7442
6177, 7653, 7654, 7689, 7688, 7408, 7409, 7444, 7443
6178, 7654, 7655, 7690, 7689, 7409, 7410, 7445, 7444
6179, 7655, 7656, 7691, 7690, 7410, 7411, 7446, 7445
6180, 7656, 7657, 7692, 7691, 7411, 7412, 7447, 7446
6181, 7657, 7658, 7693, 7692, 7412, 7413, 7448, 7447
6182, 7658, 7659, 7694, 7693, 7413, 7414, 7449, 7448
6183, 7659, 7660, 7695, 7694, 7414, 7415, 7450, 7449
6184, 7660, 7661, 7696, 7695, 7415, 7416, 7451, 7450
6185, 7661, 7662, 7697, 7696, 7416, 7417, 7452, 7451
6186, 7662, 7663, 7698, 7697, 7417, 7418, 7453, 7452
6187, 7663, 7664, 7699, 7698, 7418, 7419, 7454, 7453
6188, 7664, 7665, 7700, 7699, 7419, 7420, 7455, 7454
6189, 7666, 7667, 7702, 7701, 7421, 7422, 7457, 7456
6190, 7667, 7668, 7703, 7702, 7422, 7423, 7458, 7457
6191, 7668, 7669, 7704, 7703, 7423, 7424, 7459, 7458
6192, 7669, 7670, 7705, 7704, 7424, 7425, 7460, 7459
6193, 7670, 7671, 7706, 7705, 7425, 7426, 7461, 7460
6194, 7671, 7672, 7707, 7706, 7426, 7427, 7462, 7461
6195, 7672, 7673, 7708, 7707, 7427, 7428, 7463, 7462
6196, 7673, 7674, 7709, 7708, 7428, 7429, 7464, 7463
6197, 7674, 7675, 7710, 7709, 7429, 7430, 7465, 7464
6198, 7675, 7676, 7711, 7710, 7430, 7431, 7466, 7465
6199, 7676, 7677, 7712, 7711, 7431, 7432, 7467, 7466
6200, 7677, 7678, 7713, 7712, 7432, 7433, 7468, 7467
6201, 7678, 7679, 7714, 7713, 7433, 7434, 7469, 7468
6202, 7679, 7680, 7715, 7714, 7434, 7435, 7470, 7469
6203, 7680, 7681, 7716, 7715, 7435, 7436, 7471, 7470
6204, 7681, 7682, 7717, 7716, 7436, 7437, 7472, 7471
6205, 7682, 7683, 7718, 7717, 7437, 7438, 7473, 7472
6206, 7683, 7684, 7719, 7718, 7438, 7439, 7474, 7473
6207, 7684, 7685, 7720, 7719, 7439, 7440, 7475, 7474
6208, 7685, 7686, 7721, 7720, 7440, 7441, 7476, 7475
6209, 7686, 7687, 7722, 7721, 7441, 7442, 7477, 7476
6210, 7687, 7688, 7723, 7722, 7442, 7443, 7478, 7477
6211, 7688, 7689, 7724, 7723, 7443, 7444, 7479, 7478
6212, 7689, 7690, 7725, 7724, 7444, 7445, 7480, 7479
6213, 7690, 7691, 7726, 7725, 7445, 7446, 7481, 7480
6214, 7691, 7692, 7727, 7726, 7446, 7447, 7482, 7481
6215, 7692, 7693, 7728, 7727, 7447, 7448, 7483, 7482
6216, 7693, 7694, 7729, 7728, 7448, 7449, 7484, 7483
6217, 7694, 7695, 7730, 7729, 7449, 7450, 7485, 7484
6218, 7695, 7696, 7731, 7730, 7450, 7451, 7486, 7485
6219, 7696, 7697, 7732, 7731, 7451, 7452, 7487, 7486
6220, 7697, 7698, 7733, 7732, 7452, 7453, 7488, 7487
6221, 7698, 7699, 7734, 7733, 7453, 7454, 7489, 7488
6222, 7699, 7700, 7735, 7734, 7454, 7455, 7490, 7489
6223, 7701, 7702, 7737, 7736, 7456, 7457, 7492, 7491
6224, 7702, 7703, 7738, 7737, 7457, 7458, 7493, 7492
6225, 7703, 7704, 7739, 7738, 7458, 7459, 7494, 7493
6226, 7704, 7705, 7740, 7739, 7459, 7460, 7495, 7494
6227, 7705, 7706, 7741, 7740, 7460, 7461, 7496, 7495
6228, 7706, 7707, 7742, 7741, 7461, 7462, 7497, 7496
6229, 7707, 7708, 7743, 7742, 7462, 7463, 7498, 7497
6230, 7708, 7709, 7744, 7743, 7463, 7464, 7499, 7498
6231, 7709, 7710, 7745, 7744, 7464, 7465, 7500, 7499
6232, 7710, 7711, 7746, 7745, 7465, 7466, 7501, 7500
6233, 7711, 7712, 7747, 7746, 7466, 7467, 7502, 7501
6234, 7712, 7713, 7748, 7747, 7467, 7468, 7503, 7502
6235, 7713, 7714, 7749, 7748, 7468, 7469, 7504, 7503
6236, 7714, 7715, 7750, 7749, 7469, 7470, 7505, 7504
6237, 7715, 7716, 7751, 7750, 7470, 7471, 7506, 7505
6238, 7716, 7717, 7752, 7751, 7471, 7472, 7507, 7506
6239, 7717, 7718, 7753, 7752, 7472, 7473, 7508, 7507
6240, 7718, 7719, 7754, 7753, 7473, 7474, 7509, 7508
6241, 7719, 7720, 7755, 7754, 7474, 7475, 7510, 7509
6242, 7720, 7721, 7756, 7755, 7475, 7476, 7511, 7510
6243, 7721, 7722, 7757, 7756, 7476, 7477, 7512, 7511
6244, 7722, 7723, 7758, 7757, 7477, 7478, 7513, 7512
6245, 7723, 7724, 7759, 7758, 7478, 7479, 7514, 7513
6246, 7724, 7725, 7760, 7759, 7479, 7480, 7515, 7514
6247, 7725, 7726, 7761, 7760, 7480, 7481, 7516, 7515
6248, 7726, 7727, 7762, 7761, 7481, 7482, 7517, 7516
6249, 7727, 7728, 7763, 7762, 7482, 7483, 7518, 7517
6250, 7728, 7729, 7764, 7763, 7483, 7484, 7519, 7518
6251, 7729, 7730, 7765, 7764, 7484, 7485, 7520, 7519
6252, 7730, 7731, 7766, 7765, 7485, 7486, 7521, 7520
6253, 7731, 7732, 7767, 7766, 7486, 7487, 7522, 7521
6254, 7732, 7733, 7768, 7767, 7487, 7488, 7523, 7522
6255, 7733, 7734, 7769, 7768, 7488, 7489, 7524, 7523
6256, 7734, 7735, 7770, 7769, 7489, 7490, 7525, 7524
6257, 7736, 7737, 7772, 7771, 7491, 7492, 7527, 7526
6258, 7737, 7738, 7773, 7772, 7492, 7493, 7528, 7527
6259, 7738, 7739, 7774, 7773, 7493, 7494, 7529, 7528
6260, 7739, 7740, 7775, 7774, 7494, 7495, 7530, 7529
6261, 7740, 7741, 7776, 7775, 7495, 7496, 7531, 7530
6262, 7741, 7742, 7777, 7776, 7496, 7497, 7532, 7531
6263, 7742, 7743, 7778, 7777, 7497, 7498, 7533, 7532
6264, 7743, 7744, 7779, 7778, 7498, 7499, 7534, 7533
6265, 7744, 7745, 7780, 7779, 7499, 7500, 7535, 7534
6266, 7745, 7746, 7781, 7780, 7500, 7501, 7536, 7535
6267, 7746, 7747, 7782, 7781, 7501, 7502, 7537, 7536
6268, 7747, 7748, 7783, 7782, 7502, 7503, 7538, 7537
6269, 7748, 7749, 7784, 7783, 7503, 7504, 7539, 7538
6270, 7749, 7750, 7785, 7784, 7504, 7505, 7540, 7539
6271, 7750, 7751, 7786, 7785, 7505, 7506, 7541, 7540
6272, 7751, 7752, 7787, 7786, 7506, 7507, 7542, 7541
6273, 7752, 7753, 7788, 7787, 7507, 7508, 7543, 7542
6274, 7753, 7754, 7789, 7788, 7508, 7509, 7544, 7543
6275, 7754, 7755, 7790, 7789, 7509, 7510, 7545, 7544
6276, 7755, 7756, 7791, 7790, 7510, 7511, 7546, 7545
6277, 7756, 7757, 7792, 7791, 7511, 7512, 7547, 7546
6278, 7757, 7758, 7793, 7792, 7512, 7513, 7548, 7547
6279, 7758, 7759, 7794, 7793, 7513, 7514, 7549, 7548
6280, 7759, 7760, 7795, 7794, 7514, 7515, 7550, 7549
6281, 7760, 7761, 7796, 7795, 7515, 7516, 7551, 7550
6282, 7761, 7762, 7797, 7796, 7516, 7517, 7552, 7551
6283, 7762, 7763, 7798, 7797, 7517, 7518, 7553, 7552
6284, 7763, 7764, 7799, 7798, 7518, 7519, 7554, 7553
6285, 7764, 7765, 7800, 7799, 7519, 7520, 7555, 7554
6286, 7765, 7766, 7801, 7800, 7520, 7521, 7556, 7555
6287, 7766, 7767, 7802, 7801, 7521, 7522, 7557, 7556
6288, 7767, 7768, 7803, 7802, 7522, 7523, 7558, 7557
6289, 7768, 7769, 7804, 7803, 7523, 7524, 7559, 7558
6290, 7769, 7770, 7805, 7804, 7524, 7525, 7560, 7559
6291, 7771, 7772, 7807, 7806, 7526, 7527, 7562, 7561
6292, 7772, 7773, 7808, 7807, 7527, 7528, 7563, 7562
6293, 7773, 7774, 7809, 7808, 7528, 7529, 7564, 7563
6294, 7774, 7775, 7810, 7809, 7529, 7530, 7565, 7564
6295, 7775, 7776, 7811, 7810, 7530, 7531, 7566, 7565
6296, 7776, 7777, 7812, 7811, 7531, 7532, 7567, 7566
6297, 7777, 7778, 7813, 7812, 7532, 7533, 7568, 7567
6298, 7778, 7779, 7814, 7813, 7533, 7534, 7569, 7568
6299, 7779, 7780, 7815, 7814, 7534, 7535, 7570, 7569
6300, 7780, 7781, 7816, 7815, 7535, 7536, 7571, 7570
6301, 7781, 7782, 7817, 7816, 7536, 7537, 7572, 7571
6302, 7782, 7783, 7818, 7817, 7537, 7538, 7573, 7572
6303, 7783, 7784, 7819, 7818, 7538, 7539, 7574, 7573
6304, 7784, 7785, 7820, 7819, 7539, 7540, 7575, 7574
6305, 7785, 7786, 7821, 7820, 7540, 7541, 7576, 7575
6306, 7786, 7787, 7822, 7821, 7541, 7542, 7577, 7576
6307, 7787, 7788, 7823, 7822, 7542, 7543, 7578, 7577
6308, 7788, 7789, 7824, 7823, 7543, 7544, 7579, 7578
6309, 7789, 7790, 7825, 7824, 7544, 7545, 7580, 7579
6310, 7790, 7791, 7826, 7825, 7545, 7546, 7581, 7580
6311, 7791, 7792, 7827, 7826, 7546, 7547, 7582, 7581
6312, 7792, 7793, 7828, 7827, 7547, 7548, 7583, 7582
6313, 7793, 7794, 7829, 7828, 7548, 7549, 7584, 7583
6314, 7794, 7795, 7830, 7829, 7549, 7550, 7585, 7584
6315, 7795, 7796, 7831, 7830, 7550, 7551, 7586, 7585
6316, 7796, 7797, 7832, 7831, 7551, 7552, 7587, 7586
6317, 7797, 7798, 7833, 7832, 7552, 7553, 7588, 7587
6318, 7798, 7799, 7834, 7833, 7553, 7554, 7589, 7588
6319, 7799, 7800, 7835, 7834, 7554, 7555, 7590, 7589
6320, 7800, 7801, 7836, 7835, 7555, 7556, 7591, 7590
6321, 7801, 7802, 7837, 7836, 7556, 7557, 7592, 7591
6322, 7802, 7803, 7838, 7837, 7557, 7558, 7593, 7592
6323, 7803, 7804, 7839, 7838, 7558, 7559, 7594, 7593
6324, 7804, 7805, 7840, 7839, 7559, 7560, 7595, 7594
6325, 7841, 7842, 7877, 7876, 7596, 7597, 7632, 7631
6326, 7842, 7843, 7878, 7877, 7597, 7598, 7633, 7632
6327, 7843, 7844, 7879, 7878, 7598, 7599, 7634, 7633
6328, 7844, 7845, 7880, 7879, 7599, 7600, 7635, 7634
6329, 7845, 7846, 7881, 7880, 7600, 7601, 7636, 7635
6330, 7846, 7847, 7882, 7881, 7601, 7602, 7637, 7636
6331, 7847, 7848, 7883, 7882, 7602, 7603, 7638, 7637
6332, 7848, 7849, 7884, 7883, 7603, 7604, 7639, 7638
6333, 7849, 7850, 7885, 7884, 7604, 7605, 7640, 7639
6334, 7850, 7851, 7886, 7885, 7605, 7606, 7641, 7640
6335, 7851, 7852, 7887, 7886, 7606, 7607, 7642, 7641
6336, 7852, 7853, 7888, 7887, 7607, 7608, 7643, 7642
6337, 7853, 7854, 7889, 7888, 7608, 7609, 7644, 7643
6338, 7854, 7855, 7890, 7889, 7609, 7610, 7645, 7644
6339, 7855, 7856, 7891, 7890, 7610, 7611, 7646, 7645
6340, 7856, 7857, 7892, 7891, 7611, 7612, 7647, 7646
6341, 7857, 7858, 7893, 7892, 7612, 7613, 7648, 7647
6342, 7858, 7859, 7894, 7893, 7613, 7614, 7649, 7648
6343, 7859, 7860, 7895, 7894, 7614, 7615, 7650, 7649
6344, 7860, 7861, 7896, 7895, 7615, 7616, 7651, 7650
6345, 7861, 7862, 7897, 7896, 7616, 7617, 7652, 7651
6346, 7862, 7863, 7898, 7897, 7617, 7618, 7653, 7652
6347, 7863, 7864, 7899, 7898, 7618, 7619, 7654, 7653
6348, 7864, 7865, 7900, 7899, 7619, 7620, 7655, 7654
6349, 7865, 7866, 7901, 7900, 7620, 7621, 7656, 7655
6350, 7866, 7867, 7902, 7901, 7621, 7622, 7657, 7656
6351, 7867, 7868, 7903, 7902, 7622, 7623, 7658, 7657
6352, 7868, 7869, 7904, 7903, 7623, 7624, 7659, 7658
6353, 7869, 7870, 7905, 7904, 7624, 7625, 7660, 7659
6354, 7870, 7871, 7906, 7905, 7625, 7626, 7661, 7660
6355, 7871, 7872, 7907, 7906, 7626, 7627, 7662, 7661
6356, 7872, 7873, 7908, 7907, 7627, 7628, 7663, 7662
6357, 7873, 7874, 7909, 7908, 7628, 7629, 7664, 7663
6358, 7874, 7875, 7910, 7909, 7629, 7630, 7665, 7664
6359, 7876, 7877, 7912, 7911, 7631, 7632, 7667, 7666
6360, 7877, 7878, 7913, 7912, 7632, 7633, 7668, 7667
6361, 7878, 7879, 7914, 7913, 7633, 7634, 7669, 7668
6362, 7879, 7880, 7915, 7914, 7634, 7635, 7670, 7669
6363, 7880, 7881, 7916, 7915, 7635, 7636, 7671, 7670
6364, 7881, 7882, 7917, 7916, 7636, 7637, 7672, 7671
6365, 7882, 7883, 7918, 7917, 7637, 7638, 7673, 7672
6366, 7883, 7884, 7919, 7918, 7638, 7639, 7674, 7673
6367, 7884, 7885, 7920, 7919, 7639, 7640, 7675, 7674
6368, 7885, 7886, 7921, 7920, 7640, 7641, 7676, 7675
6369, 7886, 7887, 7922, 7921, 7641, 7642, 7677, 7676
6370, 7887, 7888, 7923, 7922, 7642, 7643, 7678, 7677
6371, 7888, 7889, 7924, 7923, 7643, 7644, 7679, 7678
6372, 7889, 7890, 7925, 7924, 7644, 7645, 7680, 7679
6373, 7890, 7891, 7926, 7925, 7645, 7646, 7681, 7680
6374, 7891, 7892, 7927, 7926, 7646, 7647, 7682, 7681
6375, 7892, 7893, 7928, 7927, 7647, 7648, 7683, 7682
6376, 7893, 7894, 7929, 7928, 7648, 7649, 7684, 7683
6377, 7894, 7895, 7930, 7929, 7649, 7650, 7685, 7684
6378, 7895, 7896, 7931, 7930, 7650, 7651, 7686, 7685
6379, 7896, 7897, 7932, 7931, 7651, 7652, 7687, 7686
6380, 7897, 7898, 7933, 7932, 7652, 7653, 7688, 7687
6381, 7898, 7899, 7934, 7933, 7653, 7654, 7689, 7688
6382, 7899, 7900, 7935, 7934, 7654, 7655, 7690, 7689
6383, 7900, 7901, 7936, 7935, 7655, 7656, 7691, 7690
6384, 7901, 7902, 7937, 7936, 7656, 7657, 7692, 7691
6385, 7902, 7903, 7938, 7937, 7657, 7658, 7693, 7692
6386, 7903, 7904, 7939, 7938, 7658, 7659, 7694, 7693
6387, 7904, 7905, 7940, 7939, 7659, 7660, 7695, 7694
6388, 7905, 7906, 7941, 7940, 7660, 7661, 7696, 7695
6389, 7906, 7907, 7942, 7941, 7661, 7662, 7697, 7696
6390, 7907, 7908, 7943, 7942, 7662, 7663, 7698, 7697
6391, 7908, 7909, 7944, 7943, 7663, 7664, 7699, 7698
6392, 7909, 7910, 7945, 7944, 7664, 7665, 7700, 7699
6393, 7911, 7912, 7947, 7946, 7666, 7667, 7702, 7701
6394, 7912, 7913, 7948, 7947, 7667, 7668, 7703, 7702
6395, 7913, 7914, 7949, 7948, 7668, 7669, 7704, 7703
6396, 7914, 7915, 7950, 7949, 7669, 7670, 7705, 7704
6397, 7915, 7916, 7951, 7950, 7670, 7671, 7706, 7705
6398, 7916, 7917, 7952, 7951, 7671, 7672, 7707, 7706
6399, 7917, 7918, 7953, 7952, 7672, 7673, 7708, 7707
6400, 7918, 7919, 7954, 7953, 7673, 7674, 7709, 7708
6401, 7919, 7920, 7955, 7954, 7674, 7675, 7710, 7709
6402, 7920, 7921, 7956, 7955, 7675, 7676, 7711, 7710
6403, 7921, 7922, 7957, 7956, 7676, 7677, 7712, 7711
6404, 7922, 7923, 7958, 7957, 7677, 7678, 7713, 7712
6405, 7923, 7924, 7959, 7958, 7678, 7679, 7714, 7713
6406, 7924, 7925, 7960, 7959, 7679, 7680, 7715, 7714
6407, 7925, 7926, 7961, 7960, 7680, 7681, 7716, 7715
6408, 7926, 7927, 7962, 7961, 7681, 7682, 7717, 7716
6409, 7927, 7928, 7963, 7962, 7682, 7683, 7718, 7717
6410, 7928, 7929, 7964, 7963, 7683, 7684, 7719, 7718
6411, 7929, 7930, 7965, 7964, 7684, 7685, 7720, 7719
6412, 7930, 7931, 7966, 7965, 7685, 7686, 7721, 7720
6413, 7931, 7932, 7967, 7966, 7686, 7687, 7722, 7721
6414, 7932, 7933, 7968, 7967, 7687, 7688, 7723, 7722
6415, 7933, 7934, 7969, 7968, 7688, 7689, 7724, 7723
6416, 7934, 7935, 7970, 7969, 7689, 7690, 7725, 7724
6417, 7935, 7936, 7971, 7970, 7690, 7691, 7726, 7725
6418, 7936, 7937, 7972, 7971, 7691, 7692, 7727, 7726
6419, 7937, 7938, 7973, 7972, 7692, 7693, 7728, 7727
6420, 7938, 7939, 7974, 7973, 7693, 7694, 7729, 7728
6421, 7939, 7940, 7975, 7974, 7694, 7695, 7730, 7729
6422, 7940, 7941, 7976, 7975, 7695, 7696, 7731, 7730
6423, 7941, 7942, 7977, 7976, 7696, 7697, 7732, 7731
6424, 7942, 7943, 7978, 7977, 7697, 7698, 7733, 7732
6425, 7943, 7944, 7979, 7978, 7698, 7699, 7734, 7733
6426, 7944, 7945, 7980, 7979, 7699, 7700, 7735, 7734
6427, 7946, 7947, 7982, 7981, 7701, 7702, 7737, 7736
6428, 7947, 7948, 7983, 7982, 7702, 7703, 7738, 7737
6429, 7948, 7949, 7984, 7983, 7703, 7704, 7739, 7738
6430, 7949, 7950, 7985, 7984, 7704, 7705, 7740, 7739
6431, 7950, 7951, 7986, 7985, 7705, 7706, 7741, 7740
6432, 7951, 7952, 7987, 7986, 7706, 7707, 7742, 7741
6433, 7952, 7953, 7988, 7987, 7707, 7708, 7743, 7742
6434, 7953, 7954, 7989, 7988, 7708, 7709, 7744, 7743
6435, 7954, 7955, 7990, 7989, 7709, 7710, 7745, 7744
6436, 7955, 7956, 7991, 7990, 7710, 7711, 7746, 7745
6437, 7956, 7957, 7992, 7991, 7711, 7712, 7747, 7746
6438, 7957, 7958, 7993, 7992, 7712, 7713, 7748, 7747
6439, 7958, 7959, 7994, 7993, 7713, 7714, 7749, 7748
6440, 7959, 7960, 7995, 7994, 7714, 7715, 7750, 7749
6441, 7960, 7961, 7996, 7995, 7715, 7716, 7751, 7750
6442, 7961, 7962, 7997, 7996, 7716, 7717, 7752, 7751
6443, 7962, 7963, 7998, 7997, 7717, 7718, 7753, 7752
6444, 7963, 7964, 7999, 7998, 7718, 7719, 7754, 7753
6445, 7964, 7965, 8000, 7999, 7719, 7720, 7755, 7754
6446, 7965, 7966, 8001, 8000, 7720, 7721, 7756, 7755
6447, 7966, 7967, 8002, 8001, 7721, 7722, 7757, 7756
6448, 7967, 7968, 8003, 8002, 7722, 7723, 7758, 7757
6449, 7968, 7969, 8004, 8003, 7723, 7724, 7759, 7758
6450, 7969, 7970, 8005, 8004, 7724, 7725, 7760, 7759
6451, 7970, 7971, 8006, 8005, 7725, 7726, 7761, 7760
6452, 7971, 7972, 8007, 8006, 7726, 7727, 7762, 7761
6453, 7972, 7973, 8008, 8007, 7727, 7728, 7763, 7762
6454, 7973, 7974, 8009, 8008, 7728, 7729, 7764, 7763
6455, 7974, 7975, 8010, 8009, 7729, 7730, 7765, 7764
6456, 7975, 7976, 8011, 8010, 7730, 7731, 7766, 7765
6457, 7976, 7977, 8012, 8011, 7731, 7732, 7767, 7766
6458, 7977, 7978, 8013, 8012, 7732, 7733, 7768, 7767
6459, 7978, 7979, 8014, 8013, 7733, 7734, 7769, 7768
6460, 7979, 7980, 8015, 8014, 7734, 7735, 7770, 7769
6461, 7981, 7982, 8017, 8016, 7736, 7737, 7772, 7771
6462, 7982, 7983, 8018, 8017, 7737, 7738, 7773, 7772
6463, 7983, 7984, 8019, 8018, 7738, 7739, 7774, 7773
6464, 7984, 7985, 8020, 8019, 7739, 7740, 7775, 7774
6465, 7985, 7986, 8021, 8020, 7740, 7741, 7776, 7775
6466, 7986, 7987, 8022, 8021, 7741, 7742, 7777, 7776
6467, 7987, 7988, 8023, 8022, 7742, 7743, 7778, 7777
6468, 7988, 7989, 8024, 8023, 7743, 7744, 7779, 7778
6469, 7989, 7990, 8025, 8024, 7744, 7745, 7780, 7779
6470, 7990, 7991, 8026, 8025, 7745, 7746, 7781, 7780
6471, 7991, 7992, 8027, 8026, 7746, 7747, 7782, 7781
6472, 7992, 7993, 8028, 8027, 7747, 7748, 7783, 7782
6473, 7993, 7994, 8029, 8028, 7748, 7749, 7784, 7783
6474, 7994, 7995, 8030, 8029, 7749, 7750, 7785, 7784
6475, 7995, 7996, 8031, 8030, 7750, 7751, 7786, 7785
6476, 7996, 7997, 8032, 8031, 7751, 7752, 7787, 7786
6477, 7997, 7998, 8033, 8032, 7752, 7753, 7788, 7787
6478, 7998, 7999, 8034, 8033, 7753, 7754, 7789, 7788
6479, 7999, 8000, 8035, 8034, 7754, 7755, 7790, 7789
6480, 8000, 8001, 8036, 8035, 7755, 7756, 7791, 7790
6481, 8001, 8002, 8037, 8036, 7756, 7757, 7792, 7791
6482, 8002, 8003, 8038, 8037, 7757, 7758, 7793, 7792
6483, 8003, 8004, 8039, 8038, 7758, 7759, 7794, 7793
6484, 8004, 8005, 8040, 8039, 7759, 7760, 7795, 7794
6485, 8005, 8006, 8041, 8040, 7760, 7761, 7796, 7795
6486, 8006, 8007, 8042, 8041, 7761, 7762, 7797, 7796
6487, 8007, 8008, 8043, 8042, 7762, 7763, 7798, 7797
6488, 8008, 8009, 8044, 8043, 7763, 7764, 7799, 7798
6489, 8009, 8010, 8045, 8044, 7764, 7765, 7800, 7799
6490, 8010, 8011, 8046, 8045, 7765, 7766, 7801, 7800
6491, 8011, 8012, 8047, 8046, 7766, 7767, 7802, 7801
6492, 8012, 8013, 8048, 8047, 7767, 7768, 7803, 7802
6493, 8013, 8014, 8049, 8048, 7768, 7769, 7804, 7803
6494, 8014, 8015, 8050, 8049, 7769, 7770, 7805, 7804
6495, 8016, 8017, 8052, 8051, 7771, 7772, 7807, 7806
6496, 8017, 8018, 8053, 8052, 7772, 7773, 7808, 7807
6497, 8018, 8019, 8054, 8053, 7773, 7774, 7809, 7808
6498, 8019, 8020, 8055, 8054, 7774, 7775, 7810, 7809
6499, 8020, 8021, 8056, 8055, 7775, 7776, 7811, 7810
6500, 8021, 8022, 8057, 8056, 7776, 7777, 7812, 7811
6501, 8022, 8023, 8058, 8057, 7777, 7778, 7813, 7812
6502, 8023, 8024, 8059, 8058, 7778, 7779, 7814, 7813
6503, 8024, 8025, 8060, 8059, 7779, 7780, 7815, 7814
6504, 8025, 8026, 8061, 8060, 7780, 7781, 7816, 7815
6505, 8026, 8027, 8062, 8061, 7781, 7782, 7817, 7816
6506, 8027, 8028, 8063, 8062, 7782, 7783, 7818, 7817
6507, 8028, 8029, 8064, 8063, 7783, 7784, 7819, 7818
6508, 8029, 8030, 8065, 8064, 7784, 7785, 7820, 7819
6509, 8030, 8031, 8066, 8065, 7785, 7786, 7821, 7820
6510, 8031, 8032, 8067, 8066, 7786, 7787, 7822, 7821
6511, 8032, 8033, 8068, 8067, 7787, 7788, 7823, 7822
6512, 8033, 8034, 8069, 8068, 7788, 7789, 7824, 7823
6513, 8034, 8035, 8070, 8069, 7789, 7790, 7825, 7824
6514, 8035, 8036, 8071, 8070, 7790, 7791, 7826, 7825
6515, 8036, 8037, 8072, 8071, 7791, 7792, 7827, 7826
6516, 8037, 8038, 8073, 8072, 7792, 7793, 7828, 7827
6517, 8038, 8039, 8074, 8073, 7793, 7794, 7829, 7828
6518, 8039, 8040, 8075, 8074, 7794, 7795, 7830, 7829
6519, 8040, 8041, 8076, 8075, 7795, 7796, 7831, 7830
6520, 8041, 8042, 8077, 8076, 7796, 7797, 7832, 7831
6521, 8042, 8043, 8078, 8077, 7797, 7798, 7833, 7832
6522, 8043, 8044, 8079, 8078, 7798, 7799, 7834, 7833
6523, 8044, 8045, 8080, 8079, 7799, 7800, 7835, 7834
6524, 8045, 8046, 8081, 8080, 7800, 7801, 7836, 7835
6525, 8046, 8047, 8082, 8081, 7801, 7802, 7837, 7836
6526, 8047, 8048, 8083, 8082, 7802, 7803, 7838, 7837
6527, 8048, 8049, 8084, 8083, 7803, 7804, 7839, 7838
6528, 8049, 8050, 8085, 8084, 7804, 7805, 7840, 7839
6529, 8086, 8087, 8122, 8121, 7841, 7842, 7877, 7876
6530, 8087, 8088, 8123, 8122, 7842, 7843, 7878, 7877
6531, 8088, 8089, 8124, 8123, 7843, 7844, 7879, 7878
6532, 8089, 8090, 8125, 8124, 7844, 7845, 7880, 7879
6533, 8090, 8091, 8126, 8125, 7845, 7846, 7881, 7880
6534, 8091, 8092, 8127, 8126, 7846, 7847, 7882, 7881
6535, 8092, 8093, 8128, 8127, 7847, 7848, 7883, 7882
6536, 8093, 8094, 8129, 8128, 7848, 7849, 7884, 7883
6537, 8094, 8095, 8130, 8129, 7849, 7850, 7885, 7884
6538, 8095, 8096, 8131, 8130, 7850, 7851, 7886, 7885
6539, 8096, 8097, 8132, 8131, 7851, 7852, 7887, 7886
6540, 8097, 8098, 8133, 8132, 7852, 7853, 7888, 7887
6541, 8098, 8099, 8134, 8133, 7853, 7854, 7889, 7888
6542, 8099, 8100, 8135, 8134, 7854, 7855, 7890, 7889
6543, 8100, 8101, 8136, 8135, 7855, 7856, 7891, 7890
6544, 8101, 8102, 8137, 8136, 7856, 7857, 7892, 7891
6545, 8102, 8103, 8138, 8137, 7857, 7858, 7893, 7892
6546, 8103, 8104, 8139, 8138, 7858, 7859, 7894, 7893
6547, 8104, 8105, 8140, 8139, 7859, 7860, 7895, 7894
6548, 8105, 8106, 8141, 8140, 7860, 7861, 7896, 7895
6549, 8106, 8107, 8142, 8141, 7861, 7862, 7897, 7896
6550, 8107, 8108, 8143, 8142, 7862, 7863, 7898, 7897
6551, 8108, 8109, 8144, 8143, 7863, 7864, 7899, 7898
6552, 8109, 8110, 8145, 8144, 7864, 7865, 7900, 7899
6553, 8110, 8111, 8146, 8145, 7865, 7866, 7901, 7900
6554, 8111, 8112, 8147, 8146, 7866, 7867, 7902, 7901
6555, 8112, 8113, 8148, 8147, 7867, 7868, 7903, 7902
6556, 8113, 8114, 8149, 8148, 7868, 7869, 7904, 7903
6557, 8114, 8115, 8150, 8149, 7869, 7870, 7905, 7904
6558, 8115, 8116, 8151, 8150, 7870, 7871, 7906, 7905
6559, 8116, 8117, 8152, 8151, 7871, 7872, 7907, 7906
6560, 8117, 8118, 8153, 8152, 7872, 7873, 7908, 7907
6561, 8118, 8119, 8154, 8153, 7873, 7874, 7909, 7908
6562, 8119, 8120, 8155, 8154, 7874, 7875, 7910, 7909
6563, 8121, 8122, 8157, 8156, 7876, 7877, 7912, 7911
6564, 8122, 8123, 8158, 8157, 7877, 7878, 7913, 7912
6565, 8123, 8124, 8159, 8158, 7878, 7879, 7914, 7913
6566, 8124, 8125, 8160, 8159, 7879, 7880, 7915, 7914
6567, 8125, 8126, 8161, 8160, 7880, 7881, 7916, 7915
6568, 8126, 8127, 8162, 8161, 7881, 7882, 7917, 7916
6569, 8127, 8128, 8163, 8162, 7882, 7883, 7918, 7917
6570, 8128, 8129, 8164, 8163, 7883, 7884, 7919, 7918
6571, 8129, 8130, 8165, 8164, 7884, 7885, 7920, 7919
6572, 8130, 8131, 8166, 8165, 7885, 7886, 7921, 7920
6573, 8131, 8132, 8167, 8166, 7886, 7887, 7922, 7921
6574, 8132, 8133, 8168, 8167, 7887, 7888, 7923, 7922
6575, 8133, 8134, 8169, 8168, 7888, 7889, 7924, 7923
6576, 8134, 8135, 8170, 8169, 7889, 7890, 7925, 7924
6577, 8135, 8136, 8171, 8170, 7890, 7891, 7926, 7925
6578, 8136, 8137, 8172, 8171, 7891, 7892, 7927, 7926
6579, 8137, 8138, 8173, 8172, 7892, 7893, 7928, 7927
6580, 8138, 8139, 8174, 8173, 7893, 7894, 7929, 7928
6581, 8139, 8140, 8175, 8174, 7894, 7895, 7930, 7929
6582, 8140, 8141, 8176, 8175, 7895, 7896, 7931, 7930
6583, 8141, 8142, 8177, 8176, 7896, 7897, 7932, 7931
6584, 8142, 8143, 8178, 8177, 7897, 7898, 7933, 7932
6585, 8143, 8144, 8179, 8178, 7898, 7899, 7934, 7933
6586, 8144, 8145, 8180, 8179, 7899, 7900, 7935, 7934
6587, 8145, 8146, 8181, 8180, 7900, 7901, 7936, 7935
6588, 8146, 8147, 8182, 8181, 7901, 7902, 7937, 7936
6589, 8147, 8148, 8183, 8182, 7902, 7903, 7938, 7937
6590, 8148, 8149, 8184, 8183, 7903, 7904, 7939, 7938
6591, 8149, 8150, 8185, 8184, 7904, 7905, 7940, 7939
6592, 8150, 8151, 8186, 8185, 7905, 7906, 7941, 7940
6593, 8151, 8152, 8187, 8186, 7906, 7907, 7942, 7941
6594, 8152, 8153, 8188, 8187, 7907, 7908, 7943, 7942
6595, 8153, 8154, 8189, 8188, 7908, 7909, 7944, 7943
6596, 8154, 8155, 8190, 8189, 7909, 7910, 7945, 7944
6597, 8156, 8157, 8192, 8191, 7911, 7912, 7947, 7946
6598, 8157, 8158, 8193, 8192, 7912, 7913, 7948, 7947
6599, 8158, 8159, 8194, 8193, 7913, 7914, 7949, 7948
6600, 8159, 8160, 8195, 8194, 7914, 7915, 7950, 7949
6601, 8160, 8161, 8196, 8195, 7915, 7916, 7951, 7950
6602, 8161, 8162, 8197, 8196, 7916, 7917, 7952, 7951
6603, 8162, 8163, 8198, 8197, 7917, 7918, 7953, 7952
6604, 8163, 8164, 8199, 8198, 7918, 7919, 7954, 7953
6605, 8164, 8165, 8200, 8199, 7919, 7920, 7955, 7954
6606, 8165, 8166, 8201, 8200, 7920, 7921, 7956, 7955
6607, 8166, 8167, 8202, 8201, 7921, 7922, 7957, 7956
6608, 8167, 8168, 8203, 8202, 7922, 7923, 7958, 7957
6609, 8168, 8169, 8204, 8203, 7923, 7924, 7959, 7958
6610, 8169, 8170, 8205, 8204, 7924, 7925, 7960, 7959
6611, 8170, 8171, 8206, 8205, 7925, 7926, 7961, 7960
6612, 8171, 8172, 8207, 8206, 7926, 7927, 7962, 7961
6613, 8172, 8173, 8208, 8207, 7927, 7928, 7963, 7962
6614, 8173, 8174, 8209, 8208, 7928, 7929, 7964, 7963
6615, 8174, 8175, 8210, 8209, 7929, 7930, 7965, 7964
6616, 8175, 8176, 8211, 8210, 7930, 7931, 7966, 7965
6617, 8176, 8177, 8212, 8211, 7931, 7932, 7967, 7966
6618, 8177, 8178, 8213, 8212, 7932, 7933, 7968, 7967
6619, 8178, 8179, 8214, 8213, 7933, 7934, 7969, 7968
6620, 8179, 8180, 8215, 8214, 7934, 7935, 7970, 7969
6621, 8180, 8181, 8216, 8215, 7935, 7936, 7971, 7970
6622, 8181, 8182, 8217, 8216, 7936, 7937, 7972, 7971
6623, 8182, 8183, 8218, 8217, 7937, 7938, 7973, 7972
6624, 8183, 8184, 8219, 8218, 7938, 7939, 7974, 7973
6625, 8184, 8185, 8220, 8219, 7939, 7940, 7975, 7974
6626, 8185, 8186, 8221, 8220, 7940, 7941, 7976, 7975
6627, 8186, 8187, 8222, 8221, 7941, 7942, 7977, 7976
6628, 8187, 8188, 8223, 8222, 7942, 7943, 7978, 7977
6629, 8188, 8189, 8224, 8223, 7943, 7944, 7979, 7978
6630, 8189, 8190, 8225, 8224, 7944, 7945, 7980, 7979
6631, 8191, 8192, 8227, 8226, 7946, 7947, 7982, 7981
6632, 8192, 8193, 8228, 8227, 7947, 7948, 7983, 7982
6633, 8193, 8194, 8229, 8228, 7948, 7949, 7984, 7983
6634, 8194, 8195, 8230, 8229, 7949, 7950, 7985, 7984
6635, 8195, 8196, 8231, 8230, 7950, 7951, 7986, 7985
6636, 8196, 8197, 8232, 8231, 7951, 7952, 7987, 7986
6637, 8197, 8198, 8233, 8232, 7952, 7953, 7988, 7987
6638, 8198, 8199, 8234, 8233, 7953, 7954, 7989, 7988
6639, 8199, 8200, 8235, 8234, 7954, 7955, 7990, 7989
6640, 8200, 8201, 8236, 8235, 7955, 7956, 7991, 7990
6641, 8201, 8202, 8237, 8236, 7956, 7957, 7992, 7991
6642, 8202, 8203, 8238, 8237, 7957, 7958, 7993, 7992
6643, 8203, 8204, 8239, 8238, 7958, 7959, 7994, 7993
6644, 8204, 8205, 8240, 8239, 7959, 7960, 7995, 7994
6645, 8205, 8206, 8241, 8240, 7960, 7961, 7996, 7995
6646, 8206, 8207, 8242, 8241, 7961, 7962, 7997, 7996
6647, 8207, 8208, 8243, 8242, 7962, 7963, 7998, 7997
6648, 8208, 8209, 8244, 8243, 7963, 7964, 7999, 7998
6649, 8209, 8210, 8245, 8244, 7964, 7965, 8000, 7999
6650, 8210, 8211, 8246, 8245, 7965, 7966, 8001, 8000
6651, 8211, 8212, 8247, 8246, 7966, 7967, 8002, 8001
6652, 8212, 8213, 8248, 8247, 7967, 7968, 8003, 8002
6653, 8213, 8214, 8249, 8248, 7968, 7969, 8004, 8003
6654, 8214, 8215, 8250, 8249, 7969, 7970, 8005, 8004
6655, 8215, 8216, 8251, 8250, 7970, 7971, 8006, 8005
6656, 8216, 8217, 8252, 8251, 7971, 7972, 8007, 8006
6657, 8217, 8218, 8253, 8252, 7972, 7973, 8008, 8007
6658, 8218, 8219, 8254, 8253, 7973, 7974, 8009, 8008
6659, 8219, 8220, 8255, 8254, 7974, 7975, 8010, 8009
6660, 8220, 8221, 8256, 8255, 7975, 7976, 8011, 8010
6661, 8221, 8222, 8257, 8256, 7976, 7977, 8012, 8011
6662, 8222, 8223, 8258, 8257, 7977, 7978, 8013, 8012
6663, 8223, 8224, 8259, 8258, 7978, 7979, 8014, 8013
6664, 8224, 8225, 8260, 8259, 7979, 7980, 8015, 8014
6665, 8226, 8227, 8262, 8261, 7981, 7982, 8017, 8016
6666, 8227, 8228, 8263, 8262, 7982, 7983, 8018, 8017
6667, 8228, 8229, 8264, 8263, 7983, 7984, 8019, 8018
6668, 8229, 8230, 8265, 8264, 7984, 7985, 8020, 8019
6669, 8230, 8231, 8266, 8265, 7985, 7986, 8021, 8020
6670, 8231, 8232, 8267, 8266, 7986, 7987, 8022, 8021
6671, 8232, 8233, 8268, 8267, 7987, 7988, 8023, 8022
6672, 8233, 8234, 8269, 8268, 7988, 7989, 8024, 8023
6673, 8234, 8235, 8270, 8269, 7989, 7990, 8025, 8024
6674, 8235, 8236, 8271, 8270, 7990, 7991, 8026, 8025
6675, 8236, 8237, 8272, 8271, 7991, 7992, 8027, 8026
6676, 8237, 8238, 8273, 8272, 7992, 7993, 8028, 8027
6677, 8238, 8239, 8274, 8273, 7993, 7994, 8029, 8028
6678, 8239, 8240, 8275, 8274, 7994, 7995, 8030, 8029
6679, 8240, 8241, 8276, 8275, 7995, 7996, 8031, 8030
6680, 8241, 8242, 8277, 8276, 7996, 7997, 8032, 8031
6681, 8242, 8243, 8278, 8277, 7997, 7998, 8033, 8032
6682, 8243, 8244, 8279, 8278, 7998, 7999, 8034, 8033
6683, 8244, 8245, 8280, 8279, 7999, 8000, 8035, 8034
6684, 8245, 8246, 8281, 8280, 8000, 8001, 8036, 8035
6685, 8246, 8247, 8282, 8281, 8001, 8002, 8037, 8036
6686, 8247, 8248, 8283, 8282, 8002, 8003, 8038, 8037
6687, 8248, 8249, 8284, 8283, 8003, 8004, 8039, 8038
6688, 8249, 8250, 8285, 8284, 8004, 8005, 8040, 8039
6689, 8250, 8251, 8286, 8285, 8005, 8006, 8041, 8040
6690, 8251, 8252, 8287, 8286, 8006, 8007, 8042, 8041
6691, 8252, 8253, 8288, 8287, 8007, 8008, 8043, 8042
6692, 8253, 8254, 8289, 8288, 8008, 8009, 8044, 8043
6693, 8254, 8255, 8290, 8289, 8009, 8010, 8045, 8044
6694, 8255, 8256, 8291, 8290, 8010, 8011, 8046, 8045
6695, 8256, 8257, 8292, 8291, 8011, 8012, 8047, 8046
6696, 8257, 8258, 8293, 8292, 8012, 8013, 8048, 8047
6697, 8258, 8259, 8294, 8293, 8013, 8014, 8049, 8048
6698, 8259, 8260, 8295, 8294, 8014, 8015, 8050, 8049
6699, 8261, 8262, 8297, 8296, 8016, 8017, 8052, 8051
6700, 8262, 8263, 8298, 8297, 8017, 8018, 8053, 8052
6701, 8263, 8264, 8299, 8298, 8018, 8019, 8054, 8053
6702, 8264, 8265, 8300, 8299, 8019, 8020, 8055, 8054
6703, 8265, 8266, 8301, 8300, 8020, 8021, 8056, 8055
6704, 8266, 8267, 8302, 8301, 8021, 8022, 8057, 8056
6705, 8267, 8268, 8303, 8302, 8022, 8023, 8058, 8057
6706, 8268, 8269, 8304, 8303, 8023, 8024, 8059, 8058
6707, 8269, 8270, 8305, 8304, 8024, 8025, 8060, 8059
6708, 8270, 8271, 8306, 8305, 8025, 8026, 8061, 8060
6709, 8271, 8272, 8307, 8306, 8026, 8027, 8062, 8061
6710, 8272, 8273, 8308, 8307, 8027, 8028, 8063, 8062
6711, 8273, 8274, 8309, 8308, 8028, 8029, 8064, 8063
6712, 8274, 8275, 8310, 8309, 8029, 8030, 8065, 8064
6713, 8275, 8276, 8311, 8310, 8030, 8031, 8066, 8065
6714, 8276, 8277, 8312, 8311, 8031, 8032, 8067, 8066
6715, 8277, 8278, 8313, 8312, 8032, 8033, 8068, 8067
6716, 8278, 8279, 8314, 8313, 8033, 8034, 8069, 8068
6717, 8279, 8280, 8315, 8314, 8034, 8035, 8070, 8069
6718, 8280, 8281, 8316, 8315, 8035, 8036, 8071, 8070
6719, 8281, 8282, 8317, 8316, 8036, 8037, 8072, 8071
6720, 8282, 8283, 8318, 8317, 8037, 8038, 8073, 8072
6721, 8283, 8284, 8319, 8318, 8038, 8039, 8074, 8073
6722, 8284, 8285, 8320, 8319, 8039, 8040, 8075, 8074
6723, 8285, 8286, 8321, 8320, 8040, 8041, 8076, 8075
6724, 8286, 8287, 8322, 8321, 8041, 8042, 8077, 8076
6725, 8287, 8288, 8323, 8322, 8042, 8043, 8078, 8077
6726, 8288, 8289, 8324, 8323, 8043, 8044, 8079, 8078
6727, 8289, 8290, 8325, 8324, 8044, 8045, 8080, 8079
6728, 8290, 8291, 8326, 8325, 8045, 8046, 8081, 8080
6729, 8291, 8292, 8327, 8326, 8046, 8047, 8082, 8081
6730, 8292, 8293, 8328, 8327, 8047, 8048, 8083, 8082
6731, 8293, 8294, 8329, 8328, 8048, 8049, 8084, 8083
6732, 8294, 8295, 8330, 8329, 8049, 8050, 8085, 8084
6733, 8331, 8332, 8367, 8366, 8086, 8087, 8122, 8121
6734, 8332, 8333, 8368, 8367, 8087, 8088, 8123, 8122
6735, 8333, 8334, 8369, 8368, 8088, 8089, 8124, 8123
6736, 8334, 8335, 8370, 8369, 8089, 8090, 8125, 8124
6737, 8335, 8336, 8371, 8370, 8090, 8091, 8126, 8125
6738, 8336, 8337, 8372, 8371, 8091, 8092, 8127, 8126
6739, 8337, 8338, 8373, 8372, 8092, 8093, 8128, 8127
6740, 8338, 8339, 8374, 8373, 8093, 8094, 8129, 8128
6741, 8339, 8340, 8375, 8374, 8094, 8095, 8130, 8129
6742, 8340, 8341, 8376, 8375, 8095, 8096, 8131, 8130
6743, 8341, 8342, 8377, 8376, 8096, 8097, 8132, 8131
6744, 8342, 8343, 8378, 8377, 8097, 8098, 8133, 8132
6745, 8343, 8344, 8379, 8378, 8098, 8099, 8134, 8133
6746, 8344, 8345, 8380, 8379, 8099, 8100, 8135, 8134
6747, 8345, 8346, 8381, 8380, 8100, 8101, 8136, 8135
6748, 8346, 8347, 8382, 8381, 8101, 8102, 8137, 8136
6749, 8347, 8348, 8383, 8382, 8102, 8103, 8138, 8137
6750, 8348, 8349, 8384, 8383, 8103, 8104, 8139, 8138
6751, 8349, 8350, 8385, 8384, 8104, 8105, 8140, 8139
6752, 8350, 8351, 8386, 8385, 8105, 8106, 8141, 8140
6753, 8351, 8352, 8387, 8386, 8106, 8107, 8142, 8141
6754, 8352, 8353, 8388, 8387, 8107, 8108, 8143, 8142
6755, 8353, 8354, 8389, 8388, 8108, 8109, 8144, 8143
6756, 8354, 8355, 8390, 8389, 8109, 8110, 8145, 8144
6757, 8355, 8356, 8391, 8390, 8110, 8111, 8146, 8145
6758, 8356, 8357, 8392, 8391, 8111, 8112, 8147, 8146
6759, 8357, 8358, 8393, 8392, 8112, 8113, 8148, 8147
6760, 8358, 8359, 8394, 8393, 8113, 8114, 8149, 8148
6761, 8359, 8360, 8395, 8394, 8114, 8115, 8150, 8149
6762, 8360, 8361, 8396, 8395, 8115, 8116, 8151, 8150
6763, 8361, 8362, 8397, 8396, 8116, 8117, 8152, 8151
6764, 8362, 8363, 8398, 8397, 8117, 8118, 8153, 8152
6765, 8363, 8364, 8399, 8398, 8118, 8119, 8154, 8153
6766, 8364, 8365, 8400, 8399, 8119, 8120, 8155, 8154
6767, 8366, 8367, 8402, 8401, 8121, 8122, 8157, 8156
6768, 8367, 8368, 8403, 8402, 8122, 8123, 8158, 8157
6769, 8368, 8369, 8404, 8403, 8123, 8124, 8159, 8158
6770, 8369, 8370, 8405, 8404, 8124, 8125, 8160, 8159
6771, 8370, 8371, 8406, 8405, 8125, 8126, 8161, 8160
6772, 8371, 8372, 8407, 8406, 8126, 8127, 8162, 8161
6773, 8372, 8373, 8408, 8407, 8127, 8128, 8163, 8162
6774, 8373, 8374, 8409, 8408, 8128, 8129, 8164, 8163
6775, 8374, 8375, 8410, 8409, 8129, 8130, 8165, 8164
6776, 8375, 8376, 8411, 8410, 8130, 8131, 8166, 8165
6777, 8376, 8377, 8412, 8411, 8131, 8132, 8167, 8166
6778, 8377, 8378, 8413, 8412, 8132, 8133, 8168, 8167
6779, 8378, 8379, 8414, 8413, 8133, 8134, 8169, 8168
6780, 8379, 8380, 8415, 8414, 8134, 8135, 8170, 8169
6781, 8380, 8381, 8416, 8415, 8135, 8136, 8171, 8170
6782, 8381, 8382, 8417, 8416, 8136, 8137, 8172, 8171
6783, 8382, 8383, 8418, 8417, 8137, 8138, 8173, 8172
6784, 8383, 8384, 8419, 8418, 8138, 8139, 8174, 8173
6785, 8384, 8385, 8420, 8419, 8139, 8140, 8175, 8174
6786, 8385, 8386, 8421, 8420, 8140, 8141, 8176, 8175
6787, 8386, 8387, 8422, 8421, 8141, 8142, 8177, 8176
6788, 8387, 8388, 8423, 8422, 8142, 8143, 8178, 8177
6789, 8388, 8389, 8424, 8423, 8143, 8144, 8179, 8178
6790, 8389, 8390, 8425, 8424, 8144, 8145, 8180, 8179
6791, 8390, 8391, 8426, 8425, 8145, 8146, 8181, 8180
6792, 8391, 8392, 8427, 8426, 8146, 8147, 8182, 8181
6793, 8392, 8393, 8428, 8427, 8147, 8148, 8183, 8182
6794, 8393, 8394, 8429, 8428, 8148, 8149, 8184, 8183
6795, 8394, 8395, 8430, 8429, 8149, 8150, 8185, 8184
6796, 8395, 8396, 8431, 8430, 8150, 8151, 8186, 8185
6797, 8396, 8397, 8432, 8431, 8151, 8152, 8187, 8186
6798, 8397, 8398, 8433, 8432, 8152, 8153, 8188, 8187
6799, 8398, 8399, 8434, 8433, 8153, 8154, 8189, 8188
6800, 8399, 8400, 8435, 8434, 8154, 8155, 8190, 8189
6801, 8401, 8402, 8437, 8436, 8156, 8157, 8192, 8191
6802, 8402, 8403, 8438, 8437, 8157, 8158, 8193, 8192
6803, 8403, 8404, 8439, 8438, 8158, 8159, 8194, 8193
6804, 8404, 8405, 8440, 8439, 8159, 8160, 8195, 8194
6805, 8405, 8406, 8441, 8440, 8160, 8161, 8196, 8195
6806, 8406, 8407, 8442, 8441, 8161, 8162, 8197, 8196
6807, 8407, 8408, 8443, 8442, 8162, 8163, 8198, 8197
6808, 8408, 8409, 8444, 8443, 8163, 8164, 8199, 8198
6809, 8409, 8410, 8445, 8444, 8164, 8165, 8200, 8199
6810, 8410, 8411, 8446, 8445, 8165, 8166, 8201, 8200
6811, 8411, 8412, 8447, 8446, 8166, 8167, 8202, 8201
6812, 8412, 8413, 8448, 8447, 8167, 8168, 8203, 8202
6813, 8413, 8414, 8449, 8448, 8168, 8169, 8204, 8203
6814, 8414, 8415, 8450, 8449, 8169, 8170, 8205, 8204
6815, 8415, 8416, 8451, 8450, 8170, 8171, 8206, 8205
6816, 8416, 8417, 8452, 8451, 8171, 8172, 8207, 8206
6817, 8417, 8418, 8453, 8452, 8172, 8173, 8208, 8207
6818, 8418, 8419, 8454, 8453, 8173, 8174, 8209, 8208
6819, 8419, 8420, 8455, 8454, 8174, 8175, 8210, 8209
6820, 8420, 8421, 8456, 8455, 8175, 8176, 8211, 8210
6821, 8421, 8422, 8457, 8456, 8176, 8177, 8212, 8211
6822, 8422, 8423, 8458, 8457, 8177, 8178, 8213, 8212
6823, 8423, 8424, 8459, 8458, 8178, 8179, 8214, 8213
6824, 8424, 8425, 8460, 8459, 8179, 8180, 8215, 8214
6825, 8425, 8426, 8461, 8460, 8180, 8181, 8216, 8215
6826, 8426, 8427, 8462, 8461, 8181, 8182, 8217, 8216
6827, 8427, 8428, 8463, 8462, 8182, 8183, 8218, 8217
6828, 8428, 8429, 8464, 8463, 8183, 8184, 8219, 8218
6829, 8429, 8430, 8465, 8464, 8184, 8185, 8220, 8219
6830, 8430, 8431, 8466, 8465, 8185, 8186, 8221, 8220
6831, 8431, 8432, 8467, 8466, 8186, 8187, 8222, 8221
6832, 8432, 8433, 8468, 8467, 8187, 8188, 8223, 8222
6833, 8433, 8434, 8469, 8468, 8188, 8189, 8224, 8223
6834, 8434, 8435, 8470, 8469, 8189, 8190, 8225, 8224
6835, 8436, 8437, 8472, 8471, 8191, 8192, 8227, 8226
6836, 8437, 8438, 8473, 8472, 8192, 8193, 8228, 8227
6837, 8438, 8439, 8474, 8473, 8193, 8194, 8229, 8228
6838, 8439, 8440, 8475, 8474, 8194, 8195, 8230, 8229
6839, 8440, 8441, 8476, 8475, 8195, 8196, 8231, 8230
6840, 8441, 8442, 8477, 8476, 8196, 8197, 8232, 8231
6841, 8442, 8443, 8478, 8477, 8197, 8198, 8233, 8232
6842, 8443, 8444, 8479, 8478, 8198, 8199, 8234, 8233
6843, 8444, 8445, 8480, 8479, 8199, 8200, 8235, 8234
6844, 8445, 8446, 8481, 8480, 8200, 8201, 8236, 8235
6845, 8446, 8447, 8482, 8481, 8201, 8202, 8237, 8236
6846, 8447, 8448, 8483, 8482, 8202, 8203, 8238, 8237
6847, 8448, 8449, 8484, 8483, 8203, 8204, 8239, 8238
6848, 8449, 8450, 8485, 8484, 8204, 8205, 8240, 8239
6849, 8450, 8451, 8486, 8485, 8205, 8206, 8241, 8240
6850, 8451, 8452, 8487, 8486, 8206, 8207, 8242, 8241
6851, 8452, 8453, 8488, 8487, 8207, 8208, 8243, 8242
6852, 8453, 8454, 8489, 8488, 8208, 8209, 8244, 8243
6853, 8454, 8455, 8490, 8489, 8209, 8210, 8245, 8244
6854, 8455, 8456, 8491, 8490, 8210, 8211, 8246, 8245
6855, 8456, 8457, 8492, 8491, 8211, 8212, 8247, 8246
6856, 8457, 8458, 8493, 8492, 8212, 8213, 8248, 8247
6857, 8458, 8459, 8494, 8493, 8213, 8214, 8249, 8248
6858, 8459, 8460, 8495, 8494, 8214, 8215, 8250, 8249
6859, 8460, 8461, 8496, 8495, 8215, 8216, 8251, 8250
6860, 8461, 8462, 8497, 8496, 8216, 8217, 8252, 8251
6861, 8462, 8463, 8498, 8497, 8217, 8218, 8253, 8252
6862, 8463, 8464, 8499, 8498, 8218, 8219, 8254, 8253
6863, 8464, 8465, 8500, 8499, 8219, 8220, 8255, 8254
6864, 8465, 8466, 8501, 8500, 8220, 8221, 8256, 8255
6865, 8466, 8467, 8502, 8501, 8221, 8222, 8257, 8256
6866, 8467, 8468, 8503, 8502, 8222, 8223, 8258, 8257
6867, 8468, 8469, 8504, 8503, 8223, 8224, 8259, 8258
6868, 8469, 8470, 8505, 8504, 8224, 8225, 8260, 8259
6869, 8471, 8472, 8507, 8506, 8226, 8227, 8262, 8261
6870, 8472, 8473, 8508, 8507, 8227, 8228, 8263, 8262
6871, 8473, 8474, 8509, 8508, 8228, 8229, 8264, 8263
6872, 8474, 8475, 8510, 8509, 8229, 8230, 8265, 8264
6873, 8475, 8476, 8511, 8510, 8230, 8231, 8266, 8265
6874, 8476, 8477, 8512, 8511, 8231, 8232, 8267, 8266
6875, 8477, 8478, 8513, 8512, 8232, 8233, 8268, 8267
6876, 8478, 8479, 8514, 8513, 8233, 8234, 8269, 8268
6877, 8479, 8480, 8515, 8514, 8234, 8235, 8270, 8269
6878, 8480, 8481, 8516, 8515, 8235, 8236, 8271, 8270
6879, 8481, 8482, 8517, 8516, 8236, 8237, 8272, 8271
6880, 8482, 8483, 8518, 8517, 8237, 8238, 8273, 8272
6881, 8483, 8484, 8519, 8518, 8238, 8239, 8274, 8273
6882, 8484, 8485, 8520, 8519, 8239, 8240, 8275, 8274
6883, 8485, 8486, 8521, 8520, 8240, 8241, 8276, 8275
6884, 8486, 8487, 8522, 8521, 8241, 8242, 8277, 8276
6885, 8487, 8488, 8523, 8522, 8242, 8243, 8278, 8277
6886, 8488, 8489, 8524, 8523, 8243, 8244, 8279, 8278
6887, 8489, 8490, 8525, 8524, 8244, 8245, 8280, 8279
6888, 8490, 8491, 8526, 8525, 8245, 8246, 8281, 8280
6889, 8491, 8492, 8527, 8526, 8246, 8247, 8282, 8281
6890, 8492, 8493, 8528, 8527, 8247, 8248, 8283, 8282
6891, 8493, 8494, 8529, 8528, 8248, 8249, 8284, 8283
6892, 8494, 8495, 8530, 8529, 8249, 8250, 8285, 8284
6893, 8495, 8496, 8531, 8530, 8250, 8251, 8286, 8285
6894, 8496, 8497, 8532, 8531, 8251, 8252, 8287, 8286
6895, 8497, 8498, 8533, 8532, 8252, 8253, 8288, 8287
6896, 8498, 8499, 8534, 8533, 8253, 8254, 8289, 8288
6897, 8499, 8500, 8535, 8534, 8254, 8255, 8290, 8289
6898, 8500, 8501, 8536, 8535, 8255, 8256, 8291, 8290
6899, 8501, 8502, 8537, 8536, 8256, 8257, 8292, 8291
6900, 8502, 8503, 8538, 8537, 8257, 8258, 8293, 8292
6901, 8503, 8504, 8539, 8538, 8258, 8259, 8294, 8293
6902, 8504, 8505, 8540, 8539, 8259, 8260, 8295, 8294
6903, 8506, 8507, 8542, 8541, 8261, 8262, 8297, 8296
6904, 8507, 8508, 8543, 8542, 8262, 8263, 8298, 8297
6905, 8508, 8509, 8544, 8543, 8263, 8264, 8299, 8298
6906, 8509, 8510, 8545, 8544, 8264, 8265, 8300, 8299
6907, 8510, 8511, 8546, 8545, 8265, 8266, 8301, 8300
6908, 8511, 8512, 8547, 8546, 8266, 8267, 8302, 8301
6909, 8512, 8513, 8548, 8547, 8267, 8268, 8303, 8302
6910, 8513, 8514, 8549, 8548, 8268, 8269, 8304, 8303
6911, 8514, 8515, 8550, 8549, 8269, 8270, 8305, 8304
6912, 8515, 8516, 8551, 8550, 8270, 8271, 8306, 8305
6913, 8516, 8517, 8552, 8551, 8271, 8272, 8307, 8306
6914, 8517, 8518, 8553, 8552, 8272, 8273, 8308, 8307
6915, 8518, 8519, 8554, 8553, 8273, 8274, 8309, 8308
6916, 8519, 8520, 8555, 8554, 8274, 8275, 8310, 8309
6917, 8520, 8521, 8556, 8555, 8275, 8276, 8311, 8310
6918, 8521, 8522, 8557, 8556, 8276, 8277, 8312, 8311
6919, 8522, 8523, 8558, 8557, 8277, 8278, 8313, 8312
6920, 8523, 8524, 8559, 8558, 8278, 8279, 8314, 8313
6921, 8524, 8525, 8560, 8559, 8279, 8280, 8315, 8314
6922, 8525, 8526, 8561, 8560, 8280, 8281, 8316, 8315
6923, 8526, 8527, 8562, 8561, 8281, 8282, 8317, 8316
6924, 8527, 8528, 8563, 8562, 8282, 8283, 8318, 8317
6925, 8528, 8529, 8564, 8563, 8283, 8284, 8319, 8318
6926, 8529, 8530, 8565, 8564, 8284, 8285, 8320, 8319
6927, 8530, 8531, 8566, 8565, 8285, 8286, 8321, 8320
6928, 8531, 8532, 8567, 8566, 8286, 8287, 8322, 8321
6929, 8532, 8533, 8568, 8567, 8287, 8288, 8323, 8322
6930, 8533, 8534, 8569, 8568, 8288, 8289, 8324, 8323
6931, 8534, 8535, 8570, 8569, 8289, 8290, 8325, 8324
6932, 8535, 8536, 8571, 8570, 8290, 8291, 8326, 8325
6933, 8536, 8537, 8572, 8571, 8291, 8292, 8327, 8326
6934, 8537, 8538, 8573, 8572, 8292, 8293, 8328, 8327
6935, 8538, 8539, 8574, 8573, 8293, 8294, 8329, 8328
6936, 8539, 8540, 8575, 8574, 8294, 8295, 8330, 8329
6937, 8576, 8577, 8612, 8611, 8331, 8332, 8367, 8366
6938, 8577, 8578, 8613, 8612, 8332, 8333, 8368, 8367
6939, 8578, 8579, 8614, 8613, 8333, 8334, 8369, 8368
6940, 8579, 8580, 8615, 8614, 8334, 8335, 8370, 8369
6941, 8580, 8581, 8616, 8615, 8335, 8336, 8371, 8370
6942, 8581, 8582, 8617, 8616, 8336, 8337, 8372, 8371
6943, 8582, 8583, 8618, 8617, 8337, 8338, 8373, 8372
6944, 8583, 8584, 8619, 8618, 8338, 8339, 8374, 8373
6945, 8584, 8585, 8620, 8619, 8339, 8340, 8375, 8374
6946, 8585, 8586, 8621, 8620, 8340, 8341, 8376, 8375
6947, 8586, 8587, 8622, 8621, 8341, 8342, 8377, 8376
6948, 8587, 8588, 8623, 8622, 8342, 8343, 8378, 8377
6949, 8588, 8589, 8624, 8623, 8343, 8344, 8379, 8378
6950, 8589, 8590, 8625, 8624, 8344, 8345, 8380, 8379
6951, 8590, 8591, 8626, 8625, 8345, 8346, 8381, 8380
6952, 8591, 8592, 8627, 8626, 8346, 8347, 8382, 8381
6953, 8592, 8593, 8628, 8627, 8347, 8348, 8383, 8382
6954, 8593, 8594, 8629, 8628, 8348, 8349, 8384, 8383
6955, 8594, 8595, 8630, 8629, 8349, 8350, 8385, 8384
6956, 8595, 8596, 8631, 8630, 8350, 8351, 8386, 8385
6957, 8596, 8597, 8632, 8631, 8351, 8352, 8387, 8386
6958, 8597, 8598, 8633, 8632, 8352, 8353, 8388, 8387
6959, 8598, 8599, 8634, 8633, 8353, 8354, 8389, 8388
6960, 8599, 8600, 8635, 8634, 8354, 8355, 8390, 8389
6961, 8600, 8601, 8636, 8635, 8355, 8356, 8391, 8390
6962, 8601, 8602, 8637, 8636, 8356, 8357, 8392, 8391
6963, 8602, 8603, 8638, 8637, 8357, 8358, 8393, 8392
6964, 8603, 8604, 8639, 8638, 8358, 8359, 8394, 8393
6965, 8604, 8605, 8640, 8639, 8359, 8360, 8395, 8394
6966, 8605, 8606, 8641, 8640, 8360, 8361, 8396, 8395
6967, 8606, 8607, 8642, 8641, 8361, 8362, 8397, 8396
6968, 8607, 8608, 8643, 8642, 8362, 8363, 8398, 8397
6969, 8608, 8609, 8644, 8643, 8363, 8364, 8399, 8398
6970, 8609, 8610, 8645, 8644, 8364, 8365, 8400, 8399
6971, 8611, 8612, 8647, 8646, 8366, 8367, 8402, 8401
6972, 8612, 8613, 8648, 8647, 8367, 8368, 8403, 8402
6973, 8613, 8614, 8649, 8648, 8368, 8369, 8404, 8403
6974, 8614, 8615, 8650, 8649, 8369, 8370, 8405, 8404
6975, 8615, 8616, 8651, 8650, 8370, 8371, 8406, 8405
6976, 8616, 8617, 8652, 8651, 8371, 8372, 8407, 8406
6977, 8617, 8618, 8653, 8652, 8372, 8373, 8408, 8407
6978, 8618, 8619, 8654, 8653, 8373, 8374, 8409, 8408
6979, 8619, 8620, 8655, 8654, 8374, 8375, 8410, 8409
6980, 8620, 8621, 8656, 8655, 8375, 8376, 8411, 8410
6981, 8621, 8622, 8657, 8656, 8376, 8377, 8412, 8411
6982, 8622, 8623, 8658, 8657, 8377, 8378, 8413, 8412
6983, 8623, 8624, 8659, 8658, 8378, 8379, 8414, 8413
6984, 8624, 8625, 8660, 8659, 8379, 8380, 8415, 8414
6985, 8625, 8626, 8661, 8660, 8380, 8381, 8416, 8415
6986, 8626, 8627, 8662, 8661, 8381, 8382, 8417, 8416
6987, 8627, 8628, 8663, 8662, 8382, 8383, 8418, 8417
6988, 8628, 8629, 8664, 8663, 8383, 8384, 8419, 8418
6989, 8629, 8630, 8665, 8664, 8384, 8385, 8420, 8419
6990, 8630, 8631, 8666, 8665, 8385, 8386, 8421, 8420
6991, 8631, 8632, 8667, 8666, 8386, 8387, 8422, 8421
6992, 8632, 8633, 8668, 8667, 8387, 8388, 8423, 8422
6993, 8633, 8634, 8669, 8668, 8388, 8389, 8424, 8423
6994, 8634, 8635, 8670, 8669, 8389, 8390, 8425, 8424
6995, 8635, 8636, 8671, 8670, 8390, 8391, 8426, 8425
6996, 8636, 8637, 8672, 8671, 8391, 8392, 8427, 8426
6997, 8637, 8638, 8673, 8672, 8392, 8393, 8428, 8427
6998, 8638, 8639, 8674, 8673, 8393, 8394, 8429, 8428
6999, 8639, 8640, 8675, 8674, 8394, 8395, 8430, 8429
7000, 8640, 8641, 8676, 8675, 8395, 8396, 8431, 8430
7001, 8641, 8642, 8677, 8676, 8396, 8397, 8432, 8431
7002, 8642, 8643, 8678, 8677, 8397, 8398, 8433, 8432
7003, 8643, 8644, 8679, 8678, 8398, 8399, 8434, 8433
7004, 8644, 8645, 8680, 8679, 8399, 8400, 8435, 8434
7005, 8646, 8647, 8682, 8681, 8401, 8402, 8437, 8436
7006, 8647, 8648, 8683, 8682, 8402, 8403, 8438, 8437
7007, 8648, 8649, 8684, 8683, 8403, 8404, 8439, 8438
7008, 8649, 8650, 8685, 8684, 8404, 8405, 8440, 8439
7009, 8650, 8651, 8686, 8685, 8405, 8406, 8441, 8440
7010, 8651, 8652, 8687, 8686, 8406, 8407, 8442, 8441
7011, 8652, 8653, 8688, 8687, 8407, 8408, 8443, 8442
7012, 8653, 8654, 8689, 8688, 8408, 8409, 8444, 8443
7013, 8654, 8655, 8690, 8689, 8409, 8410, 8445, 8444
7014, 8655, 8656, 8691, 8690, 8410, 8411, 8446, 8445
7015, 8656, 8657, 8692, 8691, 8411, 8412, 8447, 8446
7016, 8657, 8658, 8693, 8692, 8412, 8413, 8448, 8447
7017, 8658, 8659, 8694, 8693, 8413, 8414, 8449, 8448
7018, 8659, 8660, 8695, 8694, 8414, 8415, 8450, 8449
7019, 8660, 8661, 8696, 8695, 8415, 8416, 8451, 8450
7020, 8661, 8662, 8697, 8696, 8416, 8417, 8452, 8451
7021, 8662, 8663, 8698, 8697, 8417, 8418, 8453, 8452
7022, 8663, 8664, 8699, 8698, 8418, 8419, 8454, 8453
7023, 8664, 8665, 8700, 8699, 8419, 8420, 8455, 8454
7024, 8665, 8666, 8701, 8700, 8420, 8421, 8456, 8455
7025, 8666, 8667, 8702, 8701, 8421, 8422, 8457, 8456
7026, 8667, 8668, 8703, 8702, 8422, 8423, 8458, 8457
7027, 8668, 8669, 8704, 8703, 8423, 8424, 8459, 8458
7028, 8669, 8670, 8705, 8704, 8424, 8425, 8460, 8459
7029, 8670, 8671, 8706, 8705, 8425, 8426, 8461, 8460
7030, 8671, 8672, 8707, 8706, 8426, 8427, 8462, 8461
7031, 8672, 8673, 8708, 8707, 8427, 8428, 8463, 8462
7032, 8673, 8674, 8709, 8708, 8428, 8429, 8464, 8463
7033, 8674, 8675, 8710, 8709, 8429, 8430, 8465, 8464
7034, 8675, 8676, 8711, 8710, 8430, 8431, 8466, 8465
7035, 8676, 8677, 8712, 8711, 8431, 8432, 8467, 8466
7036, 8677, 8678, 8713, 8712, 8432, 8433, 8468, 8467
7037, 8678, 8679, 8714, 8713, 8433, 8434, 8469, 8468
7038, 8679, 8680, 8715, 8714, 8434, 8435, 8470, 8469
7039, 8681, 8682, 8717, 8716, 8436, 8437, 8472, 8471
7040, 8682, 8683, 8718, 8717, 8437, 8438, 8473, 8472
7041, 8683, 8684, 8719, 8718, 8438, 8439, 8474, 8473
7042, 8684, 8685, 8720, 8719, 8439, 8440, 8475, 8474
7043, 8685, 8686, 8721, 8720, 8440, 8441, 8476, 8475
7044, 8686, 8687, 8722, 8721, 8441, 8442, 8477, 8476
7045, 8687, 8688, 8723, 8722, 8442, 8443, 8478, 8477
7046, 8688, 8689, 8724, 8723, 8443, 8444, 8479, 8478
7047, 8689, 8690, 8725, 8724, 8444, 8445, 8480, 8479
7048, 8690, 8691, 8726, 8725, 8445, 8446, 8481, 8480
7049, 8691, 8692, 8727, 8726, 8446, 8447, 8482, 8481
7050, 8692, 8693, 8728, 8727, 8447, 8448, 8483, 8482
7051, 8693, 8694, 8729, 8728, 8448, 8449, 8484, 8483
7052, 8694, 8695, 8730, 8729, 8449, 8450, 8485, 8484
7053, 8695, 8696, 8731, 8730, 8450, 8451, 8486, 8485
7054, 8696, 8697, 8732, 8731, 8451, 8452, 8487, 8486
7055, 8697, 8698, 8733, 8732, 8452, 8453, 8488, 8487
7056, 8698, 8699, 8734, 8733, 8453, 8454, 8489, 8488
7057, 8699, 8700, 8735, 8734, 8454, 8455, 8490, 8489
7058, 8700, 8701, 8736, 8735, 8455, 8456, 8491, 8490
7059, 8701, 8702, 8737, 8736, 8456, 8457, 8492, 8491
7060, 8702, 8703, 8738, 8737, 8457, 8458, 8493, 8492
7061, 8703, 8704, 8739, 8738, 8458, 8459, 8494, 8493
7062, 8704, 8705, 8740, 8739, 8459, 8460, 8495, 8494
7063, 8705, 8706, 8741, 8740, 8460, 8461, 8496, 8495
7064, 8706, 8707, 8742, 8741, 8461, 8462, 8497, 8496
7065, 8707, 8708, 8743, 8742, 8462, 8463, 8498, 8497
7066, 8708, 8709, 8744, 8743, 8463, 8464, 8499, 8498
7067, 8709, 8710, 8745, 8744, 8464, 8465, 8500, 8499
7068, 8710, 8711, 8746, 8745, 8465, 8466, 8501, 8500
7069, 8711, 8712, 8747, 8746, 8466, 8467, 8502, 8501
7070, 8712, 8713, 8748, 8747, 8467, 8468, 8503, 8502
7071, 8713, 8714, 8749, 8748, 8468, 8469, 8504, 8503
7072, 8714, 8715, 8750, 8749, 8469, 8470, 8505, 8504
7073, 8716, 8717, 8752, 8751, 8471, 8472, 8507, 8506
7074, 8717, 8718, 8753, 8752, 8472, 8473, 8508, 8507
7075, 8718, 8719, 8754, 8753, 8473, 8474, 8509, 8508
7076, 8719, 8720, 8755, 8754, 8474, 8475, 8510, 8509
7077, 8720, 8721, 8756, 8755, 8475, 8476, 8511, 8510
7078, 8721, 8722, 8757, 8756, 8476, 8477, 8512, 8511
7079, 8722, 8723, 8758, 8757, 8477, 8478, 8513, 8512
7080, 8723, 8724, 8759, 8758, 8478, 8479, 8514, 8513
7081, 8724, 8725, 8760, 8759, 8479, 8480, 8515, 8514
7082, 8725, 8726, 8761, 8760, 8480, 8481, 8516, 8515
7083, 8726, 8727, 8762, 8761, 8481, 8482, 8517, 8516
7084, 8727, 8728, 8763, 8762, 8482, 8483, 8518, 8517
7085, 8728, 8729, 8764, 8763, 8483, 8484, 8519, 8518
7086, 8729, 8730, 8765, 8764, 8484, 8485, 8520, 8519
7087, 8730, 8731, 8766, 8765, 8485, 8486, 8521, 8520
7088, 8731, 8732, 8767, 8766, 8486, 8487, 8522, 8521
7089, 8732, 8733, 8768, 8767, 8487, 8488, 8523, 8522
7090, 8733, 8734, 8769, 8768, 8488, 8489, 8524, 8523
7091, 8734, 8735, 8770, 8769, 8489, 8490, 8525, 8524
7092, 8735, 8736, 8771, 8770, 8490, 8491, 8526, 8525
7093, 8736, 8737, 8772, 8771, 8491, 8492, 8527, 8526
7094, 8737, 8738, 8773, 8772, 8492, 8493, 8528, 8527
7095, 8738, 8739, 8774, 8773, 8493, 8494, 8529, 8528
7096, 8739, 8740, 8775, 8774, 8494, 8495, 8530, 8529
7097, 8740, 8741, 8776, 8775, 8495, 8496, 8531, 8530
7098, 8741, 8742, 8777, 8776, 8496, 8497, 8532, 8531
7099, 8742, 8743, 8778, 8777, 8497, 8498, 8533, 8532
7100, 8743, 8744, 8779, 8778, 8498, 8499, 8534, 8533
7101, 8744, 8745, 8780, 8779, 8499, 8500, 8535, 8534
7102, 8745, 8746, 8781, 8780, 8500, 8501, 8536, 8535
7103, 8746, 8747, 8782, 8781, 8501, 8502, 8537, 8536
7104, 8747, 8748, 8783, 8782, 8502, 8503, 8538, 8537
7105, 8748, 8749, 8784, 8783, 8503, 8504, 8539, 8538
7106, 8749, 8750, 8785, 8784, 8504, 8505, 8540, 8539
7107, 8751, 8752, 8787, 8786, 8506, 8507, 8542, 8541
7108, 8752, 8753, 8788, 8787, 8507, 8508, 8543, 8542
7109, 8753, 8754, 8789, 8788, 8508, 8509, 8544, 8543
7110, 8754, 8755, 8790, 8789, 8509, 8510, 8545, 8544
7111, 8755, 8756, 8791, 8790, 8510, 8511, 8546, 8545
7112, 8756, 8757, 8792, 8791, 8511, 8512, 8547, 8546
7113, 8757, 8758, 8793, 8792, 8512, 8513, 8548, 8547
7114, 8758, 8759, 8794, 8793, 8513, 8514, 8549, 8548
7115, 8759, 8760, 8795, 8794, 8514, 8515, 8550, 8549
7116, 8760, 8761, 8796, 8795, 8515, 8516, 8551, 8550
7117, 8761, 8762, 8797, 8796, 8516, 8517, 8552, 8551
7118, 8762, 8763, 8798, 8797, 8517, 8518, 8553, 8552
7119, 8763, 8764, 8799, 8798, 8518, 8519, 8554, 8553
7120, 8764, 8765, 8800, 8799, 8519, 8520, 8555, 8554
7121, 8765, 8766, 8801, 8800, 8520, 8521, 8556, 8555
7122, 8766, 8767, 8802, 8801, 8521, 8522, 8557, 8556
7123, 8767, 8768, 8803, 8802, 8522, 8523, 8558, 8557
7124, 8768, 8769, 8804, 8803, 8523, 8524, 8559, 8558
7125, 8769, 8770, 8805, 8804, 8524, 8525, 8560, 8559
7126, 8770, 8771, 8806, 8805, 8525, 8526, 8561, 8560
7127, 8771, 8772, 8807, 8806, 8526, 8527, 8562, 8561
7128, 8772, 8773, 8808, 8807, 8527, 8528, 8563, 8562
7129, 8773, 8774, 8809, 8808, 8528, 8529, 8564, 8563
7130, 8774, 8775, 8810, 8809, 8529, 8530, 8565, 8564
7131, 8775, 8776, 8811, 8810, 8530, 8531, 8566, 8565
7132, 8776, 8777, 8812, 8811, 8531, 8532, 8567, 8566
7133, 8777, 8778, 8813, 8812, 8532, 8533, 8568, 8567
7134, 8778, 8779, 8814, 8813, 8533, 8534, 8569, 8568
7135, 8779, 8780, 8815, 8814, 8534, 8535, 8570, 8569
7136, 8780, 8781, 8816, 8815, 8535, 8536, 8571, 8570
7137, 8781, 8782, 8817, 8816, 8536, 8537, 8572, 8571
7138, 8782, 8783, 8818, 8817, 8537, 8538, 8573, 8572
7139, 8783, 8784, 8819, 8818, 8538, 8539, 8574, 8573
7140, 8784, 8785, 8820, 8819, 8539, 8540, 8575, 8574
*End Part
**  
**
** ASSEMBLY
**
*Assembly, name=Assembly
**  
*Instance, name=Part-1-1, part=Part-1
*End Instance
**  
*End Assembly
