*Heading
** Job name: Plate_T3 Model name: Model-1
** Generated by: Abaqus/CAE 2020
*Preprint, echo=NO, model=NO, history=NO, contact=NO
**
** PARTS
**
*Part, name=Part-1
*Node
      1,          -1.,          -1.,  0.100000001
      2,          -1., -0.857142866,  0.100000001
      3,          -1., -0.714285731,  0.100000001
      4,          -1., -0.571428597,  0.100000001
      5,          -1., -0.428571433,  0.100000001
      6,          -1., -0.285714298,  0.100000001
      7,          -1., -0.142857149,  0.100000001
      8,          -1.,           0.,  0.100000001
      9,          -1.,  0.142857149,  0.100000001
     10,          -1.,  0.285714298,  0.100000001
     11,          -1.,  0.428571433,  0.100000001
     12,          -1.,  0.571428597,  0.100000001
     13,          -1.,  0.714285731,  0.100000001
     14,          -1.,  0.857142866,  0.100000001
     15,          -1.,           1.,  0.100000001
     16,          -1.,          -1., 0.0666666701
     17,          -1., -0.857142866, 0.0666666701
     18,          -1., -0.714285731, 0.0666666701
     19,          -1., -0.571428597, 0.0666666701
     20,          -1., -0.428571433, 0.0666666701
     21,          -1., -0.285714298, 0.0666666701
     22,          -1., -0.142857149, 0.0666666701
     23,          -1.,           0., 0.0666666701
     24,          -1.,  0.142857149, 0.0666666701
     25,          -1.,  0.285714298, 0.0666666701
     26,          -1.,  0.428571433, 0.0666666701
     27,          -1.,  0.571428597, 0.0666666701
     28,          -1.,  0.714285731, 0.0666666701
     29,          -1.,  0.857142866, 0.0666666701
     30,          -1.,           1., 0.0666666701
     31,          -1.,          -1., 0.0333333351
     32,          -1., -0.857142866, 0.0333333351
     33,          -1., -0.714285731, 0.0333333351
     34,          -1., -0.571428597, 0.0333333351
     35,          -1., -0.428571433, 0.0333333351
     36,          -1., -0.285714298, 0.0333333351
     37,          -1., -0.142857149, 0.0333333351
     38,          -1.,           0., 0.0333333351
     39,          -1.,  0.142857149, 0.0333333351
     40,          -1.,  0.285714298, 0.0333333351
     41,          -1.,  0.428571433, 0.0333333351
     42,          -1.,  0.571428597, 0.0333333351
     43,          -1.,  0.714285731, 0.0333333351
     44,          -1.,  0.857142866, 0.0333333351
     45,          -1.,           1., 0.0333333351
     46,          -1.,          -1.,           0.
     47,          -1., -0.857142866,           0.
     48,          -1., -0.714285731,           0.
     49,          -1., -0.571428597,           0.
     50,          -1., -0.428571433,           0.
     51,          -1., -0.285714298,           0.
     52,          -1., -0.142857149,           0.
     53,          -1.,           0.,           0.
     54,          -1.,  0.142857149,           0.
     55,          -1.,  0.285714298,           0.
     56,          -1.,  0.428571433,           0.
     57,          -1.,  0.571428597,           0.
     58,          -1.,  0.714285731,           0.
     59,          -1.,  0.857142866,           0.
     60,          -1.,           1.,           0.
     61, -0.866666675,          -1.,  0.100000001
     62, -0.866666675, -0.857142866,  0.100000001
     63, -0.866666675, -0.714285731,  0.100000001
     64, -0.866666675, -0.571428597,  0.100000001
     65, -0.866666675, -0.428571433,  0.100000001
     66, -0.866666675, -0.285714298,  0.100000001
     67, -0.866666675, -0.142857149,  0.100000001
     68, -0.866666675,           0.,  0.100000001
     69, -0.866666675,  0.142857149,  0.100000001
     70, -0.866666675,  0.285714298,  0.100000001
     71, -0.866666675,  0.428571433,  0.100000001
     72, -0.866666675,  0.571428597,  0.100000001
     73, -0.866666675,  0.714285731,  0.100000001
     74, -0.866666675,  0.857142866,  0.100000001
     75, -0.866666675,           1.,  0.100000001
     76, -0.866666675,          -1., 0.0666666701
     77, -0.866666675, -0.857142866, 0.0666666701
     78, -0.866666675, -0.714285731, 0.0666666701
     79, -0.866666675, -0.571428597, 0.0666666701
     80, -0.866666675, -0.428571433, 0.0666666701
     81, -0.866666675, -0.285714298, 0.0666666701
     82, -0.866666675, -0.142857149, 0.0666666701
     83, -0.866666675,           0., 0.0666666701
     84, -0.866666675,  0.142857149, 0.0666666701
     85, -0.866666675,  0.285714298, 0.0666666701
     86, -0.866666675,  0.428571433, 0.0666666701
     87, -0.866666675,  0.571428597, 0.0666666701
     88, -0.866666675,  0.714285731, 0.0666666701
     89, -0.866666675,  0.857142866, 0.0666666701
     90, -0.866666675,           1., 0.0666666701
     91, -0.866666675,          -1., 0.0333333351
     92, -0.866666675, -0.857142866, 0.0333333351
     93, -0.866666675, -0.714285731, 0.0333333351
     94, -0.866666675, -0.571428597, 0.0333333351
     95, -0.866666675, -0.428571433, 0.0333333351
     96, -0.866666675, -0.285714298, 0.0333333351
     97, -0.866666675, -0.142857149, 0.0333333351
     98, -0.866666675,           0., 0.0333333351
     99, -0.866666675,  0.142857149, 0.0333333351
    100, -0.866666675,  0.285714298, 0.0333333351
    101, -0.866666675,  0.428571433, 0.0333333351
    102, -0.866666675,  0.571428597, 0.0333333351
    103, -0.866666675,  0.714285731, 0.0333333351
    104, -0.866666675,  0.857142866, 0.0333333351
    105, -0.866666675,           1., 0.0333333351
    106, -0.866666675,          -1.,           0.
    107, -0.866666675, -0.857142866,           0.
    108, -0.866666675, -0.714285731,           0.
    109, -0.866666675, -0.571428597,           0.
    110, -0.866666675, -0.428571433,           0.
    111, -0.866666675, -0.285714298,           0.
    112, -0.866666675, -0.142857149,           0.
    113, -0.866666675,           0.,           0.
    114, -0.866666675,  0.142857149,           0.
    115, -0.866666675,  0.285714298,           0.
    116, -0.866666675,  0.428571433,           0.
    117, -0.866666675,  0.571428597,           0.
    118, -0.866666675,  0.714285731,           0.
    119, -0.866666675,  0.857142866,           0.
    120, -0.866666675,           1.,           0.
    121, -0.733333349,          -1.,  0.100000001
    122, -0.733333349, -0.857142866,  0.100000001
    123, -0.733333349, -0.714285731,  0.100000001
    124, -0.733333349, -0.571428597,  0.100000001
    125, -0.733333349, -0.428571433,  0.100000001
    126, -0.733333349, -0.285714298,  0.100000001
    127, -0.733333349, -0.142857149,  0.100000001
    128, -0.733333349,           0.,  0.100000001
    129, -0.733333349,  0.142857149,  0.100000001
    130, -0.733333349,  0.285714298,  0.100000001
    131, -0.733333349,  0.428571433,  0.100000001
    132, -0.733333349,  0.571428597,  0.100000001
    133, -0.733333349,  0.714285731,  0.100000001
    134, -0.733333349,  0.857142866,  0.100000001
    135, -0.733333349,           1.,  0.100000001
    136, -0.733333349,          -1., 0.0666666701
    137, -0.733333349, -0.857142866, 0.0666666701
    138, -0.733333349, -0.714285731, 0.0666666701
    139, -0.733333349, -0.571428597, 0.0666666701
    140, -0.733333349, -0.428571433, 0.0666666701
    141, -0.733333349, -0.285714298, 0.0666666701
    142, -0.733333349, -0.142857149, 0.0666666701
    143, -0.733333349,           0., 0.0666666701
    144, -0.733333349,  0.142857149, 0.0666666701
    145, -0.733333349,  0.285714298, 0.0666666701
    146, -0.733333349,  0.428571433, 0.0666666701
    147, -0.733333349,  0.571428597, 0.0666666701
    148, -0.733333349,  0.714285731, 0.0666666701
    149, -0.733333349,  0.857142866, 0.0666666701
    150, -0.733333349,           1., 0.0666666701
    151, -0.733333349,          -1., 0.0333333351
    152, -0.733333349, -0.857142866, 0.0333333351
    153, -0.733333349, -0.714285731, 0.0333333351
    154, -0.733333349, -0.571428597, 0.0333333351
    155, -0.733333349, -0.428571433, 0.0333333351
    156, -0.733333349, -0.285714298, 0.0333333351
    157, -0.733333349, -0.142857149, 0.0333333351
    158, -0.733333349,           0., 0.0333333351
    159, -0.733333349,  0.142857149, 0.0333333351
    160, -0.733333349,  0.285714298, 0.0333333351
    161, -0.733333349,  0.428571433, 0.0333333351
    162, -0.733333349,  0.571428597, 0.0333333351
    163, -0.733333349,  0.714285731, 0.0333333351
    164, -0.733333349,  0.857142866, 0.0333333351
    165, -0.733333349,           1., 0.0333333351
    166, -0.733333349,          -1.,           0.
    167, -0.733333349, -0.857142866,           0.
    168, -0.733333349, -0.714285731,           0.
    169, -0.733333349, -0.571428597,           0.
    170, -0.733333349, -0.428571433,           0.
    171, -0.733333349, -0.285714298,           0.
    172, -0.733333349, -0.142857149,           0.
    173, -0.733333349,           0.,           0.
    174, -0.733333349,  0.142857149,           0.
    175, -0.733333349,  0.285714298,           0.
    176, -0.733333349,  0.428571433,           0.
    177, -0.733333349,  0.571428597,           0.
    178, -0.733333349,  0.714285731,           0.
    179, -0.733333349,  0.857142866,           0.
    180, -0.733333349,           1.,           0.
    181, -0.600000024,          -1.,  0.100000001
    182, -0.600000024, -0.857142866,  0.100000001
    183, -0.600000024, -0.714285731,  0.100000001
    184, -0.600000024, -0.571428597,  0.100000001
    185, -0.600000024, -0.428571433,  0.100000001
    186, -0.600000024, -0.285714298,  0.100000001
    187, -0.600000024, -0.142857149,  0.100000001
    188, -0.600000024,           0.,  0.100000001
    189, -0.600000024,  0.142857149,  0.100000001
    190, -0.600000024,  0.285714298,  0.100000001
    191, -0.600000024,  0.428571433,  0.100000001
    192, -0.600000024,  0.571428597,  0.100000001
    193, -0.600000024,  0.714285731,  0.100000001
    194, -0.600000024,  0.857142866,  0.100000001
    195, -0.600000024,           1.,  0.100000001
    196, -0.600000024,          -1., 0.0666666701
    197, -0.600000024, -0.857142866, 0.0666666701
    198, -0.600000024, -0.714285731, 0.0666666701
    199, -0.600000024, -0.571428597, 0.0666666701
    200, -0.600000024, -0.428571433, 0.0666666701
    201, -0.600000024, -0.285714298, 0.0666666701
    202, -0.600000024, -0.142857149, 0.0666666701
    203, -0.600000024,           0., 0.0666666701
    204, -0.600000024,  0.142857149, 0.0666666701
    205, -0.600000024,  0.285714298, 0.0666666701
    206, -0.600000024,  0.428571433, 0.0666666701
    207, -0.600000024,  0.571428597, 0.0666666701
    208, -0.600000024,  0.714285731, 0.0666666701
    209, -0.600000024,  0.857142866, 0.0666666701
    210, -0.600000024,           1., 0.0666666701
    211, -0.600000024,          -1., 0.0333333351
    212, -0.600000024, -0.857142866, 0.0333333351
    213, -0.600000024, -0.714285731, 0.0333333351
    214, -0.600000024, -0.571428597, 0.0333333351
    215, -0.600000024, -0.428571433, 0.0333333351
    216, -0.600000024, -0.285714298, 0.0333333351
    217, -0.600000024, -0.142857149, 0.0333333351
    218, -0.600000024,           0., 0.0333333351
    219, -0.600000024,  0.142857149, 0.0333333351
    220, -0.600000024,  0.285714298, 0.0333333351
    221, -0.600000024,  0.428571433, 0.0333333351
    222, -0.600000024,  0.571428597, 0.0333333351
    223, -0.600000024,  0.714285731, 0.0333333351
    224, -0.600000024,  0.857142866, 0.0333333351
    225, -0.600000024,           1., 0.0333333351
    226, -0.600000024,          -1.,           0.
    227, -0.600000024, -0.857142866,           0.
    228, -0.600000024, -0.714285731,           0.
    229, -0.600000024, -0.571428597,           0.
    230, -0.600000024, -0.428571433,           0.
    231, -0.600000024, -0.285714298,           0.
    232, -0.600000024, -0.142857149,           0.
    233, -0.600000024,           0.,           0.
    234, -0.600000024,  0.142857149,           0.
    235, -0.600000024,  0.285714298,           0.
    236, -0.600000024,  0.428571433,           0.
    237, -0.600000024,  0.571428597,           0.
    238, -0.600000024,  0.714285731,           0.
    239, -0.600000024,  0.857142866,           0.
    240, -0.600000024,           1.,           0.
    241, -0.466666669,          -1.,  0.100000001
    242, -0.466666669, -0.857142866,  0.100000001
    243, -0.466666669, -0.714285731,  0.100000001
    244, -0.466666669, -0.571428597,  0.100000001
    245, -0.466666669, -0.428571433,  0.100000001
    246, -0.466666669, -0.285714298,  0.100000001
    247, -0.466666669, -0.142857149,  0.100000001
    248, -0.466666669,           0.,  0.100000001
    249, -0.466666669,  0.142857149,  0.100000001
    250, -0.466666669,  0.285714298,  0.100000001
    251, -0.466666669,  0.428571433,  0.100000001
    252, -0.466666669,  0.571428597,  0.100000001
    253, -0.466666669,  0.714285731,  0.100000001
    254, -0.466666669,  0.857142866,  0.100000001
    255, -0.466666669,           1.,  0.100000001
    256, -0.466666669,          -1., 0.0666666701
    257, -0.466666669, -0.857142866, 0.0666666701
    258, -0.466666669, -0.714285731, 0.0666666701
    259, -0.466666669, -0.571428597, 0.0666666701
    260, -0.466666669, -0.428571433, 0.0666666701
    261, -0.466666669, -0.285714298, 0.0666666701
    262, -0.466666669, -0.142857149, 0.0666666701
    263, -0.466666669,           0., 0.0666666701
    264, -0.466666669,  0.142857149, 0.0666666701
    265, -0.466666669,  0.285714298, 0.0666666701
    266, -0.466666669,  0.428571433, 0.0666666701
    267, -0.466666669,  0.571428597, 0.0666666701
    268, -0.466666669,  0.714285731, 0.0666666701
    269, -0.466666669,  0.857142866, 0.0666666701
    270, -0.466666669,           1., 0.0666666701
    271, -0.466666669,          -1., 0.0333333351
    272, -0.466666669, -0.857142866, 0.0333333351
    273, -0.466666669, -0.714285731, 0.0333333351
    274, -0.466666669, -0.571428597, 0.0333333351
    275, -0.466666669, -0.428571433, 0.0333333351
    276, -0.466666669, -0.285714298, 0.0333333351
    277, -0.466666669, -0.142857149, 0.0333333351
    278, -0.466666669,           0., 0.0333333351
    279, -0.466666669,  0.142857149, 0.0333333351
    280, -0.466666669,  0.285714298, 0.0333333351
    281, -0.466666669,  0.428571433, 0.0333333351
    282, -0.466666669,  0.571428597, 0.0333333351
    283, -0.466666669,  0.714285731, 0.0333333351
    284, -0.466666669,  0.857142866, 0.0333333351
    285, -0.466666669,           1., 0.0333333351
    286, -0.466666669,          -1.,           0.
    287, -0.466666669, -0.857142866,           0.
    288, -0.466666669, -0.714285731,           0.
    289, -0.466666669, -0.571428597,           0.
    290, -0.466666669, -0.428571433,           0.
    291, -0.466666669, -0.285714298,           0.
    292, -0.466666669, -0.142857149,           0.
    293, -0.466666669,           0.,           0.
    294, -0.466666669,  0.142857149,           0.
    295, -0.466666669,  0.285714298,           0.
    296, -0.466666669,  0.428571433,           0.
    297, -0.466666669,  0.571428597,           0.
    298, -0.466666669,  0.714285731,           0.
    299, -0.466666669,  0.857142866,           0.
    300, -0.466666669,           1.,           0.
    301, -0.333333343,          -1.,  0.100000001
    302, -0.333333343, -0.857142866,  0.100000001
    303, -0.333333343, -0.714285731,  0.100000001
    304, -0.333333343, -0.571428597,  0.100000001
    305, -0.333333343, -0.428571433,  0.100000001
    306, -0.333333343, -0.285714298,  0.100000001
    307, -0.333333343, -0.142857149,  0.100000001
    308, -0.333333343,           0.,  0.100000001
    309, -0.333333343,  0.142857149,  0.100000001
    310, -0.333333343,  0.285714298,  0.100000001
    311, -0.333333343,  0.428571433,  0.100000001
    312, -0.333333343,  0.571428597,  0.100000001
    313, -0.333333343,  0.714285731,  0.100000001
    314, -0.333333343,  0.857142866,  0.100000001
    315, -0.333333343,           1.,  0.100000001
    316, -0.333333343,          -1., 0.0666666701
    317, -0.333333343, -0.857142866, 0.0666666701
    318, -0.333333343, -0.714285731, 0.0666666701
    319, -0.333333343, -0.571428597, 0.0666666701
    320, -0.333333343, -0.428571433, 0.0666666701
    321, -0.333333343, -0.285714298, 0.0666666701
    322, -0.333333343, -0.142857149, 0.0666666701
    323, -0.333333343,           0., 0.0666666701
    324, -0.333333343,  0.142857149, 0.0666666701
    325, -0.333333343,  0.285714298, 0.0666666701
    326, -0.333333343,  0.428571433, 0.0666666701
    327, -0.333333343,  0.571428597, 0.0666666701
    328, -0.333333343,  0.714285731, 0.0666666701
    329, -0.333333343,  0.857142866, 0.0666666701
    330, -0.333333343,           1., 0.0666666701
    331, -0.333333343,          -1., 0.0333333351
    332, -0.333333343, -0.857142866, 0.0333333351
    333, -0.333333343, -0.714285731, 0.0333333351
    334, -0.333333343, -0.571428597, 0.0333333351
    335, -0.333333343, -0.428571433, 0.0333333351
    336, -0.333333343, -0.285714298, 0.0333333351
    337, -0.333333343, -0.142857149, 0.0333333351
    338, -0.333333343,           0., 0.0333333351
    339, -0.333333343,  0.142857149, 0.0333333351
    340, -0.333333343,  0.285714298, 0.0333333351
    341, -0.333333343,  0.428571433, 0.0333333351
    342, -0.333333343,  0.571428597, 0.0333333351
    343, -0.333333343,  0.714285731, 0.0333333351
    344, -0.333333343,  0.857142866, 0.0333333351
    345, -0.333333343,           1., 0.0333333351
    346, -0.333333343,          -1.,           0.
    347, -0.333333343, -0.857142866,           0.
    348, -0.333333343, -0.714285731,           0.
    349, -0.333333343, -0.571428597,           0.
    350, -0.333333343, -0.428571433,           0.
    351, -0.333333343, -0.285714298,           0.
    352, -0.333333343, -0.142857149,           0.
    353, -0.333333343,           0.,           0.
    354, -0.333333343,  0.142857149,           0.
    355, -0.333333343,  0.285714298,           0.
    356, -0.333333343,  0.428571433,           0.
    357, -0.333333343,  0.571428597,           0.
    358, -0.333333343,  0.714285731,           0.
    359, -0.333333343,  0.857142866,           0.
    360, -0.333333343,           1.,           0.
    361, -0.200000003,          -1.,  0.100000001
    362, -0.200000003, -0.857142866,  0.100000001
    363, -0.200000003, -0.714285731,  0.100000001
    364, -0.200000003, -0.571428597,  0.100000001
    365, -0.200000003, -0.428571433,  0.100000001
    366, -0.200000003, -0.285714298,  0.100000001
    367, -0.200000003, -0.142857149,  0.100000001
    368, -0.200000003,           0.,  0.100000001
    369, -0.200000003,  0.142857149,  0.100000001
    370, -0.200000003,  0.285714298,  0.100000001
    371, -0.200000003,  0.428571433,  0.100000001
    372, -0.200000003,  0.571428597,  0.100000001
    373, -0.200000003,  0.714285731,  0.100000001
    374, -0.200000003,  0.857142866,  0.100000001
    375, -0.200000003,           1.,  0.100000001
    376, -0.200000003,          -1., 0.0666666701
    377, -0.200000003, -0.857142866, 0.0666666701
    378, -0.200000003, -0.714285731, 0.0666666701
    379, -0.200000003, -0.571428597, 0.0666666701
    380, -0.200000003, -0.428571433, 0.0666666701
    381, -0.200000003, -0.285714298, 0.0666666701
    382, -0.200000003, -0.142857149, 0.0666666701
    383, -0.200000003,           0., 0.0666666701
    384, -0.200000003,  0.142857149, 0.0666666701
    385, -0.200000003,  0.285714298, 0.0666666701
    386, -0.200000003,  0.428571433, 0.0666666701
    387, -0.200000003,  0.571428597, 0.0666666701
    388, -0.200000003,  0.714285731, 0.0666666701
    389, -0.200000003,  0.857142866, 0.0666666701
    390, -0.200000003,           1., 0.0666666701
    391, -0.200000003,          -1., 0.0333333351
    392, -0.200000003, -0.857142866, 0.0333333351
    393, -0.200000003, -0.714285731, 0.0333333351
    394, -0.200000003, -0.571428597, 0.0333333351
    395, -0.200000003, -0.428571433, 0.0333333351
    396, -0.200000003, -0.285714298, 0.0333333351
    397, -0.200000003, -0.142857149, 0.0333333351
    398, -0.200000003,           0., 0.0333333351
    399, -0.200000003,  0.142857149, 0.0333333351
    400, -0.200000003,  0.285714298, 0.0333333351
    401, -0.200000003,  0.428571433, 0.0333333351
    402, -0.200000003,  0.571428597, 0.0333333351
    403, -0.200000003,  0.714285731, 0.0333333351
    404, -0.200000003,  0.857142866, 0.0333333351
    405, -0.200000003,           1., 0.0333333351
    406, -0.200000003,          -1.,           0.
    407, -0.200000003, -0.857142866,           0.
    408, -0.200000003, -0.714285731,           0.
    409, -0.200000003, -0.571428597,           0.
    410, -0.200000003, -0.428571433,           0.
    411, -0.200000003, -0.285714298,           0.
    412, -0.200000003, -0.142857149,           0.
    413, -0.200000003,           0.,           0.
    414, -0.200000003,  0.142857149,           0.
    415, -0.200000003,  0.285714298,           0.
    416, -0.200000003,  0.428571433,           0.
    417, -0.200000003,  0.571428597,           0.
    418, -0.200000003,  0.714285731,           0.
    419, -0.200000003,  0.857142866,           0.
    420, -0.200000003,           1.,           0.
    421, -0.0666666701,          -1.,  0.100000001
    422, -0.0666666701, -0.857142866,  0.100000001
    423, -0.0666666701, -0.714285731,  0.100000001
    424, -0.0666666701, -0.571428597,  0.100000001
    425, -0.0666666701, -0.428571433,  0.100000001
    426, -0.0666666701, -0.285714298,  0.100000001
    427, -0.0666666701, -0.142857149,  0.100000001
    428, -0.0666666701,           0.,  0.100000001
    429, -0.0666666701,  0.142857149,  0.100000001
    430, -0.0666666701,  0.285714298,  0.100000001
    431, -0.0666666701,  0.428571433,  0.100000001
    432, -0.0666666701,  0.571428597,  0.100000001
    433, -0.0666666701,  0.714285731,  0.100000001
    434, -0.0666666701,  0.857142866,  0.100000001
    435, -0.0666666701,           1.,  0.100000001
    436, -0.0666666701,          -1., 0.0666666701
    437, -0.0666666701, -0.857142866, 0.0666666701
    438, -0.0666666701, -0.714285731, 0.0666666701
    439, -0.0666666701, -0.571428597, 0.0666666701
    440, -0.0666666701, -0.428571433, 0.0666666701
    441, -0.0666666701, -0.285714298, 0.0666666701
    442, -0.0666666701, -0.142857149, 0.0666666701
    443, -0.0666666701,           0., 0.0666666701
    444, -0.0666666701,  0.142857149, 0.0666666701
    445, -0.0666666701,  0.285714298, 0.0666666701
    446, -0.0666666701,  0.428571433, 0.0666666701
    447, -0.0666666701,  0.571428597, 0.0666666701
    448, -0.0666666701,  0.714285731, 0.0666666701
    449, -0.0666666701,  0.857142866, 0.0666666701
    450, -0.0666666701,           1., 0.0666666701
    451, -0.0666666701,          -1., 0.0333333351
    452, -0.0666666701, -0.857142866, 0.0333333351
    453, -0.0666666701, -0.714285731, 0.0333333351
    454, -0.0666666701, -0.571428597, 0.0333333351
    455, -0.0666666701, -0.428571433, 0.0333333351
    456, -0.0666666701, -0.285714298, 0.0333333351
    457, -0.0666666701, -0.142857149, 0.0333333351
    458, -0.0666666701,           0., 0.0333333351
    459, -0.0666666701,  0.142857149, 0.0333333351
    460, -0.0666666701,  0.285714298, 0.0333333351
    461, -0.0666666701,  0.428571433, 0.0333333351
    462, -0.0666666701,  0.571428597, 0.0333333351
    463, -0.0666666701,  0.714285731, 0.0333333351
    464, -0.0666666701,  0.857142866, 0.0333333351
    465, -0.0666666701,           1., 0.0333333351
    466, -0.0666666701,          -1.,           0.
    467, -0.0666666701, -0.857142866,           0.
    468, -0.0666666701, -0.714285731,           0.
    469, -0.0666666701, -0.571428597,           0.
    470, -0.0666666701, -0.428571433,           0.
    471, -0.0666666701, -0.285714298,           0.
    472, -0.0666666701, -0.142857149,           0.
    473, -0.0666666701,           0.,           0.
    474, -0.0666666701,  0.142857149,           0.
    475, -0.0666666701,  0.285714298,           0.
    476, -0.0666666701,  0.428571433,           0.
    477, -0.0666666701,  0.571428597,           0.
    478, -0.0666666701,  0.714285731,           0.
    479, -0.0666666701,  0.857142866,           0.
    480, -0.0666666701,           1.,           0.
    481, 0.0666666701,          -1.,  0.100000001
    482, 0.0666666701, -0.857142866,  0.100000001
    483, 0.0666666701, -0.714285731,  0.100000001
    484, 0.0666666701, -0.571428597,  0.100000001
    485, 0.0666666701, -0.428571433,  0.100000001
    486, 0.0666666701, -0.285714298,  0.100000001
    487, 0.0666666701, -0.142857149,  0.100000001
    488, 0.0666666701,           0.,  0.100000001
    489, 0.0666666701,  0.142857149,  0.100000001
    490, 0.0666666701,  0.285714298,  0.100000001
    491, 0.0666666701,  0.428571433,  0.100000001
    492, 0.0666666701,  0.571428597,  0.100000001
    493, 0.0666666701,  0.714285731,  0.100000001
    494, 0.0666666701,  0.857142866,  0.100000001
    495, 0.0666666701,           1.,  0.100000001
    496, 0.0666666701,          -1., 0.0666666701
    497, 0.0666666701, -0.857142866, 0.0666666701
    498, 0.0666666701, -0.714285731, 0.0666666701
    499, 0.0666666701, -0.571428597, 0.0666666701
    500, 0.0666666701, -0.428571433, 0.0666666701
    501, 0.0666666701, -0.285714298, 0.0666666701
    502, 0.0666666701, -0.142857149, 0.0666666701
    503, 0.0666666701,           0., 0.0666666701
    504, 0.0666666701,  0.142857149, 0.0666666701
    505, 0.0666666701,  0.285714298, 0.0666666701
    506, 0.0666666701,  0.428571433, 0.0666666701
    507, 0.0666666701,  0.571428597, 0.0666666701
    508, 0.0666666701,  0.714285731, 0.0666666701
    509, 0.0666666701,  0.857142866, 0.0666666701
    510, 0.0666666701,           1., 0.0666666701
    511, 0.0666666701,          -1., 0.0333333351
    512, 0.0666666701, -0.857142866, 0.0333333351
    513, 0.0666666701, -0.714285731, 0.0333333351
    514, 0.0666666701, -0.571428597, 0.0333333351
    515, 0.0666666701, -0.428571433, 0.0333333351
    516, 0.0666666701, -0.285714298, 0.0333333351
    517, 0.0666666701, -0.142857149, 0.0333333351
    518, 0.0666666701,           0., 0.0333333351
    519, 0.0666666701,  0.142857149, 0.0333333351
    520, 0.0666666701,  0.285714298, 0.0333333351
    521, 0.0666666701,  0.428571433, 0.0333333351
    522, 0.0666666701,  0.571428597, 0.0333333351
    523, 0.0666666701,  0.714285731, 0.0333333351
    524, 0.0666666701,  0.857142866, 0.0333333351
    525, 0.0666666701,           1., 0.0333333351
    526, 0.0666666701,          -1.,           0.
    527, 0.0666666701, -0.857142866,           0.
    528, 0.0666666701, -0.714285731,           0.
    529, 0.0666666701, -0.571428597,           0.
    530, 0.0666666701, -0.428571433,           0.
    531, 0.0666666701, -0.285714298,           0.
    532, 0.0666666701, -0.142857149,           0.
    533, 0.0666666701,           0.,           0.
    534, 0.0666666701,  0.142857149,           0.
    535, 0.0666666701,  0.285714298,           0.
    536, 0.0666666701,  0.428571433,           0.
    537, 0.0666666701,  0.571428597,           0.
    538, 0.0666666701,  0.714285731,           0.
    539, 0.0666666701,  0.857142866,           0.
    540, 0.0666666701,           1.,           0.
    541,  0.200000003,          -1.,  0.100000001
    542,  0.200000003, -0.857142866,  0.100000001
    543,  0.200000003, -0.714285731,  0.100000001
    544,  0.200000003, -0.571428597,  0.100000001
    545,  0.200000003, -0.428571433,  0.100000001
    546,  0.200000003, -0.285714298,  0.100000001
    547,  0.200000003, -0.142857149,  0.100000001
    548,  0.200000003,           0.,  0.100000001
    549,  0.200000003,  0.142857149,  0.100000001
    550,  0.200000003,  0.285714298,  0.100000001
    551,  0.200000003,  0.428571433,  0.100000001
    552,  0.200000003,  0.571428597,  0.100000001
    553,  0.200000003,  0.714285731,  0.100000001
    554,  0.200000003,  0.857142866,  0.100000001
    555,  0.200000003,           1.,  0.100000001
    556,  0.200000003,          -1., 0.0666666701
    557,  0.200000003, -0.857142866, 0.0666666701
    558,  0.200000003, -0.714285731, 0.0666666701
    559,  0.200000003, -0.571428597, 0.0666666701
    560,  0.200000003, -0.428571433, 0.0666666701
    561,  0.200000003, -0.285714298, 0.0666666701
    562,  0.200000003, -0.142857149, 0.0666666701
    563,  0.200000003,           0., 0.0666666701
    564,  0.200000003,  0.142857149, 0.0666666701
    565,  0.200000003,  0.285714298, 0.0666666701
    566,  0.200000003,  0.428571433, 0.0666666701
    567,  0.200000003,  0.571428597, 0.0666666701
    568,  0.200000003,  0.714285731, 0.0666666701
    569,  0.200000003,  0.857142866, 0.0666666701
    570,  0.200000003,           1., 0.0666666701
    571,  0.200000003,          -1., 0.0333333351
    572,  0.200000003, -0.857142866, 0.0333333351
    573,  0.200000003, -0.714285731, 0.0333333351
    574,  0.200000003, -0.571428597, 0.0333333351
    575,  0.200000003, -0.428571433, 0.0333333351
    576,  0.200000003, -0.285714298, 0.0333333351
    577,  0.200000003, -0.142857149, 0.0333333351
    578,  0.200000003,           0., 0.0333333351
    579,  0.200000003,  0.142857149, 0.0333333351
    580,  0.200000003,  0.285714298, 0.0333333351
    581,  0.200000003,  0.428571433, 0.0333333351
    582,  0.200000003,  0.571428597, 0.0333333351
    583,  0.200000003,  0.714285731, 0.0333333351
    584,  0.200000003,  0.857142866, 0.0333333351
    585,  0.200000003,           1., 0.0333333351
    586,  0.200000003,          -1.,           0.
    587,  0.200000003, -0.857142866,           0.
    588,  0.200000003, -0.714285731,           0.
    589,  0.200000003, -0.571428597,           0.
    590,  0.200000003, -0.428571433,           0.
    591,  0.200000003, -0.285714298,           0.
    592,  0.200000003, -0.142857149,           0.
    593,  0.200000003,           0.,           0.
    594,  0.200000003,  0.142857149,           0.
    595,  0.200000003,  0.285714298,           0.
    596,  0.200000003,  0.428571433,           0.
    597,  0.200000003,  0.571428597,           0.
    598,  0.200000003,  0.714285731,           0.
    599,  0.200000003,  0.857142866,           0.
    600,  0.200000003,           1.,           0.
    601,  0.333333343,          -1.,  0.100000001
    602,  0.333333343, -0.857142866,  0.100000001
    603,  0.333333343, -0.714285731,  0.100000001
    604,  0.333333343, -0.571428597,  0.100000001
    605,  0.333333343, -0.428571433,  0.100000001
    606,  0.333333343, -0.285714298,  0.100000001
    607,  0.333333343, -0.142857149,  0.100000001
    608,  0.333333343,           0.,  0.100000001
    609,  0.333333343,  0.142857149,  0.100000001
    610,  0.333333343,  0.285714298,  0.100000001
    611,  0.333333343,  0.428571433,  0.100000001
    612,  0.333333343,  0.571428597,  0.100000001
    613,  0.333333343,  0.714285731,  0.100000001
    614,  0.333333343,  0.857142866,  0.100000001
    615,  0.333333343,           1.,  0.100000001
    616,  0.333333343,          -1., 0.0666666701
    617,  0.333333343, -0.857142866, 0.0666666701
    618,  0.333333343, -0.714285731, 0.0666666701
    619,  0.333333343, -0.571428597, 0.0666666701
    620,  0.333333343, -0.428571433, 0.0666666701
    621,  0.333333343, -0.285714298, 0.0666666701
    622,  0.333333343, -0.142857149, 0.0666666701
    623,  0.333333343,           0., 0.0666666701
    624,  0.333333343,  0.142857149, 0.0666666701
    625,  0.333333343,  0.285714298, 0.0666666701
    626,  0.333333343,  0.428571433, 0.0666666701
    627,  0.333333343,  0.571428597, 0.0666666701
    628,  0.333333343,  0.714285731, 0.0666666701
    629,  0.333333343,  0.857142866, 0.0666666701
    630,  0.333333343,           1., 0.0666666701
    631,  0.333333343,          -1., 0.0333333351
    632,  0.333333343, -0.857142866, 0.0333333351
    633,  0.333333343, -0.714285731, 0.0333333351
    634,  0.333333343, -0.571428597, 0.0333333351
    635,  0.333333343, -0.428571433, 0.0333333351
    636,  0.333333343, -0.285714298, 0.0333333351
    637,  0.333333343, -0.142857149, 0.0333333351
    638,  0.333333343,           0., 0.0333333351
    639,  0.333333343,  0.142857149, 0.0333333351
    640,  0.333333343,  0.285714298, 0.0333333351
    641,  0.333333343,  0.428571433, 0.0333333351
    642,  0.333333343,  0.571428597, 0.0333333351
    643,  0.333333343,  0.714285731, 0.0333333351
    644,  0.333333343,  0.857142866, 0.0333333351
    645,  0.333333343,           1., 0.0333333351
    646,  0.333333343,          -1.,           0.
    647,  0.333333343, -0.857142866,           0.
    648,  0.333333343, -0.714285731,           0.
    649,  0.333333343, -0.571428597,           0.
    650,  0.333333343, -0.428571433,           0.
    651,  0.333333343, -0.285714298,           0.
    652,  0.333333343, -0.142857149,           0.
    653,  0.333333343,           0.,           0.
    654,  0.333333343,  0.142857149,           0.
    655,  0.333333343,  0.285714298,           0.
    656,  0.333333343,  0.428571433,           0.
    657,  0.333333343,  0.571428597,           0.
    658,  0.333333343,  0.714285731,           0.
    659,  0.333333343,  0.857142866,           0.
    660,  0.333333343,           1.,           0.
    661,  0.466666669,          -1.,  0.100000001
    662,  0.466666669, -0.857142866,  0.100000001
    663,  0.466666669, -0.714285731,  0.100000001
    664,  0.466666669, -0.571428597,  0.100000001
    665,  0.466666669, -0.428571433,  0.100000001
    666,  0.466666669, -0.285714298,  0.100000001
    667,  0.466666669, -0.142857149,  0.100000001
    668,  0.466666669,           0.,  0.100000001
    669,  0.466666669,  0.142857149,  0.100000001
    670,  0.466666669,  0.285714298,  0.100000001
    671,  0.466666669,  0.428571433,  0.100000001
    672,  0.466666669,  0.571428597,  0.100000001
    673,  0.466666669,  0.714285731,  0.100000001
    674,  0.466666669,  0.857142866,  0.100000001
    675,  0.466666669,           1.,  0.100000001
    676,  0.466666669,          -1., 0.0666666701
    677,  0.466666669, -0.857142866, 0.0666666701
    678,  0.466666669, -0.714285731, 0.0666666701
    679,  0.466666669, -0.571428597, 0.0666666701
    680,  0.466666669, -0.428571433, 0.0666666701
    681,  0.466666669, -0.285714298, 0.0666666701
    682,  0.466666669, -0.142857149, 0.0666666701
    683,  0.466666669,           0., 0.0666666701
    684,  0.466666669,  0.142857149, 0.0666666701
    685,  0.466666669,  0.285714298, 0.0666666701
    686,  0.466666669,  0.428571433, 0.0666666701
    687,  0.466666669,  0.571428597, 0.0666666701
    688,  0.466666669,  0.714285731, 0.0666666701
    689,  0.466666669,  0.857142866, 0.0666666701
    690,  0.466666669,           1., 0.0666666701
    691,  0.466666669,          -1., 0.0333333351
    692,  0.466666669, -0.857142866, 0.0333333351
    693,  0.466666669, -0.714285731, 0.0333333351
    694,  0.466666669, -0.571428597, 0.0333333351
    695,  0.466666669, -0.428571433, 0.0333333351
    696,  0.466666669, -0.285714298, 0.0333333351
    697,  0.466666669, -0.142857149, 0.0333333351
    698,  0.466666669,           0., 0.0333333351
    699,  0.466666669,  0.142857149, 0.0333333351
    700,  0.466666669,  0.285714298, 0.0333333351
    701,  0.466666669,  0.428571433, 0.0333333351
    702,  0.466666669,  0.571428597, 0.0333333351
    703,  0.466666669,  0.714285731, 0.0333333351
    704,  0.466666669,  0.857142866, 0.0333333351
    705,  0.466666669,           1., 0.0333333351
    706,  0.466666669,          -1.,           0.
    707,  0.466666669, -0.857142866,           0.
    708,  0.466666669, -0.714285731,           0.
    709,  0.466666669, -0.571428597,           0.
    710,  0.466666669, -0.428571433,           0.
    711,  0.466666669, -0.285714298,           0.
    712,  0.466666669, -0.142857149,           0.
    713,  0.466666669,           0.,           0.
    714,  0.466666669,  0.142857149,           0.
    715,  0.466666669,  0.285714298,           0.
    716,  0.466666669,  0.428571433,           0.
    717,  0.466666669,  0.571428597,           0.
    718,  0.466666669,  0.714285731,           0.
    719,  0.466666669,  0.857142866,           0.
    720,  0.466666669,           1.,           0.
    721,  0.600000024,          -1.,  0.100000001
    722,  0.600000024, -0.857142866,  0.100000001
    723,  0.600000024, -0.714285731,  0.100000001
    724,  0.600000024, -0.571428597,  0.100000001
    725,  0.600000024, -0.428571433,  0.100000001
    726,  0.600000024, -0.285714298,  0.100000001
    727,  0.600000024, -0.142857149,  0.100000001
    728,  0.600000024,           0.,  0.100000001
    729,  0.600000024,  0.142857149,  0.100000001
    730,  0.600000024,  0.285714298,  0.100000001
    731,  0.600000024,  0.428571433,  0.100000001
    732,  0.600000024,  0.571428597,  0.100000001
    733,  0.600000024,  0.714285731,  0.100000001
    734,  0.600000024,  0.857142866,  0.100000001
    735,  0.600000024,           1.,  0.100000001
    736,  0.600000024,          -1., 0.0666666701
    737,  0.600000024, -0.857142866, 0.0666666701
    738,  0.600000024, -0.714285731, 0.0666666701
    739,  0.600000024, -0.571428597, 0.0666666701
    740,  0.600000024, -0.428571433, 0.0666666701
    741,  0.600000024, -0.285714298, 0.0666666701
    742,  0.600000024, -0.142857149, 0.0666666701
    743,  0.600000024,           0., 0.0666666701
    744,  0.600000024,  0.142857149, 0.0666666701
    745,  0.600000024,  0.285714298, 0.0666666701
    746,  0.600000024,  0.428571433, 0.0666666701
    747,  0.600000024,  0.571428597, 0.0666666701
    748,  0.600000024,  0.714285731, 0.0666666701
    749,  0.600000024,  0.857142866, 0.0666666701
    750,  0.600000024,           1., 0.0666666701
    751,  0.600000024,          -1., 0.0333333351
    752,  0.600000024, -0.857142866, 0.0333333351
    753,  0.600000024, -0.714285731, 0.0333333351
    754,  0.600000024, -0.571428597, 0.0333333351
    755,  0.600000024, -0.428571433, 0.0333333351
    756,  0.600000024, -0.285714298, 0.0333333351
    757,  0.600000024, -0.142857149, 0.0333333351
    758,  0.600000024,           0., 0.0333333351
    759,  0.600000024,  0.142857149, 0.0333333351
    760,  0.600000024,  0.285714298, 0.0333333351
    761,  0.600000024,  0.428571433, 0.0333333351
    762,  0.600000024,  0.571428597, 0.0333333351
    763,  0.600000024,  0.714285731, 0.0333333351
    764,  0.600000024,  0.857142866, 0.0333333351
    765,  0.600000024,           1., 0.0333333351
    766,  0.600000024,          -1.,           0.
    767,  0.600000024, -0.857142866,           0.
    768,  0.600000024, -0.714285731,           0.
    769,  0.600000024, -0.571428597,           0.
    770,  0.600000024, -0.428571433,           0.
    771,  0.600000024, -0.285714298,           0.
    772,  0.600000024, -0.142857149,           0.
    773,  0.600000024,           0.,           0.
    774,  0.600000024,  0.142857149,           0.
    775,  0.600000024,  0.285714298,           0.
    776,  0.600000024,  0.428571433,           0.
    777,  0.600000024,  0.571428597,           0.
    778,  0.600000024,  0.714285731,           0.
    779,  0.600000024,  0.857142866,           0.
    780,  0.600000024,           1.,           0.
    781,  0.733333349,          -1.,  0.100000001
    782,  0.733333349, -0.857142866,  0.100000001
    783,  0.733333349, -0.714285731,  0.100000001
    784,  0.733333349, -0.571428597,  0.100000001
    785,  0.733333349, -0.428571433,  0.100000001
    786,  0.733333349, -0.285714298,  0.100000001
    787,  0.733333349, -0.142857149,  0.100000001
    788,  0.733333349,           0.,  0.100000001
    789,  0.733333349,  0.142857149,  0.100000001
    790,  0.733333349,  0.285714298,  0.100000001
    791,  0.733333349,  0.428571433,  0.100000001
    792,  0.733333349,  0.571428597,  0.100000001
    793,  0.733333349,  0.714285731,  0.100000001
    794,  0.733333349,  0.857142866,  0.100000001
    795,  0.733333349,           1.,  0.100000001
    796,  0.733333349,          -1., 0.0666666701
    797,  0.733333349, -0.857142866, 0.0666666701
    798,  0.733333349, -0.714285731, 0.0666666701
    799,  0.733333349, -0.571428597, 0.0666666701
    800,  0.733333349, -0.428571433, 0.0666666701
    801,  0.733333349, -0.285714298, 0.0666666701
    802,  0.733333349, -0.142857149, 0.0666666701
    803,  0.733333349,           0., 0.0666666701
    804,  0.733333349,  0.142857149, 0.0666666701
    805,  0.733333349,  0.285714298, 0.0666666701
    806,  0.733333349,  0.428571433, 0.0666666701
    807,  0.733333349,  0.571428597, 0.0666666701
    808,  0.733333349,  0.714285731, 0.0666666701
    809,  0.733333349,  0.857142866, 0.0666666701
    810,  0.733333349,           1., 0.0666666701
    811,  0.733333349,          -1., 0.0333333351
    812,  0.733333349, -0.857142866, 0.0333333351
    813,  0.733333349, -0.714285731, 0.0333333351
    814,  0.733333349, -0.571428597, 0.0333333351
    815,  0.733333349, -0.428571433, 0.0333333351
    816,  0.733333349, -0.285714298, 0.0333333351
    817,  0.733333349, -0.142857149, 0.0333333351
    818,  0.733333349,           0., 0.0333333351
    819,  0.733333349,  0.142857149, 0.0333333351
    820,  0.733333349,  0.285714298, 0.0333333351
    821,  0.733333349,  0.428571433, 0.0333333351
    822,  0.733333349,  0.571428597, 0.0333333351
    823,  0.733333349,  0.714285731, 0.0333333351
    824,  0.733333349,  0.857142866, 0.0333333351
    825,  0.733333349,           1., 0.0333333351
    826,  0.733333349,          -1.,           0.
    827,  0.733333349, -0.857142866,           0.
    828,  0.733333349, -0.714285731,           0.
    829,  0.733333349, -0.571428597,           0.
    830,  0.733333349, -0.428571433,           0.
    831,  0.733333349, -0.285714298,           0.
    832,  0.733333349, -0.142857149,           0.
    833,  0.733333349,           0.,           0.
    834,  0.733333349,  0.142857149,           0.
    835,  0.733333349,  0.285714298,           0.
    836,  0.733333349,  0.428571433,           0.
    837,  0.733333349,  0.571428597,           0.
    838,  0.733333349,  0.714285731,           0.
    839,  0.733333349,  0.857142866,           0.
    840,  0.733333349,           1.,           0.
    841,  0.866666675,          -1.,  0.100000001
    842,  0.866666675, -0.857142866,  0.100000001
    843,  0.866666675, -0.714285731,  0.100000001
    844,  0.866666675, -0.571428597,  0.100000001
    845,  0.866666675, -0.428571433,  0.100000001
    846,  0.866666675, -0.285714298,  0.100000001
    847,  0.866666675, -0.142857149,  0.100000001
    848,  0.866666675,           0.,  0.100000001
    849,  0.866666675,  0.142857149,  0.100000001
    850,  0.866666675,  0.285714298,  0.100000001
    851,  0.866666675,  0.428571433,  0.100000001
    852,  0.866666675,  0.571428597,  0.100000001
    853,  0.866666675,  0.714285731,  0.100000001
    854,  0.866666675,  0.857142866,  0.100000001
    855,  0.866666675,           1.,  0.100000001
    856,  0.866666675,          -1., 0.0666666701
    857,  0.866666675, -0.857142866, 0.0666666701
    858,  0.866666675, -0.714285731, 0.0666666701
    859,  0.866666675, -0.571428597, 0.0666666701
    860,  0.866666675, -0.428571433, 0.0666666701
    861,  0.866666675, -0.285714298, 0.0666666701
    862,  0.866666675, -0.142857149, 0.0666666701
    863,  0.866666675,           0., 0.0666666701
    864,  0.866666675,  0.142857149, 0.0666666701
    865,  0.866666675,  0.285714298, 0.0666666701
    866,  0.866666675,  0.428571433, 0.0666666701
    867,  0.866666675,  0.571428597, 0.0666666701
    868,  0.866666675,  0.714285731, 0.0666666701
    869,  0.866666675,  0.857142866, 0.0666666701
    870,  0.866666675,           1., 0.0666666701
    871,  0.866666675,          -1., 0.0333333351
    872,  0.866666675, -0.857142866, 0.0333333351
    873,  0.866666675, -0.714285731, 0.0333333351
    874,  0.866666675, -0.571428597, 0.0333333351
    875,  0.866666675, -0.428571433, 0.0333333351
    876,  0.866666675, -0.285714298, 0.0333333351
    877,  0.866666675, -0.142857149, 0.0333333351
    878,  0.866666675,           0., 0.0333333351
    879,  0.866666675,  0.142857149, 0.0333333351
    880,  0.866666675,  0.285714298, 0.0333333351
    881,  0.866666675,  0.428571433, 0.0333333351
    882,  0.866666675,  0.571428597, 0.0333333351
    883,  0.866666675,  0.714285731, 0.0333333351
    884,  0.866666675,  0.857142866, 0.0333333351
    885,  0.866666675,           1., 0.0333333351
    886,  0.866666675,          -1.,           0.
    887,  0.866666675, -0.857142866,           0.
    888,  0.866666675, -0.714285731,           0.
    889,  0.866666675, -0.571428597,           0.
    890,  0.866666675, -0.428571433,           0.
    891,  0.866666675, -0.285714298,           0.
    892,  0.866666675, -0.142857149,           0.
    893,  0.866666675,           0.,           0.
    894,  0.866666675,  0.142857149,           0.
    895,  0.866666675,  0.285714298,           0.
    896,  0.866666675,  0.428571433,           0.
    897,  0.866666675,  0.571428597,           0.
    898,  0.866666675,  0.714285731,           0.
    899,  0.866666675,  0.857142866,           0.
    900,  0.866666675,           1.,           0.
    901,           1.,          -1.,  0.100000001
    902,           1., -0.857142866,  0.100000001
    903,           1., -0.714285731,  0.100000001
    904,           1., -0.571428597,  0.100000001
    905,           1., -0.428571433,  0.100000001
    906,           1., -0.285714298,  0.100000001
    907,           1., -0.142857149,  0.100000001
    908,           1.,           0.,  0.100000001
    909,           1.,  0.142857149,  0.100000001
    910,           1.,  0.285714298,  0.100000001
    911,           1.,  0.428571433,  0.100000001
    912,           1.,  0.571428597,  0.100000001
    913,           1.,  0.714285731,  0.100000001
    914,           1.,  0.857142866,  0.100000001
    915,           1.,           1.,  0.100000001
    916,           1.,          -1., 0.0666666701
    917,           1., -0.857142866, 0.0666666701
    918,           1., -0.714285731, 0.0666666701
    919,           1., -0.571428597, 0.0666666701
    920,           1., -0.428571433, 0.0666666701
    921,           1., -0.285714298, 0.0666666701
    922,           1., -0.142857149, 0.0666666701
    923,           1.,           0., 0.0666666701
    924,           1.,  0.142857149, 0.0666666701
    925,           1.,  0.285714298, 0.0666666701
    926,           1.,  0.428571433, 0.0666666701
    927,           1.,  0.571428597, 0.0666666701
    928,           1.,  0.714285731, 0.0666666701
    929,           1.,  0.857142866, 0.0666666701
    930,           1.,           1., 0.0666666701
    931,           1.,          -1., 0.0333333351
    932,           1., -0.857142866, 0.0333333351
    933,           1., -0.714285731, 0.0333333351
    934,           1., -0.571428597, 0.0333333351
    935,           1., -0.428571433, 0.0333333351
    936,           1., -0.285714298, 0.0333333351
    937,           1., -0.142857149, 0.0333333351
    938,           1.,           0., 0.0333333351
    939,           1.,  0.142857149, 0.0333333351
    940,           1.,  0.285714298, 0.0333333351
    941,           1.,  0.428571433, 0.0333333351
    942,           1.,  0.571428597, 0.0333333351
    943,           1.,  0.714285731, 0.0333333351
    944,           1.,  0.857142866, 0.0333333351
    945,           1.,           1., 0.0333333351
    946,           1.,          -1.,           0.
    947,           1., -0.857142866,           0.
    948,           1., -0.714285731,           0.
    949,           1., -0.571428597,           0.
    950,           1., -0.428571433,           0.
    951,           1., -0.285714298,           0.
    952,           1., -0.142857149,           0.
    953,           1.,           0.,           0.
    954,           1.,  0.142857149,           0.
    955,           1.,  0.285714298,           0.
    956,           1.,  0.428571433,           0.
    957,           1.,  0.571428597,           0.
    958,           1.,  0.714285731,           0.
    959,           1.,  0.857142866,           0.
    960,           1.,           1.,           0.
*Element, type=C3D8R
  1,  61,  62,  77,  76,   1,   2,  17,  16
  2,  62,  63,  78,  77,   2,   3,  18,  17
  3,  63,  64,  79,  78,   3,   4,  19,  18
  4,  64,  65,  80,  79,   4,   5,  20,  19
  5,  65,  66,  81,  80,   5,   6,  21,  20
  6,  66,  67,  82,  81,   6,   7,  22,  21
  7,  67,  68,  83,  82,   7,   8,  23,  22
  8,  68,  69,  84,  83,   8,   9,  24,  23
  9,  69,  70,  85,  84,   9,  10,  25,  24
 10,  70,  71,  86,  85,  10,  11,  26,  25
 11,  71,  72,  87,  86,  11,  12,  27,  26
 12,  72,  73,  88,  87,  12,  13,  28,  27
 13,  73,  74,  89,  88,  13,  14,  29,  28
 14,  74,  75,  90,  89,  14,  15,  30,  29
 15,  76,  77,  92,  91,  16,  17,  32,  31
 16,  77,  78,  93,  92,  17,  18,  33,  32
 17,  78,  79,  94,  93,  18,  19,  34,  33
 18,  79,  80,  95,  94,  19,  20,  35,  34
 19,  80,  81,  96,  95,  20,  21,  36,  35
 20,  81,  82,  97,  96,  21,  22,  37,  36
 21,  82,  83,  98,  97,  22,  23,  38,  37
 22,  83,  84,  99,  98,  23,  24,  39,  38
 23,  84,  85, 100,  99,  24,  25,  40,  39
 24,  85,  86, 101, 100,  25,  26,  41,  40
 25,  86,  87, 102, 101,  26,  27,  42,  41
 26,  87,  88, 103, 102,  27,  28,  43,  42
 27,  88,  89, 104, 103,  28,  29,  44,  43
 28,  89,  90, 105, 104,  29,  30,  45,  44
 29,  91,  92, 107, 106,  31,  32,  47,  46
 30,  92,  93, 108, 107,  32,  33,  48,  47
 31,  93,  94, 109, 108,  33,  34,  49,  48
 32,  94,  95, 110, 109,  34,  35,  50,  49
 33,  95,  96, 111, 110,  35,  36,  51,  50
 34,  96,  97, 112, 111,  36,  37,  52,  51
 35,  97,  98, 113, 112,  37,  38,  53,  52
 36,  98,  99, 114, 113,  38,  39,  54,  53
 37,  99, 100, 115, 114,  39,  40,  55,  54
 38, 100, 101, 116, 115,  40,  41,  56,  55
 39, 101, 102, 117, 116,  41,  42,  57,  56
 40, 102, 103, 118, 117,  42,  43,  58,  57
 41, 103, 104, 119, 118,  43,  44,  59,  58
 42, 104, 105, 120, 119,  44,  45,  60,  59
 43, 121, 122, 137, 136,  61,  62,  77,  76
 44, 122, 123, 138, 137,  62,  63,  78,  77
 45, 123, 124, 139, 138,  63,  64,  79,  78
 46, 124, 125, 140, 139,  64,  65,  80,  79
 47, 125, 126, 141, 140,  65,  66,  81,  80
 48, 126, 127, 142, 141,  66,  67,  82,  81
 49, 127, 128, 143, 142,  67,  68,  83,  82
 50, 128, 129, 144, 143,  68,  69,  84,  83
 51, 129, 130, 145, 144,  69,  70,  85,  84
 52, 130, 131, 146, 145,  70,  71,  86,  85
 53, 131, 132, 147, 146,  71,  72,  87,  86
 54, 132, 133, 148, 147,  72,  73,  88,  87
 55, 133, 134, 149, 148,  73,  74,  89,  88
 56, 134, 135, 150, 149,  74,  75,  90,  89
 57, 136, 137, 152, 151,  76,  77,  92,  91
 58, 137, 138, 153, 152,  77,  78,  93,  92
 59, 138, 139, 154, 153,  78,  79,  94,  93
 60, 139, 140, 155, 154,  79,  80,  95,  94
 61, 140, 141, 156, 155,  80,  81,  96,  95
 62, 141, 142, 157, 156,  81,  82,  97,  96
 63, 142, 143, 158, 157,  82,  83,  98,  97
 64, 143, 144, 159, 158,  83,  84,  99,  98
 65, 144, 145, 160, 159,  84,  85, 100,  99
 66, 145, 146, 161, 160,  85,  86, 101, 100
 67, 146, 147, 162, 161,  86,  87, 102, 101
 68, 147, 148, 163, 162,  87,  88, 103, 102
 69, 148, 149, 164, 163,  88,  89, 104, 103
 70, 149, 150, 165, 164,  89,  90, 105, 104
 71, 151, 152, 167, 166,  91,  92, 107, 106
 72, 152, 153, 168, 167,  92,  93, 108, 107
 73, 153, 154, 169, 168,  93,  94, 109, 108
 74, 154, 155, 170, 169,  94,  95, 110, 109
 75, 155, 156, 171, 170,  95,  96, 111, 110
 76, 156, 157, 172, 171,  96,  97, 112, 111
 77, 157, 158, 173, 172,  97,  98, 113, 112
 78, 158, 159, 174, 173,  98,  99, 114, 113
 79, 159, 160, 175, 174,  99, 100, 115, 114
 80, 160, 161, 176, 175, 100, 101, 116, 115
 81, 161, 162, 177, 176, 101, 102, 117, 116
 82, 162, 163, 178, 177, 102, 103, 118, 117
 83, 163, 164, 179, 178, 103, 104, 119, 118
 84, 164, 165, 180, 179, 104, 105, 120, 119
 85, 181, 182, 197, 196, 121, 122, 137, 136
 86, 182, 183, 198, 197, 122, 123, 138, 137
 87, 183, 184, 199, 198, 123, 124, 139, 138
 88, 184, 185, 200, 199, 124, 125, 140, 139
 89, 185, 186, 201, 200, 125, 126, 141, 140
 90, 186, 187, 202, 201, 126, 127, 142, 141
 91, 187, 188, 203, 202, 127, 128, 143, 142
 92, 188, 189, 204, 203, 128, 129, 144, 143
 93, 189, 190, 205, 204, 129, 130, 145, 144
 94, 190, 191, 206, 205, 130, 131, 146, 145
 95, 191, 192, 207, 206, 131, 132, 147, 146
 96, 192, 193, 208, 207, 132, 133, 148, 147
 97, 193, 194, 209, 208, 133, 134, 149, 148
 98, 194, 195, 210, 209, 134, 135, 150, 149
 99, 196, 197, 212, 211, 136, 137, 152, 151
100, 197, 198, 213, 212, 137, 138, 153, 152
101, 198, 199, 214, 213, 138, 139, 154, 153
102, 199, 200, 215, 214, 139, 140, 155, 154
103, 200, 201, 216, 215, 140, 141, 156, 155
104, 201, 202, 217, 216, 141, 142, 157, 156
105, 202, 203, 218, 217, 142, 143, 158, 157
106, 203, 204, 219, 218, 143, 144, 159, 158
107, 204, 205, 220, 219, 144, 145, 160, 159
108, 205, 206, 221, 220, 145, 146, 161, 160
109, 206, 207, 222, 221, 146, 147, 162, 161
110, 207, 208, 223, 222, 147, 148, 163, 162
111, 208, 209, 224, 223, 148, 149, 164, 163
112, 209, 210, 225, 224, 149, 150, 165, 164
113, 211, 212, 227, 226, 151, 152, 167, 166
114, 212, 213, 228, 227, 152, 153, 168, 167
115, 213, 214, 229, 228, 153, 154, 169, 168
116, 214, 215, 230, 229, 154, 155, 170, 169
117, 215, 216, 231, 230, 155, 156, 171, 170
118, 216, 217, 232, 231, 156, 157, 172, 171
119, 217, 218, 233, 232, 157, 158, 173, 172
120, 218, 219, 234, 233, 158, 159, 174, 173
121, 219, 220, 235, 234, 159, 160, 175, 174
122, 220, 221, 236, 235, 160, 161, 176, 175
123, 221, 222, 237, 236, 161, 162, 177, 176
124, 222, 223, 238, 237, 162, 163, 178, 177
125, 223, 224, 239, 238, 163, 164, 179, 178
126, 224, 225, 240, 239, 164, 165, 180, 179
127, 241, 242, 257, 256, 181, 182, 197, 196
128, 242, 243, 258, 257, 182, 183, 198, 197
129, 243, 244, 259, 258, 183, 184, 199, 198
130, 244, 245, 260, 259, 184, 185, 200, 199
131, 245, 246, 261, 260, 185, 186, 201, 200
132, 246, 247, 262, 261, 186, 187, 202, 201
133, 247, 248, 263, 262, 187, 188, 203, 202
134, 248, 249, 264, 263, 188, 189, 204, 203
135, 249, 250, 265, 264, 189, 190, 205, 204
136, 250, 251, 266, 265, 190, 191, 206, 205
137, 251, 252, 267, 266, 191, 192, 207, 206
138, 252, 253, 268, 267, 192, 193, 208, 207
139, 253, 254, 269, 268, 193, 194, 209, 208
140, 254, 255, 270, 269, 194, 195, 210, 209
141, 256, 257, 272, 271, 196, 197, 212, 211
142, 257, 258, 273, 272, 197, 198, 213, 212
143, 258, 259, 274, 273, 198, 199, 214, 213
144, 259, 260, 275, 274, 199, 200, 215, 214
145, 260, 261, 276, 275, 200, 201, 216, 215
146, 261, 262, 277, 276, 201, 202, 217, 216
147, 262, 263, 278, 277, 202, 203, 218, 217
148, 263, 264, 279, 278, 203, 204, 219, 218
149, 264, 265, 280, 279, 204, 205, 220, 219
150, 265, 266, 281, 280, 205, 206, 221, 220
151, 266, 267, 282, 281, 206, 207, 222, 221
152, 267, 268, 283, 282, 207, 208, 223, 222
153, 268, 269, 284, 283, 208, 209, 224, 223
154, 269, 270, 285, 284, 209, 210, 225, 224
155, 271, 272, 287, 286, 211, 212, 227, 226
156, 272, 273, 288, 287, 212, 213, 228, 227
157, 273, 274, 289, 288, 213, 214, 229, 228
158, 274, 275, 290, 289, 214, 215, 230, 229
159, 275, 276, 291, 290, 215, 216, 231, 230
160, 276, 277, 292, 291, 216, 217, 232, 231
161, 277, 278, 293, 292, 217, 218, 233, 232
162, 278, 279, 294, 293, 218, 219, 234, 233
163, 279, 280, 295, 294, 219, 220, 235, 234
164, 280, 281, 296, 295, 220, 221, 236, 235
165, 281, 282, 297, 296, 221, 222, 237, 236
166, 282, 283, 298, 297, 222, 223, 238, 237
167, 283, 284, 299, 298, 223, 224, 239, 238
168, 284, 285, 300, 299, 224, 225, 240, 239
169, 301, 302, 317, 316, 241, 242, 257, 256
170, 302, 303, 318, 317, 242, 243, 258, 257
171, 303, 304, 319, 318, 243, 244, 259, 258
172, 304, 305, 320, 319, 244, 245, 260, 259
173, 305, 306, 321, 320, 245, 246, 261, 260
174, 306, 307, 322, 321, 246, 247, 262, 261
175, 307, 308, 323, 322, 247, 248, 263, 262
176, 308, 309, 324, 323, 248, 249, 264, 263
177, 309, 310, 325, 324, 249, 250, 265, 264
178, 310, 311, 326, 325, 250, 251, 266, 265
179, 311, 312, 327, 326, 251, 252, 267, 266
180, 312, 313, 328, 327, 252, 253, 268, 267
181, 313, 314, 329, 328, 253, 254, 269, 268
182, 314, 315, 330, 329, 254, 255, 270, 269
183, 316, 317, 332, 331, 256, 257, 272, 271
184, 317, 318, 333, 332, 257, 258, 273, 272
185, 318, 319, 334, 333, 258, 259, 274, 273
186, 319, 320, 335, 334, 259, 260, 275, 274
187, 320, 321, 336, 335, 260, 261, 276, 275
188, 321, 322, 337, 336, 261, 262, 277, 276
189, 322, 323, 338, 337, 262, 263, 278, 277
190, 323, 324, 339, 338, 263, 264, 279, 278
191, 324, 325, 340, 339, 264, 265, 280, 279
192, 325, 326, 341, 340, 265, 266, 281, 280
193, 326, 327, 342, 341, 266, 267, 282, 281
194, 327, 328, 343, 342, 267, 268, 283, 282
195, 328, 329, 344, 343, 268, 269, 284, 283
196, 329, 330, 345, 344, 269, 270, 285, 284
197, 331, 332, 347, 346, 271, 272, 287, 286
198, 332, 333, 348, 347, 272, 273, 288, 287
199, 333, 334, 349, 348, 273, 274, 289, 288
200, 334, 335, 350, 349, 274, 275, 290, 289
201, 335, 336, 351, 350, 275, 276, 291, 290
202, 336, 337, 352, 351, 276, 277, 292, 291
203, 337, 338, 353, 352, 277, 278, 293, 292
204, 338, 339, 354, 353, 278, 279, 294, 293
205, 339, 340, 355, 354, 279, 280, 295, 294
206, 340, 341, 356, 355, 280, 281, 296, 295
207, 341, 342, 357, 356, 281, 282, 297, 296
208, 342, 343, 358, 357, 282, 283, 298, 297
209, 343, 344, 359, 358, 283, 284, 299, 298
210, 344, 345, 360, 359, 284, 285, 300, 299
211, 361, 362, 377, 376, 301, 302, 317, 316
212, 362, 363, 378, 377, 302, 303, 318, 317
213, 363, 364, 379, 378, 303, 304, 319, 318
214, 364, 365, 380, 379, 304, 305, 320, 319
215, 365, 366, 381, 380, 305, 306, 321, 320
216, 366, 367, 382, 381, 306, 307, 322, 321
217, 367, 368, 383, 382, 307, 308, 323, 322
218, 368, 369, 384, 383, 308, 309, 324, 323
219, 369, 370, 385, 384, 309, 310, 325, 324
220, 370, 371, 386, 385, 310, 311, 326, 325
221, 371, 372, 387, 386, 311, 312, 327, 326
222, 372, 373, 388, 387, 312, 313, 328, 327
223, 373, 374, 389, 388, 313, 314, 329, 328
224, 374, 375, 390, 389, 314, 315, 330, 329
225, 376, 377, 392, 391, 316, 317, 332, 331
226, 377, 378, 393, 392, 317, 318, 333, 332
227, 378, 379, 394, 393, 318, 319, 334, 333
228, 379, 380, 395, 394, 319, 320, 335, 334
229, 380, 381, 396, 395, 320, 321, 336, 335
230, 381, 382, 397, 396, 321, 322, 337, 336
231, 382, 383, 398, 397, 322, 323, 338, 337
232, 383, 384, 399, 398, 323, 324, 339, 338
233, 384, 385, 400, 399, 324, 325, 340, 339
234, 385, 386, 401, 400, 325, 326, 341, 340
235, 386, 387, 402, 401, 326, 327, 342, 341
236, 387, 388, 403, 402, 327, 328, 343, 342
237, 388, 389, 404, 403, 328, 329, 344, 343
238, 389, 390, 405, 404, 329, 330, 345, 344
239, 391, 392, 407, 406, 331, 332, 347, 346
240, 392, 393, 408, 407, 332, 333, 348, 347
241, 393, 394, 409, 408, 333, 334, 349, 348
242, 394, 395, 410, 409, 334, 335, 350, 349
243, 395, 396, 411, 410, 335, 336, 351, 350
244, 396, 397, 412, 411, 336, 337, 352, 351
245, 397, 398, 413, 412, 337, 338, 353, 352
246, 398, 399, 414, 413, 338, 339, 354, 353
247, 399, 400, 415, 414, 339, 340, 355, 354
248, 400, 401, 416, 415, 340, 341, 356, 355
249, 401, 402, 417, 416, 341, 342, 357, 356
250, 402, 403, 418, 417, 342, 343, 358, 357
251, 403, 404, 419, 418, 343, 344, 359, 358
252, 404, 405, 420, 419, 344, 345, 360, 359
253, 421, 422, 437, 436, 361, 362, 377, 376
254, 422, 423, 438, 437, 362, 363, 378, 377
255, 423, 424, 439, 438, 363, 364, 379, 378
256, 424, 425, 440, 439, 364, 365, 380, 379
257, 425, 426, 441, 440, 365, 366, 381, 380
258, 426, 427, 442, 441, 366, 367, 382, 381
259, 427, 428, 443, 442, 367, 368, 383, 382
260, 428, 429, 444, 443, 368, 369, 384, 383
261, 429, 430, 445, 444, 369, 370, 385, 384
262, 430, 431, 446, 445, 370, 371, 386, 385
263, 431, 432, 447, 446, 371, 372, 387, 386
264, 432, 433, 448, 447, 372, 373, 388, 387
265, 433, 434, 449, 448, 373, 374, 389, 388
266, 434, 435, 450, 449, 374, 375, 390, 389
267, 436, 437, 452, 451, 376, 377, 392, 391
268, 437, 438, 453, 452, 377, 378, 393, 392
269, 438, 439, 454, 453, 378, 379, 394, 393
270, 439, 440, 455, 454, 379, 380, 395, 394
271, 440, 441, 456, 455, 380, 381, 396, 395
272, 441, 442, 457, 456, 381, 382, 397, 396
273, 442, 443, 458, 457, 382, 383, 398, 397
274, 443, 444, 459, 458, 383, 384, 399, 398
275, 444, 445, 460, 459, 384, 385, 400, 399
276, 445, 446, 461, 460, 385, 386, 401, 400
277, 446, 447, 462, 461, 386, 387, 402, 401
278, 447, 448, 463, 462, 387, 388, 403, 402
279, 448, 449, 464, 463, 388, 389, 404, 403
280, 449, 450, 465, 464, 389, 390, 405, 404
281, 451, 452, 467, 466, 391, 392, 407, 406
282, 452, 453, 468, 467, 392, 393, 408, 407
283, 453, 454, 469, 468, 393, 394, 409, 408
284, 454, 455, 470, 469, 394, 395, 410, 409
285, 455, 456, 471, 470, 395, 396, 411, 410
286, 456, 457, 472, 471, 396, 397, 412, 411
287, 457, 458, 473, 472, 397, 398, 413, 412
288, 458, 459, 474, 473, 398, 399, 414, 413
289, 459, 460, 475, 474, 399, 400, 415, 414
290, 460, 461, 476, 475, 400, 401, 416, 415
291, 461, 462, 477, 476, 401, 402, 417, 416
292, 462, 463, 478, 477, 402, 403, 418, 417
293, 463, 464, 479, 478, 403, 404, 419, 418
294, 464, 465, 480, 479, 404, 405, 420, 419
295, 481, 482, 497, 496, 421, 422, 437, 436
296, 482, 483, 498, 497, 422, 423, 438, 437
297, 483, 484, 499, 498, 423, 424, 439, 438
298, 484, 485, 500, 499, 424, 425, 440, 439
299, 485, 486, 501, 500, 425, 426, 441, 440
300, 486, 487, 502, 501, 426, 427, 442, 441
301, 487, 488, 503, 502, 427, 428, 443, 442
302, 488, 489, 504, 503, 428, 429, 444, 443
303, 489, 490, 505, 504, 429, 430, 445, 444
304, 490, 491, 506, 505, 430, 431, 446, 445
305, 491, 492, 507, 506, 431, 432, 447, 446
306, 492, 493, 508, 507, 432, 433, 448, 447
307, 493, 494, 509, 508, 433, 434, 449, 448
308, 494, 495, 510, 509, 434, 435, 450, 449
309, 496, 497, 512, 511, 436, 437, 452, 451
310, 497, 498, 513, 512, 437, 438, 453, 452
311, 498, 499, 514, 513, 438, 439, 454, 453
312, 499, 500, 515, 514, 439, 440, 455, 454
313, 500, 501, 516, 515, 440, 441, 456, 455
314, 501, 502, 517, 516, 441, 442, 457, 456
315, 502, 503, 518, 517, 442, 443, 458, 457
316, 503, 504, 519, 518, 443, 444, 459, 458
317, 504, 505, 520, 519, 444, 445, 460, 459
318, 505, 506, 521, 520, 445, 446, 461, 460
319, 506, 507, 522, 521, 446, 447, 462, 461
320, 507, 508, 523, 522, 447, 448, 463, 462
321, 508, 509, 524, 523, 448, 449, 464, 463
322, 509, 510, 525, 524, 449, 450, 465, 464
323, 511, 512, 527, 526, 451, 452, 467, 466
324, 512, 513, 528, 527, 452, 453, 468, 467
325, 513, 514, 529, 528, 453, 454, 469, 468
326, 514, 515, 530, 529, 454, 455, 470, 469
327, 515, 516, 531, 530, 455, 456, 471, 470
328, 516, 517, 532, 531, 456, 457, 472, 471
329, 517, 518, 533, 532, 457, 458, 473, 472
330, 518, 519, 534, 533, 458, 459, 474, 473
331, 519, 520, 535, 534, 459, 460, 475, 474
332, 520, 521, 536, 535, 460, 461, 476, 475
333, 521, 522, 537, 536, 461, 462, 477, 476
334, 522, 523, 538, 537, 462, 463, 478, 477
335, 523, 524, 539, 538, 463, 464, 479, 478
336, 524, 525, 540, 539, 464, 465, 480, 479
337, 541, 542, 557, 556, 481, 482, 497, 496
338, 542, 543, 558, 557, 482, 483, 498, 497
339, 543, 544, 559, 558, 483, 484, 499, 498
340, 544, 545, 560, 559, 484, 485, 500, 499
341, 545, 546, 561, 560, 485, 486, 501, 500
342, 546, 547, 562, 561, 486, 487, 502, 501
343, 547, 548, 563, 562, 487, 488, 503, 502
344, 548, 549, 564, 563, 488, 489, 504, 503
345, 549, 550, 565, 564, 489, 490, 505, 504
346, 550, 551, 566, 565, 490, 491, 506, 505
347, 551, 552, 567, 566, 491, 492, 507, 506
348, 552, 553, 568, 567, 492, 493, 508, 507
349, 553, 554, 569, 568, 493, 494, 509, 508
350, 554, 555, 570, 569, 494, 495, 510, 509
351, 556, 557, 572, 571, 496, 497, 512, 511
352, 557, 558, 573, 572, 497, 498, 513, 512
353, 558, 559, 574, 573, 498, 499, 514, 513
354, 559, 560, 575, 574, 499, 500, 515, 514
355, 560, 561, 576, 575, 500, 501, 516, 515
356, 561, 562, 577, 576, 501, 502, 517, 516
357, 562, 563, 578, 577, 502, 503, 518, 517
358, 563, 564, 579, 578, 503, 504, 519, 518
359, 564, 565, 580, 579, 504, 505, 520, 519
360, 565, 566, 581, 580, 505, 506, 521, 520
361, 566, 567, 582, 581, 506, 507, 522, 521
362, 567, 568, 583, 582, 507, 508, 523, 522
363, 568, 569, 584, 583, 508, 509, 524, 523
364, 569, 570, 585, 584, 509, 510, 525, 524
365, 571, 572, 587, 586, 511, 512, 527, 526
366, 572, 573, 588, 587, 512, 513, 528, 527
367, 573, 574, 589, 588, 513, 514, 529, 528
368, 574, 575, 590, 589, 514, 515, 530, 529
369, 575, 576, 591, 590, 515, 516, 531, 530
370, 576, 577, 592, 591, 516, 517, 532, 531
371, 577, 578, 593, 592, 517, 518, 533, 532
372, 578, 579, 594, 593, 518, 519, 534, 533
373, 579, 580, 595, 594, 519, 520, 535, 534
374, 580, 581, 596, 595, 520, 521, 536, 535
375, 581, 582, 597, 596, 521, 522, 537, 536
376, 582, 583, 598, 597, 522, 523, 538, 537
377, 583, 584, 599, 598, 523, 524, 539, 538
378, 584, 585, 600, 599, 524, 525, 540, 539
379, 601, 602, 617, 616, 541, 542, 557, 556
380, 602, 603, 618, 617, 542, 543, 558, 557
381, 603, 604, 619, 618, 543, 544, 559, 558
382, 604, 605, 620, 619, 544, 545, 560, 559
383, 605, 606, 621, 620, 545, 546, 561, 560
384, 606, 607, 622, 621, 546, 547, 562, 561
385, 607, 608, 623, 622, 547, 548, 563, 562
386, 608, 609, 624, 623, 548, 549, 564, 563
387, 609, 610, 625, 624, 549, 550, 565, 564
388, 610, 611, 626, 625, 550, 551, 566, 565
389, 611, 612, 627, 626, 551, 552, 567, 566
390, 612, 613, 628, 627, 552, 553, 568, 567
391, 613, 614, 629, 628, 553, 554, 569, 568
392, 614, 615, 630, 629, 554, 555, 570, 569
393, 616, 617, 632, 631, 556, 557, 572, 571
394, 617, 618, 633, 632, 557, 558, 573, 572
395, 618, 619, 634, 633, 558, 559, 574, 573
396, 619, 620, 635, 634, 559, 560, 575, 574
397, 620, 621, 636, 635, 560, 561, 576, 575
398, 621, 622, 637, 636, 561, 562, 577, 576
399, 622, 623, 638, 637, 562, 563, 578, 577
400, 623, 624, 639, 638, 563, 564, 579, 578
401, 624, 625, 640, 639, 564, 565, 580, 579
402, 625, 626, 641, 640, 565, 566, 581, 580
403, 626, 627, 642, 641, 566, 567, 582, 581
404, 627, 628, 643, 642, 567, 568, 583, 582
405, 628, 629, 644, 643, 568, 569, 584, 583
406, 629, 630, 645, 644, 569, 570, 585, 584
407, 631, 632, 647, 646, 571, 572, 587, 586
408, 632, 633, 648, 647, 572, 573, 588, 587
409, 633, 634, 649, 648, 573, 574, 589, 588
410, 634, 635, 650, 649, 574, 575, 590, 589
411, 635, 636, 651, 650, 575, 576, 591, 590
412, 636, 637, 652, 651, 576, 577, 592, 591
413, 637, 638, 653, 652, 577, 578, 593, 592
414, 638, 639, 654, 653, 578, 579, 594, 593
415, 639, 640, 655, 654, 579, 580, 595, 594
416, 640, 641, 656, 655, 580, 581, 596, 595
417, 641, 642, 657, 656, 581, 582, 597, 596
418, 642, 643, 658, 657, 582, 583, 598, 597
419, 643, 644, 659, 658, 583, 584, 599, 598
420, 644, 645, 660, 659, 584, 585, 600, 599
421, 661, 662, 677, 676, 601, 602, 617, 616
422, 662, 663, 678, 677, 602, 603, 618, 617
423, 663, 664, 679, 678, 603, 604, 619, 618
424, 664, 665, 680, 679, 604, 605, 620, 619
425, 665, 666, 681, 680, 605, 606, 621, 620
426, 666, 667, 682, 681, 606, 607, 622, 621
427, 667, 668, 683, 682, 607, 608, 623, 622
428, 668, 669, 684, 683, 608, 609, 624, 623
429, 669, 670, 685, 684, 609, 610, 625, 624
430, 670, 671, 686, 685, 610, 611, 626, 625
431, 671, 672, 687, 686, 611, 612, 627, 626
432, 672, 673, 688, 687, 612, 613, 628, 627
433, 673, 674, 689, 688, 613, 614, 629, 628
434, 674, 675, 690, 689, 614, 615, 630, 629
435, 676, 677, 692, 691, 616, 617, 632, 631
436, 677, 678, 693, 692, 617, 618, 633, 632
437, 678, 679, 694, 693, 618, 619, 634, 633
438, 679, 680, 695, 694, 619, 620, 635, 634
439, 680, 681, 696, 695, 620, 621, 636, 635
440, 681, 682, 697, 696, 621, 622, 637, 636
441, 682, 683, 698, 697, 622, 623, 638, 637
442, 683, 684, 699, 698, 623, 624, 639, 638
443, 684, 685, 700, 699, 624, 625, 640, 639
444, 685, 686, 701, 700, 625, 626, 641, 640
445, 686, 687, 702, 701, 626, 627, 642, 641
446, 687, 688, 703, 702, 627, 628, 643, 642
447, 688, 689, 704, 703, 628, 629, 644, 643
448, 689, 690, 705, 704, 629, 630, 645, 644
449, 691, 692, 707, 706, 631, 632, 647, 646
450, 692, 693, 708, 707, 632, 633, 648, 647
451, 693, 694, 709, 708, 633, 634, 649, 648
452, 694, 695, 710, 709, 634, 635, 650, 649
453, 695, 696, 711, 710, 635, 636, 651, 650
454, 696, 697, 712, 711, 636, 637, 652, 651
455, 697, 698, 713, 712, 637, 638, 653, 652
456, 698, 699, 714, 713, 638, 639, 654, 653
457, 699, 700, 715, 714, 639, 640, 655, 654
458, 700, 701, 716, 715, 640, 641, 656, 655
459, 701, 702, 717, 716, 641, 642, 657, 656
460, 702, 703, 718, 717, 642, 643, 658, 657
461, 703, 704, 719, 718, 643, 644, 659, 658
462, 704, 705, 720, 719, 644, 645, 660, 659
463, 721, 722, 737, 736, 661, 662, 677, 676
464, 722, 723, 738, 737, 662, 663, 678, 677
465, 723, 724, 739, 738, 663, 664, 679, 678
466, 724, 725, 740, 739, 664, 665, 680, 679
467, 725, 726, 741, 740, 665, 666, 681, 680
468, 726, 727, 742, 741, 666, 667, 682, 681
469, 727, 728, 743, 742, 667, 668, 683, 682
470, 728, 729, 744, 743, 668, 669, 684, 683
471, 729, 730, 745, 744, 669, 670, 685, 684
472, 730, 731, 746, 745, 670, 671, 686, 685
473, 731, 732, 747, 746, 671, 672, 687, 686
474, 732, 733, 748, 747, 672, 673, 688, 687
475, 733, 734, 749, 748, 673, 674, 689, 688
476, 734, 735, 750, 749, 674, 675, 690, 689
477, 736, 737, 752, 751, 676, 677, 692, 691
478, 737, 738, 753, 752, 677, 678, 693, 692
479, 738, 739, 754, 753, 678, 679, 694, 693
480, 739, 740, 755, 754, 679, 680, 695, 694
481, 740, 741, 756, 755, 680, 681, 696, 695
482, 741, 742, 757, 756, 681, 682, 697, 696
483, 742, 743, 758, 757, 682, 683, 698, 697
484, 743, 744, 759, 758, 683, 684, 699, 698
485, 744, 745, 760, 759, 684, 685, 700, 699
486, 745, 746, 761, 760, 685, 686, 701, 700
487, 746, 747, 762, 761, 686, 687, 702, 701
488, 747, 748, 763, 762, 687, 688, 703, 702
489, 748, 749, 764, 763, 688, 689, 704, 703
490, 749, 750, 765, 764, 689, 690, 705, 704
491, 751, 752, 767, 766, 691, 692, 707, 706
492, 752, 753, 768, 767, 692, 693, 708, 707
493, 753, 754, 769, 768, 693, 694, 709, 708
494, 754, 755, 770, 769, 694, 695, 710, 709
495, 755, 756, 771, 770, 695, 696, 711, 710
496, 756, 757, 772, 771, 696, 697, 712, 711
497, 757, 758, 773, 772, 697, 698, 713, 712
498, 758, 759, 774, 773, 698, 699, 714, 713
499, 759, 760, 775, 774, 699, 700, 715, 714
500, 760, 761, 776, 775, 700, 701, 716, 715
501, 761, 762, 777, 776, 701, 702, 717, 716
502, 762, 763, 778, 777, 702, 703, 718, 717
503, 763, 764, 779, 778, 703, 704, 719, 718
504, 764, 765, 780, 779, 704, 705, 720, 719
505, 781, 782, 797, 796, 721, 722, 737, 736
506, 782, 783, 798, 797, 722, 723, 738, 737
507, 783, 784, 799, 798, 723, 724, 739, 738
508, 784, 785, 800, 799, 724, 725, 740, 739
509, 785, 786, 801, 800, 725, 726, 741, 740
510, 786, 787, 802, 801, 726, 727, 742, 741
511, 787, 788, 803, 802, 727, 728, 743, 742
512, 788, 789, 804, 803, 728, 729, 744, 743
513, 789, 790, 805, 804, 729, 730, 745, 744
514, 790, 791, 806, 805, 730, 731, 746, 745
515, 791, 792, 807, 806, 731, 732, 747, 746
516, 792, 793, 808, 807, 732, 733, 748, 747
517, 793, 794, 809, 808, 733, 734, 749, 748
518, 794, 795, 810, 809, 734, 735, 750, 749
519, 796, 797, 812, 811, 736, 737, 752, 751
520, 797, 798, 813, 812, 737, 738, 753, 752
521, 798, 799, 814, 813, 738, 739, 754, 753
522, 799, 800, 815, 814, 739, 740, 755, 754
523, 800, 801, 816, 815, 740, 741, 756, 755
524, 801, 802, 817, 816, 741, 742, 757, 756
525, 802, 803, 818, 817, 742, 743, 758, 757
526, 803, 804, 819, 818, 743, 744, 759, 758
527, 804, 805, 820, 819, 744, 745, 760, 759
528, 805, 806, 821, 820, 745, 746, 761, 760
529, 806, 807, 822, 821, 746, 747, 762, 761
530, 807, 808, 823, 822, 747, 748, 763, 762
531, 808, 809, 824, 823, 748, 749, 764, 763
532, 809, 810, 825, 824, 749, 750, 765, 764
533, 811, 812, 827, 826, 751, 752, 767, 766
534, 812, 813, 828, 827, 752, 753, 768, 767
535, 813, 814, 829, 828, 753, 754, 769, 768
536, 814, 815, 830, 829, 754, 755, 770, 769
537, 815, 816, 831, 830, 755, 756, 771, 770
538, 816, 817, 832, 831, 756, 757, 772, 771
539, 817, 818, 833, 832, 757, 758, 773, 772
540, 818, 819, 834, 833, 758, 759, 774, 773
541, 819, 820, 835, 834, 759, 760, 775, 774
542, 820, 821, 836, 835, 760, 761, 776, 775
543, 821, 822, 837, 836, 761, 762, 777, 776
544, 822, 823, 838, 837, 762, 763, 778, 777
545, 823, 824, 839, 838, 763, 764, 779, 778
546, 824, 825, 840, 839, 764, 765, 780, 779
547, 841, 842, 857, 856, 781, 782, 797, 796
548, 842, 843, 858, 857, 782, 783, 798, 797
549, 843, 844, 859, 858, 783, 784, 799, 798
550, 844, 845, 860, 859, 784, 785, 800, 799
551, 845, 846, 861, 860, 785, 786, 801, 800
552, 846, 847, 862, 861, 786, 787, 802, 801
553, 847, 848, 863, 862, 787, 788, 803, 802
554, 848, 849, 864, 863, 788, 789, 804, 803
555, 849, 850, 865, 864, 789, 790, 805, 804
556, 850, 851, 866, 865, 790, 791, 806, 805
557, 851, 852, 867, 866, 791, 792, 807, 806
558, 852, 853, 868, 867, 792, 793, 808, 807
559, 853, 854, 869, 868, 793, 794, 809, 808
560, 854, 855, 870, 869, 794, 795, 810, 809
561, 856, 857, 872, 871, 796, 797, 812, 811
562, 857, 858, 873, 872, 797, 798, 813, 812
563, 858, 859, 874, 873, 798, 799, 814, 813
564, 859, 860, 875, 874, 799, 800, 815, 814
565, 860, 861, 876, 875, 800, 801, 816, 815
566, 861, 862, 877, 876, 801, 802, 817, 816
567, 862, 863, 878, 877, 802, 803, 818, 817
568, 863, 864, 879, 878, 803, 804, 819, 818
569, 864, 865, 880, 879, 804, 805, 820, 819
570, 865, 866, 881, 880, 805, 806, 821, 820
571, 866, 867, 882, 881, 806, 807, 822, 821
572, 867, 868, 883, 882, 807, 808, 823, 822
573, 868, 869, 884, 883, 808, 809, 824, 823
574, 869, 870, 885, 884, 809, 810, 825, 824
575, 871, 872, 887, 886, 811, 812, 827, 826
576, 872, 873, 888, 887, 812, 813, 828, 827
577, 873, 874, 889, 888, 813, 814, 829, 828
578, 874, 875, 890, 889, 814, 815, 830, 829
579, 875, 876, 891, 890, 815, 816, 831, 830
580, 876, 877, 892, 891, 816, 817, 832, 831
581, 877, 878, 893, 892, 817, 818, 833, 832
582, 878, 879, 894, 893, 818, 819, 834, 833
583, 879, 880, 895, 894, 819, 820, 835, 834
584, 880, 881, 896, 895, 820, 821, 836, 835
585, 881, 882, 897, 896, 821, 822, 837, 836
586, 882, 883, 898, 897, 822, 823, 838, 837
587, 883, 884, 899, 898, 823, 824, 839, 838
588, 884, 885, 900, 899, 824, 825, 840, 839
589, 901, 902, 917, 916, 841, 842, 857, 856
590, 902, 903, 918, 917, 842, 843, 858, 857
591, 903, 904, 919, 918, 843, 844, 859, 858
592, 904, 905, 920, 919, 844, 845, 860, 859
593, 905, 906, 921, 920, 845, 846, 861, 860
594, 906, 907, 922, 921, 846, 847, 862, 861
595, 907, 908, 923, 922, 847, 848, 863, 862
596, 908, 909, 924, 923, 848, 849, 864, 863
597, 909, 910, 925, 924, 849, 850, 865, 864
598, 910, 911, 926, 925, 850, 851, 866, 865
599, 911, 912, 927, 926, 851, 852, 867, 866
600, 912, 913, 928, 927, 852, 853, 868, 867
601, 913, 914, 929, 928, 853, 854, 869, 868
602, 914, 915, 930, 929, 854, 855, 870, 869
603, 916, 917, 932, 931, 856, 857, 872, 871
604, 917, 918, 933, 932, 857, 858, 873, 872
605, 918, 919, 934, 933, 858, 859, 874, 873
606, 919, 920, 935, 934, 859, 860, 875, 874
607, 920, 921, 936, 935, 860, 861, 876, 875
608, 921, 922, 937, 936, 861, 862, 877, 876
609, 922, 923, 938, 937, 862, 863, 878, 877
610, 923, 924, 939, 938, 863, 864, 879, 878
611, 924, 925, 940, 939, 864, 865, 880, 879
612, 925, 926, 941, 940, 865, 866, 881, 880
613, 926, 927, 942, 941, 866, 867, 882, 881
614, 927, 928, 943, 942, 867, 868, 883, 882
615, 928, 929, 944, 943, 868, 869, 884, 883
616, 929, 930, 945, 944, 869, 870, 885, 884
617, 931, 932, 947, 946, 871, 872, 887, 886
618, 932, 933, 948, 947, 872, 873, 888, 887
619, 933, 934, 949, 948, 873, 874, 889, 888
620, 934, 935, 950, 949, 874, 875, 890, 889
621, 935, 936, 951, 950, 875, 876, 891, 890
622, 936, 937, 952, 951, 876, 877, 892, 891
623, 937, 938, 953, 952, 877, 878, 893, 892
624, 938, 939, 954, 953, 878, 879, 894, 893
625, 939, 940, 955, 954, 879, 880, 895, 894
626, 940, 941, 956, 955, 880, 881, 896, 895
627, 941, 942, 957, 956, 881, 882, 897, 896
628, 942, 943, 958, 957, 882, 883, 898, 897
629, 943, 944, 959, 958, 883, 884, 899, 898
630, 944, 945, 960, 959, 884, 885, 900, 899
*End Part
**  
**
** ASSEMBLY
**
*Assembly, name=Assembly
**  
*Instance, name=Part-1-1, part=Part-1
*End Instance
**  
*End Assembly
