*Heading
** Job name: Plate_T8 Model name: Model-1
** Generated by: Abaqus/CAE 2020
*Preprint, echo=NO, model=NO, history=NO, contact=NO
**
** PARTS
**
*Part, name=Part-1
*Node
      1,          -1.,          -1.,  0.100000001
      2,          -1., -0.941176474,  0.100000001
      3,          -1., -0.882352948,  0.100000001
      4,          -1., -0.823529422,  0.100000001
      5,          -1., -0.764705896,  0.100000001
      6,          -1.,  -0.70588237,  0.100000001
      7,          -1., -0.647058845,  0.100000001
      8,          -1., -0.588235319,  0.100000001
      9,          -1., -0.529411793,  0.100000001
     10,          -1., -0.470588237,  0.100000001
     11,          -1., -0.411764711,  0.100000001
     12,          -1., -0.352941185,  0.100000001
     13,          -1., -0.294117659,  0.100000001
     14,          -1., -0.235294119,  0.100000001
     15,          -1., -0.176470593,  0.100000001
     16,          -1., -0.117647059,  0.100000001
     17,          -1., -0.0588235296,  0.100000001
     18,          -1.,           0.,  0.100000001
     19,          -1., 0.0588235296,  0.100000001
     20,          -1.,  0.117647059,  0.100000001
     21,          -1.,  0.176470593,  0.100000001
     22,          -1.,  0.235294119,  0.100000001
     23,          -1.,  0.294117659,  0.100000001
     24,          -1.,  0.352941185,  0.100000001
     25,          -1.,  0.411764711,  0.100000001
     26,          -1.,  0.470588237,  0.100000001
     27,          -1.,  0.529411793,  0.100000001
     28,          -1.,  0.588235319,  0.100000001
     29,          -1.,  0.647058845,  0.100000001
     30,          -1.,   0.70588237,  0.100000001
     31,          -1.,  0.764705896,  0.100000001
     32,          -1.,  0.823529422,  0.100000001
     33,          -1.,  0.882352948,  0.100000001
     34,          -1.,  0.941176474,  0.100000001
     35,          -1.,           1.,  0.100000001
     36,          -1.,          -1., 0.0500000007
     37,          -1., -0.941176474, 0.0500000007
     38,          -1., -0.882352948, 0.0500000007
     39,          -1., -0.823529422, 0.0500000007
     40,          -1., -0.764705896, 0.0500000007
     41,          -1.,  -0.70588237, 0.0500000007
     42,          -1., -0.647058845, 0.0500000007
     43,          -1., -0.588235319, 0.0500000007
     44,          -1., -0.529411793, 0.0500000007
     45,          -1., -0.470588237, 0.0500000007
     46,          -1., -0.411764711, 0.0500000007
     47,          -1., -0.352941185, 0.0500000007
     48,          -1., -0.294117659, 0.0500000007
     49,          -1., -0.235294119, 0.0500000007
     50,          -1., -0.176470593, 0.0500000007
     51,          -1., -0.117647059, 0.0500000007
     52,          -1., -0.0588235296, 0.0500000007
     53,          -1.,           0., 0.0500000007
     54,          -1., 0.0588235296, 0.0500000007
     55,          -1.,  0.117647059, 0.0500000007
     56,          -1.,  0.176470593, 0.0500000007
     57,          -1.,  0.235294119, 0.0500000007
     58,          -1.,  0.294117659, 0.0500000007
     59,          -1.,  0.352941185, 0.0500000007
     60,          -1.,  0.411764711, 0.0500000007
     61,          -1.,  0.470588237, 0.0500000007
     62,          -1.,  0.529411793, 0.0500000007
     63,          -1.,  0.588235319, 0.0500000007
     64,          -1.,  0.647058845, 0.0500000007
     65,          -1.,   0.70588237, 0.0500000007
     66,          -1.,  0.764705896, 0.0500000007
     67,          -1.,  0.823529422, 0.0500000007
     68,          -1.,  0.882352948, 0.0500000007
     69,          -1.,  0.941176474, 0.0500000007
     70,          -1.,           1., 0.0500000007
     71,          -1.,          -1.,           0.
     72,          -1., -0.941176474,           0.
     73,          -1., -0.882352948,           0.
     74,          -1., -0.823529422,           0.
     75,          -1., -0.764705896,           0.
     76,          -1.,  -0.70588237,           0.
     77,          -1., -0.647058845,           0.
     78,          -1., -0.588235319,           0.
     79,          -1., -0.529411793,           0.
     80,          -1., -0.470588237,           0.
     81,          -1., -0.411764711,           0.
     82,          -1., -0.352941185,           0.
     83,          -1., -0.294117659,           0.
     84,          -1., -0.235294119,           0.
     85,          -1., -0.176470593,           0.
     86,          -1., -0.117647059,           0.
     87,          -1., -0.0588235296,           0.
     88,          -1.,           0.,           0.
     89,          -1., 0.0588235296,           0.
     90,          -1.,  0.117647059,           0.
     91,          -1.,  0.176470593,           0.
     92,          -1.,  0.235294119,           0.
     93,          -1.,  0.294117659,           0.
     94,          -1.,  0.352941185,           0.
     95,          -1.,  0.411764711,           0.
     96,          -1.,  0.470588237,           0.
     97,          -1.,  0.529411793,           0.
     98,          -1.,  0.588235319,           0.
     99,          -1.,  0.647058845,           0.
    100,          -1.,   0.70588237,           0.
    101,          -1.,  0.764705896,           0.
    102,          -1.,  0.823529422,           0.
    103,          -1.,  0.882352948,           0.
    104,          -1.,  0.941176474,           0.
    105,          -1.,           1.,           0.
    106, -0.942857146,          -1.,  0.100000001
    107, -0.942857146, -0.941176474,  0.100000001
    108, -0.942857146, -0.882352948,  0.100000001
    109, -0.942857146, -0.823529422,  0.100000001
    110, -0.942857146, -0.764705896,  0.100000001
    111, -0.942857146,  -0.70588237,  0.100000001
    112, -0.942857146, -0.647058845,  0.100000001
    113, -0.942857146, -0.588235319,  0.100000001
    114, -0.942857146, -0.529411793,  0.100000001
    115, -0.942857146, -0.470588237,  0.100000001
    116, -0.942857146, -0.411764711,  0.100000001
    117, -0.942857146, -0.352941185,  0.100000001
    118, -0.942857146, -0.294117659,  0.100000001
    119, -0.942857146, -0.235294119,  0.100000001
    120, -0.942857146, -0.176470593,  0.100000001
    121, -0.942857146, -0.117647059,  0.100000001
    122, -0.942857146, -0.0588235296,  0.100000001
    123, -0.942857146,           0.,  0.100000001
    124, -0.942857146, 0.0588235296,  0.100000001
    125, -0.942857146,  0.117647059,  0.100000001
    126, -0.942857146,  0.176470593,  0.100000001
    127, -0.942857146,  0.235294119,  0.100000001
    128, -0.942857146,  0.294117659,  0.100000001
    129, -0.942857146,  0.352941185,  0.100000001
    130, -0.942857146,  0.411764711,  0.100000001
    131, -0.942857146,  0.470588237,  0.100000001
    132, -0.942857146,  0.529411793,  0.100000001
    133, -0.942857146,  0.588235319,  0.100000001
    134, -0.942857146,  0.647058845,  0.100000001
    135, -0.942857146,   0.70588237,  0.100000001
    136, -0.942857146,  0.764705896,  0.100000001
    137, -0.942857146,  0.823529422,  0.100000001
    138, -0.942857146,  0.882352948,  0.100000001
    139, -0.942857146,  0.941176474,  0.100000001
    140, -0.942857146,           1.,  0.100000001
    141, -0.942857146,          -1., 0.0500000007
    142, -0.942857146, -0.941176474, 0.0500000007
    143, -0.942857146, -0.882352948, 0.0500000007
    144, -0.942857146, -0.823529422, 0.0500000007
    145, -0.942857146, -0.764705896, 0.0500000007
    146, -0.942857146,  -0.70588237, 0.0500000007
    147, -0.942857146, -0.647058845, 0.0500000007
    148, -0.942857146, -0.588235319, 0.0500000007
    149, -0.942857146, -0.529411793, 0.0500000007
    150, -0.942857146, -0.470588237, 0.0500000007
    151, -0.942857146, -0.411764711, 0.0500000007
    152, -0.942857146, -0.352941185, 0.0500000007
    153, -0.942857146, -0.294117659, 0.0500000007
    154, -0.942857146, -0.235294119, 0.0500000007
    155, -0.942857146, -0.176470593, 0.0500000007
    156, -0.942857146, -0.117647059, 0.0500000007
    157, -0.942857146, -0.0588235296, 0.0500000007
    158, -0.942857146,           0., 0.0500000007
    159, -0.942857146, 0.0588235296, 0.0500000007
    160, -0.942857146,  0.117647059, 0.0500000007
    161, -0.942857146,  0.176470593, 0.0500000007
    162, -0.942857146,  0.235294119, 0.0500000007
    163, -0.942857146,  0.294117659, 0.0500000007
    164, -0.942857146,  0.352941185, 0.0500000007
    165, -0.942857146,  0.411764711, 0.0500000007
    166, -0.942857146,  0.470588237, 0.0500000007
    167, -0.942857146,  0.529411793, 0.0500000007
    168, -0.942857146,  0.588235319, 0.0500000007
    169, -0.942857146,  0.647058845, 0.0500000007
    170, -0.942857146,   0.70588237, 0.0500000007
    171, -0.942857146,  0.764705896, 0.0500000007
    172, -0.942857146,  0.823529422, 0.0500000007
    173, -0.942857146,  0.882352948, 0.0500000007
    174, -0.942857146,  0.941176474, 0.0500000007
    175, -0.942857146,           1., 0.0500000007
    176, -0.942857146,          -1.,           0.
    177, -0.942857146, -0.941176474,           0.
    178, -0.942857146, -0.882352948,           0.
    179, -0.942857146, -0.823529422,           0.
    180, -0.942857146, -0.764705896,           0.
    181, -0.942857146,  -0.70588237,           0.
    182, -0.942857146, -0.647058845,           0.
    183, -0.942857146, -0.588235319,           0.
    184, -0.942857146, -0.529411793,           0.
    185, -0.942857146, -0.470588237,           0.
    186, -0.942857146, -0.411764711,           0.
    187, -0.942857146, -0.352941185,           0.
    188, -0.942857146, -0.294117659,           0.
    189, -0.942857146, -0.235294119,           0.
    190, -0.942857146, -0.176470593,           0.
    191, -0.942857146, -0.117647059,           0.
    192, -0.942857146, -0.0588235296,           0.
    193, -0.942857146,           0.,           0.
    194, -0.942857146, 0.0588235296,           0.
    195, -0.942857146,  0.117647059,           0.
    196, -0.942857146,  0.176470593,           0.
    197, -0.942857146,  0.235294119,           0.
    198, -0.942857146,  0.294117659,           0.
    199, -0.942857146,  0.352941185,           0.
    200, -0.942857146,  0.411764711,           0.
    201, -0.942857146,  0.470588237,           0.
    202, -0.942857146,  0.529411793,           0.
    203, -0.942857146,  0.588235319,           0.
    204, -0.942857146,  0.647058845,           0.
    205, -0.942857146,   0.70588237,           0.
    206, -0.942857146,  0.764705896,           0.
    207, -0.942857146,  0.823529422,           0.
    208, -0.942857146,  0.882352948,           0.
    209, -0.942857146,  0.941176474,           0.
    210, -0.942857146,           1.,           0.
    211, -0.885714293,          -1.,  0.100000001
    212, -0.885714293, -0.941176474,  0.100000001
    213, -0.885714293, -0.882352948,  0.100000001
    214, -0.885714293, -0.823529422,  0.100000001
    215, -0.885714293, -0.764705896,  0.100000001
    216, -0.885714293,  -0.70588237,  0.100000001
    217, -0.885714293, -0.647058845,  0.100000001
    218, -0.885714293, -0.588235319,  0.100000001
    219, -0.885714293, -0.529411793,  0.100000001
    220, -0.885714293, -0.470588237,  0.100000001
    221, -0.885714293, -0.411764711,  0.100000001
    222, -0.885714293, -0.352941185,  0.100000001
    223, -0.885714293, -0.294117659,  0.100000001
    224, -0.885714293, -0.235294119,  0.100000001
    225, -0.885714293, -0.176470593,  0.100000001
    226, -0.885714293, -0.117647059,  0.100000001
    227, -0.885714293, -0.0588235296,  0.100000001
    228, -0.885714293,           0.,  0.100000001
    229, -0.885714293, 0.0588235296,  0.100000001
    230, -0.885714293,  0.117647059,  0.100000001
    231, -0.885714293,  0.176470593,  0.100000001
    232, -0.885714293,  0.235294119,  0.100000001
    233, -0.885714293,  0.294117659,  0.100000001
    234, -0.885714293,  0.352941185,  0.100000001
    235, -0.885714293,  0.411764711,  0.100000001
    236, -0.885714293,  0.470588237,  0.100000001
    237, -0.885714293,  0.529411793,  0.100000001
    238, -0.885714293,  0.588235319,  0.100000001
    239, -0.885714293,  0.647058845,  0.100000001
    240, -0.885714293,   0.70588237,  0.100000001
    241, -0.885714293,  0.764705896,  0.100000001
    242, -0.885714293,  0.823529422,  0.100000001
    243, -0.885714293,  0.882352948,  0.100000001
    244, -0.885714293,  0.941176474,  0.100000001
    245, -0.885714293,           1.,  0.100000001
    246, -0.885714293,          -1., 0.0500000007
    247, -0.885714293, -0.941176474, 0.0500000007
    248, -0.885714293, -0.882352948, 0.0500000007
    249, -0.885714293, -0.823529422, 0.0500000007
    250, -0.885714293, -0.764705896, 0.0500000007
    251, -0.885714293,  -0.70588237, 0.0500000007
    252, -0.885714293, -0.647058845, 0.0500000007
    253, -0.885714293, -0.588235319, 0.0500000007
    254, -0.885714293, -0.529411793, 0.0500000007
    255, -0.885714293, -0.470588237, 0.0500000007
    256, -0.885714293, -0.411764711, 0.0500000007
    257, -0.885714293, -0.352941185, 0.0500000007
    258, -0.885714293, -0.294117659, 0.0500000007
    259, -0.885714293, -0.235294119, 0.0500000007
    260, -0.885714293, -0.176470593, 0.0500000007
    261, -0.885714293, -0.117647059, 0.0500000007
    262, -0.885714293, -0.0588235296, 0.0500000007
    263, -0.885714293,           0., 0.0500000007
    264, -0.885714293, 0.0588235296, 0.0500000007
    265, -0.885714293,  0.117647059, 0.0500000007
    266, -0.885714293,  0.176470593, 0.0500000007
    267, -0.885714293,  0.235294119, 0.0500000007
    268, -0.885714293,  0.294117659, 0.0500000007
    269, -0.885714293,  0.352941185, 0.0500000007
    270, -0.885714293,  0.411764711, 0.0500000007
    271, -0.885714293,  0.470588237, 0.0500000007
    272, -0.885714293,  0.529411793, 0.0500000007
    273, -0.885714293,  0.588235319, 0.0500000007
    274, -0.885714293,  0.647058845, 0.0500000007
    275, -0.885714293,   0.70588237, 0.0500000007
    276, -0.885714293,  0.764705896, 0.0500000007
    277, -0.885714293,  0.823529422, 0.0500000007
    278, -0.885714293,  0.882352948, 0.0500000007
    279, -0.885714293,  0.941176474, 0.0500000007
    280, -0.885714293,           1., 0.0500000007
    281, -0.885714293,          -1.,           0.
    282, -0.885714293, -0.941176474,           0.
    283, -0.885714293, -0.882352948,           0.
    284, -0.885714293, -0.823529422,           0.
    285, -0.885714293, -0.764705896,           0.
    286, -0.885714293,  -0.70588237,           0.
    287, -0.885714293, -0.647058845,           0.
    288, -0.885714293, -0.588235319,           0.
    289, -0.885714293, -0.529411793,           0.
    290, -0.885714293, -0.470588237,           0.
    291, -0.885714293, -0.411764711,           0.
    292, -0.885714293, -0.352941185,           0.
    293, -0.885714293, -0.294117659,           0.
    294, -0.885714293, -0.235294119,           0.
    295, -0.885714293, -0.176470593,           0.
    296, -0.885714293, -0.117647059,           0.
    297, -0.885714293, -0.0588235296,           0.
    298, -0.885714293,           0.,           0.
    299, -0.885714293, 0.0588235296,           0.
    300, -0.885714293,  0.117647059,           0.
    301, -0.885714293,  0.176470593,           0.
    302, -0.885714293,  0.235294119,           0.
    303, -0.885714293,  0.294117659,           0.
    304, -0.885714293,  0.352941185,           0.
    305, -0.885714293,  0.411764711,           0.
    306, -0.885714293,  0.470588237,           0.
    307, -0.885714293,  0.529411793,           0.
    308, -0.885714293,  0.588235319,           0.
    309, -0.885714293,  0.647058845,           0.
    310, -0.885714293,   0.70588237,           0.
    311, -0.885714293,  0.764705896,           0.
    312, -0.885714293,  0.823529422,           0.
    313, -0.885714293,  0.882352948,           0.
    314, -0.885714293,  0.941176474,           0.
    315, -0.885714293,           1.,           0.
    316, -0.828571439,          -1.,  0.100000001
    317, -0.828571439, -0.941176474,  0.100000001
    318, -0.828571439, -0.882352948,  0.100000001
    319, -0.828571439, -0.823529422,  0.100000001
    320, -0.828571439, -0.764705896,  0.100000001
    321, -0.828571439,  -0.70588237,  0.100000001
    322, -0.828571439, -0.647058845,  0.100000001
    323, -0.828571439, -0.588235319,  0.100000001
    324, -0.828571439, -0.529411793,  0.100000001
    325, -0.828571439, -0.470588237,  0.100000001
    326, -0.828571439, -0.411764711,  0.100000001
    327, -0.828571439, -0.352941185,  0.100000001
    328, -0.828571439, -0.294117659,  0.100000001
    329, -0.828571439, -0.235294119,  0.100000001
    330, -0.828571439, -0.176470593,  0.100000001
    331, -0.828571439, -0.117647059,  0.100000001
    332, -0.828571439, -0.0588235296,  0.100000001
    333, -0.828571439,           0.,  0.100000001
    334, -0.828571439, 0.0588235296,  0.100000001
    335, -0.828571439,  0.117647059,  0.100000001
    336, -0.828571439,  0.176470593,  0.100000001
    337, -0.828571439,  0.235294119,  0.100000001
    338, -0.828571439,  0.294117659,  0.100000001
    339, -0.828571439,  0.352941185,  0.100000001
    340, -0.828571439,  0.411764711,  0.100000001
    341, -0.828571439,  0.470588237,  0.100000001
    342, -0.828571439,  0.529411793,  0.100000001
    343, -0.828571439,  0.588235319,  0.100000001
    344, -0.828571439,  0.647058845,  0.100000001
    345, -0.828571439,   0.70588237,  0.100000001
    346, -0.828571439,  0.764705896,  0.100000001
    347, -0.828571439,  0.823529422,  0.100000001
    348, -0.828571439,  0.882352948,  0.100000001
    349, -0.828571439,  0.941176474,  0.100000001
    350, -0.828571439,           1.,  0.100000001
    351, -0.828571439,          -1., 0.0500000007
    352, -0.828571439, -0.941176474, 0.0500000007
    353, -0.828571439, -0.882352948, 0.0500000007
    354, -0.828571439, -0.823529422, 0.0500000007
    355, -0.828571439, -0.764705896, 0.0500000007
    356, -0.828571439,  -0.70588237, 0.0500000007
    357, -0.828571439, -0.647058845, 0.0500000007
    358, -0.828571439, -0.588235319, 0.0500000007
    359, -0.828571439, -0.529411793, 0.0500000007
    360, -0.828571439, -0.470588237, 0.0500000007
    361, -0.828571439, -0.411764711, 0.0500000007
    362, -0.828571439, -0.352941185, 0.0500000007
    363, -0.828571439, -0.294117659, 0.0500000007
    364, -0.828571439, -0.235294119, 0.0500000007
    365, -0.828571439, -0.176470593, 0.0500000007
    366, -0.828571439, -0.117647059, 0.0500000007
    367, -0.828571439, -0.0588235296, 0.0500000007
    368, -0.828571439,           0., 0.0500000007
    369, -0.828571439, 0.0588235296, 0.0500000007
    370, -0.828571439,  0.117647059, 0.0500000007
    371, -0.828571439,  0.176470593, 0.0500000007
    372, -0.828571439,  0.235294119, 0.0500000007
    373, -0.828571439,  0.294117659, 0.0500000007
    374, -0.828571439,  0.352941185, 0.0500000007
    375, -0.828571439,  0.411764711, 0.0500000007
    376, -0.828571439,  0.470588237, 0.0500000007
    377, -0.828571439,  0.529411793, 0.0500000007
    378, -0.828571439,  0.588235319, 0.0500000007
    379, -0.828571439,  0.647058845, 0.0500000007
    380, -0.828571439,   0.70588237, 0.0500000007
    381, -0.828571439,  0.764705896, 0.0500000007
    382, -0.828571439,  0.823529422, 0.0500000007
    383, -0.828571439,  0.882352948, 0.0500000007
    384, -0.828571439,  0.941176474, 0.0500000007
    385, -0.828571439,           1., 0.0500000007
    386, -0.828571439,          -1.,           0.
    387, -0.828571439, -0.941176474,           0.
    388, -0.828571439, -0.882352948,           0.
    389, -0.828571439, -0.823529422,           0.
    390, -0.828571439, -0.764705896,           0.
    391, -0.828571439,  -0.70588237,           0.
    392, -0.828571439, -0.647058845,           0.
    393, -0.828571439, -0.588235319,           0.
    394, -0.828571439, -0.529411793,           0.
    395, -0.828571439, -0.470588237,           0.
    396, -0.828571439, -0.411764711,           0.
    397, -0.828571439, -0.352941185,           0.
    398, -0.828571439, -0.294117659,           0.
    399, -0.828571439, -0.235294119,           0.
    400, -0.828571439, -0.176470593,           0.
    401, -0.828571439, -0.117647059,           0.
    402, -0.828571439, -0.0588235296,           0.
    403, -0.828571439,           0.,           0.
    404, -0.828571439, 0.0588235296,           0.
    405, -0.828571439,  0.117647059,           0.
    406, -0.828571439,  0.176470593,           0.
    407, -0.828571439,  0.235294119,           0.
    408, -0.828571439,  0.294117659,           0.
    409, -0.828571439,  0.352941185,           0.
    410, -0.828571439,  0.411764711,           0.
    411, -0.828571439,  0.470588237,           0.
    412, -0.828571439,  0.529411793,           0.
    413, -0.828571439,  0.588235319,           0.
    414, -0.828571439,  0.647058845,           0.
    415, -0.828571439,   0.70588237,           0.
    416, -0.828571439,  0.764705896,           0.
    417, -0.828571439,  0.823529422,           0.
    418, -0.828571439,  0.882352948,           0.
    419, -0.828571439,  0.941176474,           0.
    420, -0.828571439,           1.,           0.
    421, -0.771428585,          -1.,  0.100000001
    422, -0.771428585, -0.941176474,  0.100000001
    423, -0.771428585, -0.882352948,  0.100000001
    424, -0.771428585, -0.823529422,  0.100000001
    425, -0.771428585, -0.764705896,  0.100000001
    426, -0.771428585,  -0.70588237,  0.100000001
    427, -0.771428585, -0.647058845,  0.100000001
    428, -0.771428585, -0.588235319,  0.100000001
    429, -0.771428585, -0.529411793,  0.100000001
    430, -0.771428585, -0.470588237,  0.100000001
    431, -0.771428585, -0.411764711,  0.100000001
    432, -0.771428585, -0.352941185,  0.100000001
    433, -0.771428585, -0.294117659,  0.100000001
    434, -0.771428585, -0.235294119,  0.100000001
    435, -0.771428585, -0.176470593,  0.100000001
    436, -0.771428585, -0.117647059,  0.100000001
    437, -0.771428585, -0.0588235296,  0.100000001
    438, -0.771428585,           0.,  0.100000001
    439, -0.771428585, 0.0588235296,  0.100000001
    440, -0.771428585,  0.117647059,  0.100000001
    441, -0.771428585,  0.176470593,  0.100000001
    442, -0.771428585,  0.235294119,  0.100000001
    443, -0.771428585,  0.294117659,  0.100000001
    444, -0.771428585,  0.352941185,  0.100000001
    445, -0.771428585,  0.411764711,  0.100000001
    446, -0.771428585,  0.470588237,  0.100000001
    447, -0.771428585,  0.529411793,  0.100000001
    448, -0.771428585,  0.588235319,  0.100000001
    449, -0.771428585,  0.647058845,  0.100000001
    450, -0.771428585,   0.70588237,  0.100000001
    451, -0.771428585,  0.764705896,  0.100000001
    452, -0.771428585,  0.823529422,  0.100000001
    453, -0.771428585,  0.882352948,  0.100000001
    454, -0.771428585,  0.941176474,  0.100000001
    455, -0.771428585,           1.,  0.100000001
    456, -0.771428585,          -1., 0.0500000007
    457, -0.771428585, -0.941176474, 0.0500000007
    458, -0.771428585, -0.882352948, 0.0500000007
    459, -0.771428585, -0.823529422, 0.0500000007
    460, -0.771428585, -0.764705896, 0.0500000007
    461, -0.771428585,  -0.70588237, 0.0500000007
    462, -0.771428585, -0.647058845, 0.0500000007
    463, -0.771428585, -0.588235319, 0.0500000007
    464, -0.771428585, -0.529411793, 0.0500000007
    465, -0.771428585, -0.470588237, 0.0500000007
    466, -0.771428585, -0.411764711, 0.0500000007
    467, -0.771428585, -0.352941185, 0.0500000007
    468, -0.771428585, -0.294117659, 0.0500000007
    469, -0.771428585, -0.235294119, 0.0500000007
    470, -0.771428585, -0.176470593, 0.0500000007
    471, -0.771428585, -0.117647059, 0.0500000007
    472, -0.771428585, -0.0588235296, 0.0500000007
    473, -0.771428585,           0., 0.0500000007
    474, -0.771428585, 0.0588235296, 0.0500000007
    475, -0.771428585,  0.117647059, 0.0500000007
    476, -0.771428585,  0.176470593, 0.0500000007
    477, -0.771428585,  0.235294119, 0.0500000007
    478, -0.771428585,  0.294117659, 0.0500000007
    479, -0.771428585,  0.352941185, 0.0500000007
    480, -0.771428585,  0.411764711, 0.0500000007
    481, -0.771428585,  0.470588237, 0.0500000007
    482, -0.771428585,  0.529411793, 0.0500000007
    483, -0.771428585,  0.588235319, 0.0500000007
    484, -0.771428585,  0.647058845, 0.0500000007
    485, -0.771428585,   0.70588237, 0.0500000007
    486, -0.771428585,  0.764705896, 0.0500000007
    487, -0.771428585,  0.823529422, 0.0500000007
    488, -0.771428585,  0.882352948, 0.0500000007
    489, -0.771428585,  0.941176474, 0.0500000007
    490, -0.771428585,           1., 0.0500000007
    491, -0.771428585,          -1.,           0.
    492, -0.771428585, -0.941176474,           0.
    493, -0.771428585, -0.882352948,           0.
    494, -0.771428585, -0.823529422,           0.
    495, -0.771428585, -0.764705896,           0.
    496, -0.771428585,  -0.70588237,           0.
    497, -0.771428585, -0.647058845,           0.
    498, -0.771428585, -0.588235319,           0.
    499, -0.771428585, -0.529411793,           0.
    500, -0.771428585, -0.470588237,           0.
    501, -0.771428585, -0.411764711,           0.
    502, -0.771428585, -0.352941185,           0.
    503, -0.771428585, -0.294117659,           0.
    504, -0.771428585, -0.235294119,           0.
    505, -0.771428585, -0.176470593,           0.
    506, -0.771428585, -0.117647059,           0.
    507, -0.771428585, -0.0588235296,           0.
    508, -0.771428585,           0.,           0.
    509, -0.771428585, 0.0588235296,           0.
    510, -0.771428585,  0.117647059,           0.
    511, -0.771428585,  0.176470593,           0.
    512, -0.771428585,  0.235294119,           0.
    513, -0.771428585,  0.294117659,           0.
    514, -0.771428585,  0.352941185,           0.
    515, -0.771428585,  0.411764711,           0.
    516, -0.771428585,  0.470588237,           0.
    517, -0.771428585,  0.529411793,           0.
    518, -0.771428585,  0.588235319,           0.
    519, -0.771428585,  0.647058845,           0.
    520, -0.771428585,   0.70588237,           0.
    521, -0.771428585,  0.764705896,           0.
    522, -0.771428585,  0.823529422,           0.
    523, -0.771428585,  0.882352948,           0.
    524, -0.771428585,  0.941176474,           0.
    525, -0.771428585,           1.,           0.
    526, -0.714285731,          -1.,  0.100000001
    527, -0.714285731, -0.941176474,  0.100000001
    528, -0.714285731, -0.882352948,  0.100000001
    529, -0.714285731, -0.823529422,  0.100000001
    530, -0.714285731, -0.764705896,  0.100000001
    531, -0.714285731,  -0.70588237,  0.100000001
    532, -0.714285731, -0.647058845,  0.100000001
    533, -0.714285731, -0.588235319,  0.100000001
    534, -0.714285731, -0.529411793,  0.100000001
    535, -0.714285731, -0.470588237,  0.100000001
    536, -0.714285731, -0.411764711,  0.100000001
    537, -0.714285731, -0.352941185,  0.100000001
    538, -0.714285731, -0.294117659,  0.100000001
    539, -0.714285731, -0.235294119,  0.100000001
    540, -0.714285731, -0.176470593,  0.100000001
    541, -0.714285731, -0.117647059,  0.100000001
    542, -0.714285731, -0.0588235296,  0.100000001
    543, -0.714285731,           0.,  0.100000001
    544, -0.714285731, 0.0588235296,  0.100000001
    545, -0.714285731,  0.117647059,  0.100000001
    546, -0.714285731,  0.176470593,  0.100000001
    547, -0.714285731,  0.235294119,  0.100000001
    548, -0.714285731,  0.294117659,  0.100000001
    549, -0.714285731,  0.352941185,  0.100000001
    550, -0.714285731,  0.411764711,  0.100000001
    551, -0.714285731,  0.470588237,  0.100000001
    552, -0.714285731,  0.529411793,  0.100000001
    553, -0.714285731,  0.588235319,  0.100000001
    554, -0.714285731,  0.647058845,  0.100000001
    555, -0.714285731,   0.70588237,  0.100000001
    556, -0.714285731,  0.764705896,  0.100000001
    557, -0.714285731,  0.823529422,  0.100000001
    558, -0.714285731,  0.882352948,  0.100000001
    559, -0.714285731,  0.941176474,  0.100000001
    560, -0.714285731,           1.,  0.100000001
    561, -0.714285731,          -1., 0.0500000007
    562, -0.714285731, -0.941176474, 0.0500000007
    563, -0.714285731, -0.882352948, 0.0500000007
    564, -0.714285731, -0.823529422, 0.0500000007
    565, -0.714285731, -0.764705896, 0.0500000007
    566, -0.714285731,  -0.70588237, 0.0500000007
    567, -0.714285731, -0.647058845, 0.0500000007
    568, -0.714285731, -0.588235319, 0.0500000007
    569, -0.714285731, -0.529411793, 0.0500000007
    570, -0.714285731, -0.470588237, 0.0500000007
    571, -0.714285731, -0.411764711, 0.0500000007
    572, -0.714285731, -0.352941185, 0.0500000007
    573, -0.714285731, -0.294117659, 0.0500000007
    574, -0.714285731, -0.235294119, 0.0500000007
    575, -0.714285731, -0.176470593, 0.0500000007
    576, -0.714285731, -0.117647059, 0.0500000007
    577, -0.714285731, -0.0588235296, 0.0500000007
    578, -0.714285731,           0., 0.0500000007
    579, -0.714285731, 0.0588235296, 0.0500000007
    580, -0.714285731,  0.117647059, 0.0500000007
    581, -0.714285731,  0.176470593, 0.0500000007
    582, -0.714285731,  0.235294119, 0.0500000007
    583, -0.714285731,  0.294117659, 0.0500000007
    584, -0.714285731,  0.352941185, 0.0500000007
    585, -0.714285731,  0.411764711, 0.0500000007
    586, -0.714285731,  0.470588237, 0.0500000007
    587, -0.714285731,  0.529411793, 0.0500000007
    588, -0.714285731,  0.588235319, 0.0500000007
    589, -0.714285731,  0.647058845, 0.0500000007
    590, -0.714285731,   0.70588237, 0.0500000007
    591, -0.714285731,  0.764705896, 0.0500000007
    592, -0.714285731,  0.823529422, 0.0500000007
    593, -0.714285731,  0.882352948, 0.0500000007
    594, -0.714285731,  0.941176474, 0.0500000007
    595, -0.714285731,           1., 0.0500000007
    596, -0.714285731,          -1.,           0.
    597, -0.714285731, -0.941176474,           0.
    598, -0.714285731, -0.882352948,           0.
    599, -0.714285731, -0.823529422,           0.
    600, -0.714285731, -0.764705896,           0.
    601, -0.714285731,  -0.70588237,           0.
    602, -0.714285731, -0.647058845,           0.
    603, -0.714285731, -0.588235319,           0.
    604, -0.714285731, -0.529411793,           0.
    605, -0.714285731, -0.470588237,           0.
    606, -0.714285731, -0.411764711,           0.
    607, -0.714285731, -0.352941185,           0.
    608, -0.714285731, -0.294117659,           0.
    609, -0.714285731, -0.235294119,           0.
    610, -0.714285731, -0.176470593,           0.
    611, -0.714285731, -0.117647059,           0.
    612, -0.714285731, -0.0588235296,           0.
    613, -0.714285731,           0.,           0.
    614, -0.714285731, 0.0588235296,           0.
    615, -0.714285731,  0.117647059,           0.
    616, -0.714285731,  0.176470593,           0.
    617, -0.714285731,  0.235294119,           0.
    618, -0.714285731,  0.294117659,           0.
    619, -0.714285731,  0.352941185,           0.
    620, -0.714285731,  0.411764711,           0.
    621, -0.714285731,  0.470588237,           0.
    622, -0.714285731,  0.529411793,           0.
    623, -0.714285731,  0.588235319,           0.
    624, -0.714285731,  0.647058845,           0.
    625, -0.714285731,   0.70588237,           0.
    626, -0.714285731,  0.764705896,           0.
    627, -0.714285731,  0.823529422,           0.
    628, -0.714285731,  0.882352948,           0.
    629, -0.714285731,  0.941176474,           0.
    630, -0.714285731,           1.,           0.
    631, -0.657142878,          -1.,  0.100000001
    632, -0.657142878, -0.941176474,  0.100000001
    633, -0.657142878, -0.882352948,  0.100000001
    634, -0.657142878, -0.823529422,  0.100000001
    635, -0.657142878, -0.764705896,  0.100000001
    636, -0.657142878,  -0.70588237,  0.100000001
    637, -0.657142878, -0.647058845,  0.100000001
    638, -0.657142878, -0.588235319,  0.100000001
    639, -0.657142878, -0.529411793,  0.100000001
    640, -0.657142878, -0.470588237,  0.100000001
    641, -0.657142878, -0.411764711,  0.100000001
    642, -0.657142878, -0.352941185,  0.100000001
    643, -0.657142878, -0.294117659,  0.100000001
    644, -0.657142878, -0.235294119,  0.100000001
    645, -0.657142878, -0.176470593,  0.100000001
    646, -0.657142878, -0.117647059,  0.100000001
    647, -0.657142878, -0.0588235296,  0.100000001
    648, -0.657142878,           0.,  0.100000001
    649, -0.657142878, 0.0588235296,  0.100000001
    650, -0.657142878,  0.117647059,  0.100000001
    651, -0.657142878,  0.176470593,  0.100000001
    652, -0.657142878,  0.235294119,  0.100000001
    653, -0.657142878,  0.294117659,  0.100000001
    654, -0.657142878,  0.352941185,  0.100000001
    655, -0.657142878,  0.411764711,  0.100000001
    656, -0.657142878,  0.470588237,  0.100000001
    657, -0.657142878,  0.529411793,  0.100000001
    658, -0.657142878,  0.588235319,  0.100000001
    659, -0.657142878,  0.647058845,  0.100000001
    660, -0.657142878,   0.70588237,  0.100000001
    661, -0.657142878,  0.764705896,  0.100000001
    662, -0.657142878,  0.823529422,  0.100000001
    663, -0.657142878,  0.882352948,  0.100000001
    664, -0.657142878,  0.941176474,  0.100000001
    665, -0.657142878,           1.,  0.100000001
    666, -0.657142878,          -1., 0.0500000007
    667, -0.657142878, -0.941176474, 0.0500000007
    668, -0.657142878, -0.882352948, 0.0500000007
    669, -0.657142878, -0.823529422, 0.0500000007
    670, -0.657142878, -0.764705896, 0.0500000007
    671, -0.657142878,  -0.70588237, 0.0500000007
    672, -0.657142878, -0.647058845, 0.0500000007
    673, -0.657142878, -0.588235319, 0.0500000007
    674, -0.657142878, -0.529411793, 0.0500000007
    675, -0.657142878, -0.470588237, 0.0500000007
    676, -0.657142878, -0.411764711, 0.0500000007
    677, -0.657142878, -0.352941185, 0.0500000007
    678, -0.657142878, -0.294117659, 0.0500000007
    679, -0.657142878, -0.235294119, 0.0500000007
    680, -0.657142878, -0.176470593, 0.0500000007
    681, -0.657142878, -0.117647059, 0.0500000007
    682, -0.657142878, -0.0588235296, 0.0500000007
    683, -0.657142878,           0., 0.0500000007
    684, -0.657142878, 0.0588235296, 0.0500000007
    685, -0.657142878,  0.117647059, 0.0500000007
    686, -0.657142878,  0.176470593, 0.0500000007
    687, -0.657142878,  0.235294119, 0.0500000007
    688, -0.657142878,  0.294117659, 0.0500000007
    689, -0.657142878,  0.352941185, 0.0500000007
    690, -0.657142878,  0.411764711, 0.0500000007
    691, -0.657142878,  0.470588237, 0.0500000007
    692, -0.657142878,  0.529411793, 0.0500000007
    693, -0.657142878,  0.588235319, 0.0500000007
    694, -0.657142878,  0.647058845, 0.0500000007
    695, -0.657142878,   0.70588237, 0.0500000007
    696, -0.657142878,  0.764705896, 0.0500000007
    697, -0.657142878,  0.823529422, 0.0500000007
    698, -0.657142878,  0.882352948, 0.0500000007
    699, -0.657142878,  0.941176474, 0.0500000007
    700, -0.657142878,           1., 0.0500000007
    701, -0.657142878,          -1.,           0.
    702, -0.657142878, -0.941176474,           0.
    703, -0.657142878, -0.882352948,           0.
    704, -0.657142878, -0.823529422,           0.
    705, -0.657142878, -0.764705896,           0.
    706, -0.657142878,  -0.70588237,           0.
    707, -0.657142878, -0.647058845,           0.
    708, -0.657142878, -0.588235319,           0.
    709, -0.657142878, -0.529411793,           0.
    710, -0.657142878, -0.470588237,           0.
    711, -0.657142878, -0.411764711,           0.
    712, -0.657142878, -0.352941185,           0.
    713, -0.657142878, -0.294117659,           0.
    714, -0.657142878, -0.235294119,           0.
    715, -0.657142878, -0.176470593,           0.
    716, -0.657142878, -0.117647059,           0.
    717, -0.657142878, -0.0588235296,           0.
    718, -0.657142878,           0.,           0.
    719, -0.657142878, 0.0588235296,           0.
    720, -0.657142878,  0.117647059,           0.
    721, -0.657142878,  0.176470593,           0.
    722, -0.657142878,  0.235294119,           0.
    723, -0.657142878,  0.294117659,           0.
    724, -0.657142878,  0.352941185,           0.
    725, -0.657142878,  0.411764711,           0.
    726, -0.657142878,  0.470588237,           0.
    727, -0.657142878,  0.529411793,           0.
    728, -0.657142878,  0.588235319,           0.
    729, -0.657142878,  0.647058845,           0.
    730, -0.657142878,   0.70588237,           0.
    731, -0.657142878,  0.764705896,           0.
    732, -0.657142878,  0.823529422,           0.
    733, -0.657142878,  0.882352948,           0.
    734, -0.657142878,  0.941176474,           0.
    735, -0.657142878,           1.,           0.
    736, -0.600000024,          -1.,  0.100000001
    737, -0.600000024, -0.941176474,  0.100000001
    738, -0.600000024, -0.882352948,  0.100000001
    739, -0.600000024, -0.823529422,  0.100000001
    740, -0.600000024, -0.764705896,  0.100000001
    741, -0.600000024,  -0.70588237,  0.100000001
    742, -0.600000024, -0.647058845,  0.100000001
    743, -0.600000024, -0.588235319,  0.100000001
    744, -0.600000024, -0.529411793,  0.100000001
    745, -0.600000024, -0.470588237,  0.100000001
    746, -0.600000024, -0.411764711,  0.100000001
    747, -0.600000024, -0.352941185,  0.100000001
    748, -0.600000024, -0.294117659,  0.100000001
    749, -0.600000024, -0.235294119,  0.100000001
    750, -0.600000024, -0.176470593,  0.100000001
    751, -0.600000024, -0.117647059,  0.100000001
    752, -0.600000024, -0.0588235296,  0.100000001
    753, -0.600000024,           0.,  0.100000001
    754, -0.600000024, 0.0588235296,  0.100000001
    755, -0.600000024,  0.117647059,  0.100000001
    756, -0.600000024,  0.176470593,  0.100000001
    757, -0.600000024,  0.235294119,  0.100000001
    758, -0.600000024,  0.294117659,  0.100000001
    759, -0.600000024,  0.352941185,  0.100000001
    760, -0.600000024,  0.411764711,  0.100000001
    761, -0.600000024,  0.470588237,  0.100000001
    762, -0.600000024,  0.529411793,  0.100000001
    763, -0.600000024,  0.588235319,  0.100000001
    764, -0.600000024,  0.647058845,  0.100000001
    765, -0.600000024,   0.70588237,  0.100000001
    766, -0.600000024,  0.764705896,  0.100000001
    767, -0.600000024,  0.823529422,  0.100000001
    768, -0.600000024,  0.882352948,  0.100000001
    769, -0.600000024,  0.941176474,  0.100000001
    770, -0.600000024,           1.,  0.100000001
    771, -0.600000024,          -1., 0.0500000007
    772, -0.600000024, -0.941176474, 0.0500000007
    773, -0.600000024, -0.882352948, 0.0500000007
    774, -0.600000024, -0.823529422, 0.0500000007
    775, -0.600000024, -0.764705896, 0.0500000007
    776, -0.600000024,  -0.70588237, 0.0500000007
    777, -0.600000024, -0.647058845, 0.0500000007
    778, -0.600000024, -0.588235319, 0.0500000007
    779, -0.600000024, -0.529411793, 0.0500000007
    780, -0.600000024, -0.470588237, 0.0500000007
    781, -0.600000024, -0.411764711, 0.0500000007
    782, -0.600000024, -0.352941185, 0.0500000007
    783, -0.600000024, -0.294117659, 0.0500000007
    784, -0.600000024, -0.235294119, 0.0500000007
    785, -0.600000024, -0.176470593, 0.0500000007
    786, -0.600000024, -0.117647059, 0.0500000007
    787, -0.600000024, -0.0588235296, 0.0500000007
    788, -0.600000024,           0., 0.0500000007
    789, -0.600000024, 0.0588235296, 0.0500000007
    790, -0.600000024,  0.117647059, 0.0500000007
    791, -0.600000024,  0.176470593, 0.0500000007
    792, -0.600000024,  0.235294119, 0.0500000007
    793, -0.600000024,  0.294117659, 0.0500000007
    794, -0.600000024,  0.352941185, 0.0500000007
    795, -0.600000024,  0.411764711, 0.0500000007
    796, -0.600000024,  0.470588237, 0.0500000007
    797, -0.600000024,  0.529411793, 0.0500000007
    798, -0.600000024,  0.588235319, 0.0500000007
    799, -0.600000024,  0.647058845, 0.0500000007
    800, -0.600000024,   0.70588237, 0.0500000007
    801, -0.600000024,  0.764705896, 0.0500000007
    802, -0.600000024,  0.823529422, 0.0500000007
    803, -0.600000024,  0.882352948, 0.0500000007
    804, -0.600000024,  0.941176474, 0.0500000007
    805, -0.600000024,           1., 0.0500000007
    806, -0.600000024,          -1.,           0.
    807, -0.600000024, -0.941176474,           0.
    808, -0.600000024, -0.882352948,           0.
    809, -0.600000024, -0.823529422,           0.
    810, -0.600000024, -0.764705896,           0.
    811, -0.600000024,  -0.70588237,           0.
    812, -0.600000024, -0.647058845,           0.
    813, -0.600000024, -0.588235319,           0.
    814, -0.600000024, -0.529411793,           0.
    815, -0.600000024, -0.470588237,           0.
    816, -0.600000024, -0.411764711,           0.
    817, -0.600000024, -0.352941185,           0.
    818, -0.600000024, -0.294117659,           0.
    819, -0.600000024, -0.235294119,           0.
    820, -0.600000024, -0.176470593,           0.
    821, -0.600000024, -0.117647059,           0.
    822, -0.600000024, -0.0588235296,           0.
    823, -0.600000024,           0.,           0.
    824, -0.600000024, 0.0588235296,           0.
    825, -0.600000024,  0.117647059,           0.
    826, -0.600000024,  0.176470593,           0.
    827, -0.600000024,  0.235294119,           0.
    828, -0.600000024,  0.294117659,           0.
    829, -0.600000024,  0.352941185,           0.
    830, -0.600000024,  0.411764711,           0.
    831, -0.600000024,  0.470588237,           0.
    832, -0.600000024,  0.529411793,           0.
    833, -0.600000024,  0.588235319,           0.
    834, -0.600000024,  0.647058845,           0.
    835, -0.600000024,   0.70588237,           0.
    836, -0.600000024,  0.764705896,           0.
    837, -0.600000024,  0.823529422,           0.
    838, -0.600000024,  0.882352948,           0.
    839, -0.600000024,  0.941176474,           0.
    840, -0.600000024,           1.,           0.
    841,  -0.54285717,          -1.,  0.100000001
    842,  -0.54285717, -0.941176474,  0.100000001
    843,  -0.54285717, -0.882352948,  0.100000001
    844,  -0.54285717, -0.823529422,  0.100000001
    845,  -0.54285717, -0.764705896,  0.100000001
    846,  -0.54285717,  -0.70588237,  0.100000001
    847,  -0.54285717, -0.647058845,  0.100000001
    848,  -0.54285717, -0.588235319,  0.100000001
    849,  -0.54285717, -0.529411793,  0.100000001
    850,  -0.54285717, -0.470588237,  0.100000001
    851,  -0.54285717, -0.411764711,  0.100000001
    852,  -0.54285717, -0.352941185,  0.100000001
    853,  -0.54285717, -0.294117659,  0.100000001
    854,  -0.54285717, -0.235294119,  0.100000001
    855,  -0.54285717, -0.176470593,  0.100000001
    856,  -0.54285717, -0.117647059,  0.100000001
    857,  -0.54285717, -0.0588235296,  0.100000001
    858,  -0.54285717,           0.,  0.100000001
    859,  -0.54285717, 0.0588235296,  0.100000001
    860,  -0.54285717,  0.117647059,  0.100000001
    861,  -0.54285717,  0.176470593,  0.100000001
    862,  -0.54285717,  0.235294119,  0.100000001
    863,  -0.54285717,  0.294117659,  0.100000001
    864,  -0.54285717,  0.352941185,  0.100000001
    865,  -0.54285717,  0.411764711,  0.100000001
    866,  -0.54285717,  0.470588237,  0.100000001
    867,  -0.54285717,  0.529411793,  0.100000001
    868,  -0.54285717,  0.588235319,  0.100000001
    869,  -0.54285717,  0.647058845,  0.100000001
    870,  -0.54285717,   0.70588237,  0.100000001
    871,  -0.54285717,  0.764705896,  0.100000001
    872,  -0.54285717,  0.823529422,  0.100000001
    873,  -0.54285717,  0.882352948,  0.100000001
    874,  -0.54285717,  0.941176474,  0.100000001
    875,  -0.54285717,           1.,  0.100000001
    876,  -0.54285717,          -1., 0.0500000007
    877,  -0.54285717, -0.941176474, 0.0500000007
    878,  -0.54285717, -0.882352948, 0.0500000007
    879,  -0.54285717, -0.823529422, 0.0500000007
    880,  -0.54285717, -0.764705896, 0.0500000007
    881,  -0.54285717,  -0.70588237, 0.0500000007
    882,  -0.54285717, -0.647058845, 0.0500000007
    883,  -0.54285717, -0.588235319, 0.0500000007
    884,  -0.54285717, -0.529411793, 0.0500000007
    885,  -0.54285717, -0.470588237, 0.0500000007
    886,  -0.54285717, -0.411764711, 0.0500000007
    887,  -0.54285717, -0.352941185, 0.0500000007
    888,  -0.54285717, -0.294117659, 0.0500000007
    889,  -0.54285717, -0.235294119, 0.0500000007
    890,  -0.54285717, -0.176470593, 0.0500000007
    891,  -0.54285717, -0.117647059, 0.0500000007
    892,  -0.54285717, -0.0588235296, 0.0500000007
    893,  -0.54285717,           0., 0.0500000007
    894,  -0.54285717, 0.0588235296, 0.0500000007
    895,  -0.54285717,  0.117647059, 0.0500000007
    896,  -0.54285717,  0.176470593, 0.0500000007
    897,  -0.54285717,  0.235294119, 0.0500000007
    898,  -0.54285717,  0.294117659, 0.0500000007
    899,  -0.54285717,  0.352941185, 0.0500000007
    900,  -0.54285717,  0.411764711, 0.0500000007
    901,  -0.54285717,  0.470588237, 0.0500000007
    902,  -0.54285717,  0.529411793, 0.0500000007
    903,  -0.54285717,  0.588235319, 0.0500000007
    904,  -0.54285717,  0.647058845, 0.0500000007
    905,  -0.54285717,   0.70588237, 0.0500000007
    906,  -0.54285717,  0.764705896, 0.0500000007
    907,  -0.54285717,  0.823529422, 0.0500000007
    908,  -0.54285717,  0.882352948, 0.0500000007
    909,  -0.54285717,  0.941176474, 0.0500000007
    910,  -0.54285717,           1., 0.0500000007
    911,  -0.54285717,          -1.,           0.
    912,  -0.54285717, -0.941176474,           0.
    913,  -0.54285717, -0.882352948,           0.
    914,  -0.54285717, -0.823529422,           0.
    915,  -0.54285717, -0.764705896,           0.
    916,  -0.54285717,  -0.70588237,           0.
    917,  -0.54285717, -0.647058845,           0.
    918,  -0.54285717, -0.588235319,           0.
    919,  -0.54285717, -0.529411793,           0.
    920,  -0.54285717, -0.470588237,           0.
    921,  -0.54285717, -0.411764711,           0.
    922,  -0.54285717, -0.352941185,           0.
    923,  -0.54285717, -0.294117659,           0.
    924,  -0.54285717, -0.235294119,           0.
    925,  -0.54285717, -0.176470593,           0.
    926,  -0.54285717, -0.117647059,           0.
    927,  -0.54285717, -0.0588235296,           0.
    928,  -0.54285717,           0.,           0.
    929,  -0.54285717, 0.0588235296,           0.
    930,  -0.54285717,  0.117647059,           0.
    931,  -0.54285717,  0.176470593,           0.
    932,  -0.54285717,  0.235294119,           0.
    933,  -0.54285717,  0.294117659,           0.
    934,  -0.54285717,  0.352941185,           0.
    935,  -0.54285717,  0.411764711,           0.
    936,  -0.54285717,  0.470588237,           0.
    937,  -0.54285717,  0.529411793,           0.
    938,  -0.54285717,  0.588235319,           0.
    939,  -0.54285717,  0.647058845,           0.
    940,  -0.54285717,   0.70588237,           0.
    941,  -0.54285717,  0.764705896,           0.
    942,  -0.54285717,  0.823529422,           0.
    943,  -0.54285717,  0.882352948,           0.
    944,  -0.54285717,  0.941176474,           0.
    945,  -0.54285717,           1.,           0.
    946, -0.485714287,          -1.,  0.100000001
    947, -0.485714287, -0.941176474,  0.100000001
    948, -0.485714287, -0.882352948,  0.100000001
    949, -0.485714287, -0.823529422,  0.100000001
    950, -0.485714287, -0.764705896,  0.100000001
    951, -0.485714287,  -0.70588237,  0.100000001
    952, -0.485714287, -0.647058845,  0.100000001
    953, -0.485714287, -0.588235319,  0.100000001
    954, -0.485714287, -0.529411793,  0.100000001
    955, -0.485714287, -0.470588237,  0.100000001
    956, -0.485714287, -0.411764711,  0.100000001
    957, -0.485714287, -0.352941185,  0.100000001
    958, -0.485714287, -0.294117659,  0.100000001
    959, -0.485714287, -0.235294119,  0.100000001
    960, -0.485714287, -0.176470593,  0.100000001
    961, -0.485714287, -0.117647059,  0.100000001
    962, -0.485714287, -0.0588235296,  0.100000001
    963, -0.485714287,           0.,  0.100000001
    964, -0.485714287, 0.0588235296,  0.100000001
    965, -0.485714287,  0.117647059,  0.100000001
    966, -0.485714287,  0.176470593,  0.100000001
    967, -0.485714287,  0.235294119,  0.100000001
    968, -0.485714287,  0.294117659,  0.100000001
    969, -0.485714287,  0.352941185,  0.100000001
    970, -0.485714287,  0.411764711,  0.100000001
    971, -0.485714287,  0.470588237,  0.100000001
    972, -0.485714287,  0.529411793,  0.100000001
    973, -0.485714287,  0.588235319,  0.100000001
    974, -0.485714287,  0.647058845,  0.100000001
    975, -0.485714287,   0.70588237,  0.100000001
    976, -0.485714287,  0.764705896,  0.100000001
    977, -0.485714287,  0.823529422,  0.100000001
    978, -0.485714287,  0.882352948,  0.100000001
    979, -0.485714287,  0.941176474,  0.100000001
    980, -0.485714287,           1.,  0.100000001
    981, -0.485714287,          -1., 0.0500000007
    982, -0.485714287, -0.941176474, 0.0500000007
    983, -0.485714287, -0.882352948, 0.0500000007
    984, -0.485714287, -0.823529422, 0.0500000007
    985, -0.485714287, -0.764705896, 0.0500000007
    986, -0.485714287,  -0.70588237, 0.0500000007
    987, -0.485714287, -0.647058845, 0.0500000007
    988, -0.485714287, -0.588235319, 0.0500000007
    989, -0.485714287, -0.529411793, 0.0500000007
    990, -0.485714287, -0.470588237, 0.0500000007
    991, -0.485714287, -0.411764711, 0.0500000007
    992, -0.485714287, -0.352941185, 0.0500000007
    993, -0.485714287, -0.294117659, 0.0500000007
    994, -0.485714287, -0.235294119, 0.0500000007
    995, -0.485714287, -0.176470593, 0.0500000007
    996, -0.485714287, -0.117647059, 0.0500000007
    997, -0.485714287, -0.0588235296, 0.0500000007
    998, -0.485714287,           0., 0.0500000007
    999, -0.485714287, 0.0588235296, 0.0500000007
   1000, -0.485714287,  0.117647059, 0.0500000007
   1001, -0.485714287,  0.176470593, 0.0500000007
   1002, -0.485714287,  0.235294119, 0.0500000007
   1003, -0.485714287,  0.294117659, 0.0500000007
   1004, -0.485714287,  0.352941185, 0.0500000007
   1005, -0.485714287,  0.411764711, 0.0500000007
   1006, -0.485714287,  0.470588237, 0.0500000007
   1007, -0.485714287,  0.529411793, 0.0500000007
   1008, -0.485714287,  0.588235319, 0.0500000007
   1009, -0.485714287,  0.647058845, 0.0500000007
   1010, -0.485714287,   0.70588237, 0.0500000007
   1011, -0.485714287,  0.764705896, 0.0500000007
   1012, -0.485714287,  0.823529422, 0.0500000007
   1013, -0.485714287,  0.882352948, 0.0500000007
   1014, -0.485714287,  0.941176474, 0.0500000007
   1015, -0.485714287,           1., 0.0500000007
   1016, -0.485714287,          -1.,           0.
   1017, -0.485714287, -0.941176474,           0.
   1018, -0.485714287, -0.882352948,           0.
   1019, -0.485714287, -0.823529422,           0.
   1020, -0.485714287, -0.764705896,           0.
   1021, -0.485714287,  -0.70588237,           0.
   1022, -0.485714287, -0.647058845,           0.
   1023, -0.485714287, -0.588235319,           0.
   1024, -0.485714287, -0.529411793,           0.
   1025, -0.485714287, -0.470588237,           0.
   1026, -0.485714287, -0.411764711,           0.
   1027, -0.485714287, -0.352941185,           0.
   1028, -0.485714287, -0.294117659,           0.
   1029, -0.485714287, -0.235294119,           0.
   1030, -0.485714287, -0.176470593,           0.
   1031, -0.485714287, -0.117647059,           0.
   1032, -0.485714287, -0.0588235296,           0.
   1033, -0.485714287,           0.,           0.
   1034, -0.485714287, 0.0588235296,           0.
   1035, -0.485714287,  0.117647059,           0.
   1036, -0.485714287,  0.176470593,           0.
   1037, -0.485714287,  0.235294119,           0.
   1038, -0.485714287,  0.294117659,           0.
   1039, -0.485714287,  0.352941185,           0.
   1040, -0.485714287,  0.411764711,           0.
   1041, -0.485714287,  0.470588237,           0.
   1042, -0.485714287,  0.529411793,           0.
   1043, -0.485714287,  0.588235319,           0.
   1044, -0.485714287,  0.647058845,           0.
   1045, -0.485714287,   0.70588237,           0.
   1046, -0.485714287,  0.764705896,           0.
   1047, -0.485714287,  0.823529422,           0.
   1048, -0.485714287,  0.882352948,           0.
   1049, -0.485714287,  0.941176474,           0.
   1050, -0.485714287,           1.,           0.
   1051, -0.428571433,          -1.,  0.100000001
   1052, -0.428571433, -0.941176474,  0.100000001
   1053, -0.428571433, -0.882352948,  0.100000001
   1054, -0.428571433, -0.823529422,  0.100000001
   1055, -0.428571433, -0.764705896,  0.100000001
   1056, -0.428571433,  -0.70588237,  0.100000001
   1057, -0.428571433, -0.647058845,  0.100000001
   1058, -0.428571433, -0.588235319,  0.100000001
   1059, -0.428571433, -0.529411793,  0.100000001
   1060, -0.428571433, -0.470588237,  0.100000001
   1061, -0.428571433, -0.411764711,  0.100000001
   1062, -0.428571433, -0.352941185,  0.100000001
   1063, -0.428571433, -0.294117659,  0.100000001
   1064, -0.428571433, -0.235294119,  0.100000001
   1065, -0.428571433, -0.176470593,  0.100000001
   1066, -0.428571433, -0.117647059,  0.100000001
   1067, -0.428571433, -0.0588235296,  0.100000001
   1068, -0.428571433,           0.,  0.100000001
   1069, -0.428571433, 0.0588235296,  0.100000001
   1070, -0.428571433,  0.117647059,  0.100000001
   1071, -0.428571433,  0.176470593,  0.100000001
   1072, -0.428571433,  0.235294119,  0.100000001
   1073, -0.428571433,  0.294117659,  0.100000001
   1074, -0.428571433,  0.352941185,  0.100000001
   1075, -0.428571433,  0.411764711,  0.100000001
   1076, -0.428571433,  0.470588237,  0.100000001
   1077, -0.428571433,  0.529411793,  0.100000001
   1078, -0.428571433,  0.588235319,  0.100000001
   1079, -0.428571433,  0.647058845,  0.100000001
   1080, -0.428571433,   0.70588237,  0.100000001
   1081, -0.428571433,  0.764705896,  0.100000001
   1082, -0.428571433,  0.823529422,  0.100000001
   1083, -0.428571433,  0.882352948,  0.100000001
   1084, -0.428571433,  0.941176474,  0.100000001
   1085, -0.428571433,           1.,  0.100000001
   1086, -0.428571433,          -1., 0.0500000007
   1087, -0.428571433, -0.941176474, 0.0500000007
   1088, -0.428571433, -0.882352948, 0.0500000007
   1089, -0.428571433, -0.823529422, 0.0500000007
   1090, -0.428571433, -0.764705896, 0.0500000007
   1091, -0.428571433,  -0.70588237, 0.0500000007
   1092, -0.428571433, -0.647058845, 0.0500000007
   1093, -0.428571433, -0.588235319, 0.0500000007
   1094, -0.428571433, -0.529411793, 0.0500000007
   1095, -0.428571433, -0.470588237, 0.0500000007
   1096, -0.428571433, -0.411764711, 0.0500000007
   1097, -0.428571433, -0.352941185, 0.0500000007
   1098, -0.428571433, -0.294117659, 0.0500000007
   1099, -0.428571433, -0.235294119, 0.0500000007
   1100, -0.428571433, -0.176470593, 0.0500000007
   1101, -0.428571433, -0.117647059, 0.0500000007
   1102, -0.428571433, -0.0588235296, 0.0500000007
   1103, -0.428571433,           0., 0.0500000007
   1104, -0.428571433, 0.0588235296, 0.0500000007
   1105, -0.428571433,  0.117647059, 0.0500000007
   1106, -0.428571433,  0.176470593, 0.0500000007
   1107, -0.428571433,  0.235294119, 0.0500000007
   1108, -0.428571433,  0.294117659, 0.0500000007
   1109, -0.428571433,  0.352941185, 0.0500000007
   1110, -0.428571433,  0.411764711, 0.0500000007
   1111, -0.428571433,  0.470588237, 0.0500000007
   1112, -0.428571433,  0.529411793, 0.0500000007
   1113, -0.428571433,  0.588235319, 0.0500000007
   1114, -0.428571433,  0.647058845, 0.0500000007
   1115, -0.428571433,   0.70588237, 0.0500000007
   1116, -0.428571433,  0.764705896, 0.0500000007
   1117, -0.428571433,  0.823529422, 0.0500000007
   1118, -0.428571433,  0.882352948, 0.0500000007
   1119, -0.428571433,  0.941176474, 0.0500000007
   1120, -0.428571433,           1., 0.0500000007
   1121, -0.428571433,          -1.,           0.
   1122, -0.428571433, -0.941176474,           0.
   1123, -0.428571433, -0.882352948,           0.
   1124, -0.428571433, -0.823529422,           0.
   1125, -0.428571433, -0.764705896,           0.
   1126, -0.428571433,  -0.70588237,           0.
   1127, -0.428571433, -0.647058845,           0.
   1128, -0.428571433, -0.588235319,           0.
   1129, -0.428571433, -0.529411793,           0.
   1130, -0.428571433, -0.470588237,           0.
   1131, -0.428571433, -0.411764711,           0.
   1132, -0.428571433, -0.352941185,           0.
   1133, -0.428571433, -0.294117659,           0.
   1134, -0.428571433, -0.235294119,           0.
   1135, -0.428571433, -0.176470593,           0.
   1136, -0.428571433, -0.117647059,           0.
   1137, -0.428571433, -0.0588235296,           0.
   1138, -0.428571433,           0.,           0.
   1139, -0.428571433, 0.0588235296,           0.
   1140, -0.428571433,  0.117647059,           0.
   1141, -0.428571433,  0.176470593,           0.
   1142, -0.428571433,  0.235294119,           0.
   1143, -0.428571433,  0.294117659,           0.
   1144, -0.428571433,  0.352941185,           0.
   1145, -0.428571433,  0.411764711,           0.
   1146, -0.428571433,  0.470588237,           0.
   1147, -0.428571433,  0.529411793,           0.
   1148, -0.428571433,  0.588235319,           0.
   1149, -0.428571433,  0.647058845,           0.
   1150, -0.428571433,   0.70588237,           0.
   1151, -0.428571433,  0.764705896,           0.
   1152, -0.428571433,  0.823529422,           0.
   1153, -0.428571433,  0.882352948,           0.
   1154, -0.428571433,  0.941176474,           0.
   1155, -0.428571433,           1.,           0.
   1156, -0.371428579,          -1.,  0.100000001
   1157, -0.371428579, -0.941176474,  0.100000001
   1158, -0.371428579, -0.882352948,  0.100000001
   1159, -0.371428579, -0.823529422,  0.100000001
   1160, -0.371428579, -0.764705896,  0.100000001
   1161, -0.371428579,  -0.70588237,  0.100000001
   1162, -0.371428579, -0.647058845,  0.100000001
   1163, -0.371428579, -0.588235319,  0.100000001
   1164, -0.371428579, -0.529411793,  0.100000001
   1165, -0.371428579, -0.470588237,  0.100000001
   1166, -0.371428579, -0.411764711,  0.100000001
   1167, -0.371428579, -0.352941185,  0.100000001
   1168, -0.371428579, -0.294117659,  0.100000001
   1169, -0.371428579, -0.235294119,  0.100000001
   1170, -0.371428579, -0.176470593,  0.100000001
   1171, -0.371428579, -0.117647059,  0.100000001
   1172, -0.371428579, -0.0588235296,  0.100000001
   1173, -0.371428579,           0.,  0.100000001
   1174, -0.371428579, 0.0588235296,  0.100000001
   1175, -0.371428579,  0.117647059,  0.100000001
   1176, -0.371428579,  0.176470593,  0.100000001
   1177, -0.371428579,  0.235294119,  0.100000001
   1178, -0.371428579,  0.294117659,  0.100000001
   1179, -0.371428579,  0.352941185,  0.100000001
   1180, -0.371428579,  0.411764711,  0.100000001
   1181, -0.371428579,  0.470588237,  0.100000001
   1182, -0.371428579,  0.529411793,  0.100000001
   1183, -0.371428579,  0.588235319,  0.100000001
   1184, -0.371428579,  0.647058845,  0.100000001
   1185, -0.371428579,   0.70588237,  0.100000001
   1186, -0.371428579,  0.764705896,  0.100000001
   1187, -0.371428579,  0.823529422,  0.100000001
   1188, -0.371428579,  0.882352948,  0.100000001
   1189, -0.371428579,  0.941176474,  0.100000001
   1190, -0.371428579,           1.,  0.100000001
   1191, -0.371428579,          -1., 0.0500000007
   1192, -0.371428579, -0.941176474, 0.0500000007
   1193, -0.371428579, -0.882352948, 0.0500000007
   1194, -0.371428579, -0.823529422, 0.0500000007
   1195, -0.371428579, -0.764705896, 0.0500000007
   1196, -0.371428579,  -0.70588237, 0.0500000007
   1197, -0.371428579, -0.647058845, 0.0500000007
   1198, -0.371428579, -0.588235319, 0.0500000007
   1199, -0.371428579, -0.529411793, 0.0500000007
   1200, -0.371428579, -0.470588237, 0.0500000007
   1201, -0.371428579, -0.411764711, 0.0500000007
   1202, -0.371428579, -0.352941185, 0.0500000007
   1203, -0.371428579, -0.294117659, 0.0500000007
   1204, -0.371428579, -0.235294119, 0.0500000007
   1205, -0.371428579, -0.176470593, 0.0500000007
   1206, -0.371428579, -0.117647059, 0.0500000007
   1207, -0.371428579, -0.0588235296, 0.0500000007
   1208, -0.371428579,           0., 0.0500000007
   1209, -0.371428579, 0.0588235296, 0.0500000007
   1210, -0.371428579,  0.117647059, 0.0500000007
   1211, -0.371428579,  0.176470593, 0.0500000007
   1212, -0.371428579,  0.235294119, 0.0500000007
   1213, -0.371428579,  0.294117659, 0.0500000007
   1214, -0.371428579,  0.352941185, 0.0500000007
   1215, -0.371428579,  0.411764711, 0.0500000007
   1216, -0.371428579,  0.470588237, 0.0500000007
   1217, -0.371428579,  0.529411793, 0.0500000007
   1218, -0.371428579,  0.588235319, 0.0500000007
   1219, -0.371428579,  0.647058845, 0.0500000007
   1220, -0.371428579,   0.70588237, 0.0500000007
   1221, -0.371428579,  0.764705896, 0.0500000007
   1222, -0.371428579,  0.823529422, 0.0500000007
   1223, -0.371428579,  0.882352948, 0.0500000007
   1224, -0.371428579,  0.941176474, 0.0500000007
   1225, -0.371428579,           1., 0.0500000007
   1226, -0.371428579,          -1.,           0.
   1227, -0.371428579, -0.941176474,           0.
   1228, -0.371428579, -0.882352948,           0.
   1229, -0.371428579, -0.823529422,           0.
   1230, -0.371428579, -0.764705896,           0.
   1231, -0.371428579,  -0.70588237,           0.
   1232, -0.371428579, -0.647058845,           0.
   1233, -0.371428579, -0.588235319,           0.
   1234, -0.371428579, -0.529411793,           0.
   1235, -0.371428579, -0.470588237,           0.
   1236, -0.371428579, -0.411764711,           0.
   1237, -0.371428579, -0.352941185,           0.
   1238, -0.371428579, -0.294117659,           0.
   1239, -0.371428579, -0.235294119,           0.
   1240, -0.371428579, -0.176470593,           0.
   1241, -0.371428579, -0.117647059,           0.
   1242, -0.371428579, -0.0588235296,           0.
   1243, -0.371428579,           0.,           0.
   1244, -0.371428579, 0.0588235296,           0.
   1245, -0.371428579,  0.117647059,           0.
   1246, -0.371428579,  0.176470593,           0.
   1247, -0.371428579,  0.235294119,           0.
   1248, -0.371428579,  0.294117659,           0.
   1249, -0.371428579,  0.352941185,           0.
   1250, -0.371428579,  0.411764711,           0.
   1251, -0.371428579,  0.470588237,           0.
   1252, -0.371428579,  0.529411793,           0.
   1253, -0.371428579,  0.588235319,           0.
   1254, -0.371428579,  0.647058845,           0.
   1255, -0.371428579,   0.70588237,           0.
   1256, -0.371428579,  0.764705896,           0.
   1257, -0.371428579,  0.823529422,           0.
   1258, -0.371428579,  0.882352948,           0.
   1259, -0.371428579,  0.941176474,           0.
   1260, -0.371428579,           1.,           0.
   1261, -0.314285725,          -1.,  0.100000001
   1262, -0.314285725, -0.941176474,  0.100000001
   1263, -0.314285725, -0.882352948,  0.100000001
   1264, -0.314285725, -0.823529422,  0.100000001
   1265, -0.314285725, -0.764705896,  0.100000001
   1266, -0.314285725,  -0.70588237,  0.100000001
   1267, -0.314285725, -0.647058845,  0.100000001
   1268, -0.314285725, -0.588235319,  0.100000001
   1269, -0.314285725, -0.529411793,  0.100000001
   1270, -0.314285725, -0.470588237,  0.100000001
   1271, -0.314285725, -0.411764711,  0.100000001
   1272, -0.314285725, -0.352941185,  0.100000001
   1273, -0.314285725, -0.294117659,  0.100000001
   1274, -0.314285725, -0.235294119,  0.100000001
   1275, -0.314285725, -0.176470593,  0.100000001
   1276, -0.314285725, -0.117647059,  0.100000001
   1277, -0.314285725, -0.0588235296,  0.100000001
   1278, -0.314285725,           0.,  0.100000001
   1279, -0.314285725, 0.0588235296,  0.100000001
   1280, -0.314285725,  0.117647059,  0.100000001
   1281, -0.314285725,  0.176470593,  0.100000001
   1282, -0.314285725,  0.235294119,  0.100000001
   1283, -0.314285725,  0.294117659,  0.100000001
   1284, -0.314285725,  0.352941185,  0.100000001
   1285, -0.314285725,  0.411764711,  0.100000001
   1286, -0.314285725,  0.470588237,  0.100000001
   1287, -0.314285725,  0.529411793,  0.100000001
   1288, -0.314285725,  0.588235319,  0.100000001
   1289, -0.314285725,  0.647058845,  0.100000001
   1290, -0.314285725,   0.70588237,  0.100000001
   1291, -0.314285725,  0.764705896,  0.100000001
   1292, -0.314285725,  0.823529422,  0.100000001
   1293, -0.314285725,  0.882352948,  0.100000001
   1294, -0.314285725,  0.941176474,  0.100000001
   1295, -0.314285725,           1.,  0.100000001
   1296, -0.314285725,          -1., 0.0500000007
   1297, -0.314285725, -0.941176474, 0.0500000007
   1298, -0.314285725, -0.882352948, 0.0500000007
   1299, -0.314285725, -0.823529422, 0.0500000007
   1300, -0.314285725, -0.764705896, 0.0500000007
   1301, -0.314285725,  -0.70588237, 0.0500000007
   1302, -0.314285725, -0.647058845, 0.0500000007
   1303, -0.314285725, -0.588235319, 0.0500000007
   1304, -0.314285725, -0.529411793, 0.0500000007
   1305, -0.314285725, -0.470588237, 0.0500000007
   1306, -0.314285725, -0.411764711, 0.0500000007
   1307, -0.314285725, -0.352941185, 0.0500000007
   1308, -0.314285725, -0.294117659, 0.0500000007
   1309, -0.314285725, -0.235294119, 0.0500000007
   1310, -0.314285725, -0.176470593, 0.0500000007
   1311, -0.314285725, -0.117647059, 0.0500000007
   1312, -0.314285725, -0.0588235296, 0.0500000007
   1313, -0.314285725,           0., 0.0500000007
   1314, -0.314285725, 0.0588235296, 0.0500000007
   1315, -0.314285725,  0.117647059, 0.0500000007
   1316, -0.314285725,  0.176470593, 0.0500000007
   1317, -0.314285725,  0.235294119, 0.0500000007
   1318, -0.314285725,  0.294117659, 0.0500000007
   1319, -0.314285725,  0.352941185, 0.0500000007
   1320, -0.314285725,  0.411764711, 0.0500000007
   1321, -0.314285725,  0.470588237, 0.0500000007
   1322, -0.314285725,  0.529411793, 0.0500000007
   1323, -0.314285725,  0.588235319, 0.0500000007
   1324, -0.314285725,  0.647058845, 0.0500000007
   1325, -0.314285725,   0.70588237, 0.0500000007
   1326, -0.314285725,  0.764705896, 0.0500000007
   1327, -0.314285725,  0.823529422, 0.0500000007
   1328, -0.314285725,  0.882352948, 0.0500000007
   1329, -0.314285725,  0.941176474, 0.0500000007
   1330, -0.314285725,           1., 0.0500000007
   1331, -0.314285725,          -1.,           0.
   1332, -0.314285725, -0.941176474,           0.
   1333, -0.314285725, -0.882352948,           0.
   1334, -0.314285725, -0.823529422,           0.
   1335, -0.314285725, -0.764705896,           0.
   1336, -0.314285725,  -0.70588237,           0.
   1337, -0.314285725, -0.647058845,           0.
   1338, -0.314285725, -0.588235319,           0.
   1339, -0.314285725, -0.529411793,           0.
   1340, -0.314285725, -0.470588237,           0.
   1341, -0.314285725, -0.411764711,           0.
   1342, -0.314285725, -0.352941185,           0.
   1343, -0.314285725, -0.294117659,           0.
   1344, -0.314285725, -0.235294119,           0.
   1345, -0.314285725, -0.176470593,           0.
   1346, -0.314285725, -0.117647059,           0.
   1347, -0.314285725, -0.0588235296,           0.
   1348, -0.314285725,           0.,           0.
   1349, -0.314285725, 0.0588235296,           0.
   1350, -0.314285725,  0.117647059,           0.
   1351, -0.314285725,  0.176470593,           0.
   1352, -0.314285725,  0.235294119,           0.
   1353, -0.314285725,  0.294117659,           0.
   1354, -0.314285725,  0.352941185,           0.
   1355, -0.314285725,  0.411764711,           0.
   1356, -0.314285725,  0.470588237,           0.
   1357, -0.314285725,  0.529411793,           0.
   1358, -0.314285725,  0.588235319,           0.
   1359, -0.314285725,  0.647058845,           0.
   1360, -0.314285725,   0.70588237,           0.
   1361, -0.314285725,  0.764705896,           0.
   1362, -0.314285725,  0.823529422,           0.
   1363, -0.314285725,  0.882352948,           0.
   1364, -0.314285725,  0.941176474,           0.
   1365, -0.314285725,           1.,           0.
   1366, -0.257142872,          -1.,  0.100000001
   1367, -0.257142872, -0.941176474,  0.100000001
   1368, -0.257142872, -0.882352948,  0.100000001
   1369, -0.257142872, -0.823529422,  0.100000001
   1370, -0.257142872, -0.764705896,  0.100000001
   1371, -0.257142872,  -0.70588237,  0.100000001
   1372, -0.257142872, -0.647058845,  0.100000001
   1373, -0.257142872, -0.588235319,  0.100000001
   1374, -0.257142872, -0.529411793,  0.100000001
   1375, -0.257142872, -0.470588237,  0.100000001
   1376, -0.257142872, -0.411764711,  0.100000001
   1377, -0.257142872, -0.352941185,  0.100000001
   1378, -0.257142872, -0.294117659,  0.100000001
   1379, -0.257142872, -0.235294119,  0.100000001
   1380, -0.257142872, -0.176470593,  0.100000001
   1381, -0.257142872, -0.117647059,  0.100000001
   1382, -0.257142872, -0.0588235296,  0.100000001
   1383, -0.257142872,           0.,  0.100000001
   1384, -0.257142872, 0.0588235296,  0.100000001
   1385, -0.257142872,  0.117647059,  0.100000001
   1386, -0.257142872,  0.176470593,  0.100000001
   1387, -0.257142872,  0.235294119,  0.100000001
   1388, -0.257142872,  0.294117659,  0.100000001
   1389, -0.257142872,  0.352941185,  0.100000001
   1390, -0.257142872,  0.411764711,  0.100000001
   1391, -0.257142872,  0.470588237,  0.100000001
   1392, -0.257142872,  0.529411793,  0.100000001
   1393, -0.257142872,  0.588235319,  0.100000001
   1394, -0.257142872,  0.647058845,  0.100000001
   1395, -0.257142872,   0.70588237,  0.100000001
   1396, -0.257142872,  0.764705896,  0.100000001
   1397, -0.257142872,  0.823529422,  0.100000001
   1398, -0.257142872,  0.882352948,  0.100000001
   1399, -0.257142872,  0.941176474,  0.100000001
   1400, -0.257142872,           1.,  0.100000001
   1401, -0.257142872,          -1., 0.0500000007
   1402, -0.257142872, -0.941176474, 0.0500000007
   1403, -0.257142872, -0.882352948, 0.0500000007
   1404, -0.257142872, -0.823529422, 0.0500000007
   1405, -0.257142872, -0.764705896, 0.0500000007
   1406, -0.257142872,  -0.70588237, 0.0500000007
   1407, -0.257142872, -0.647058845, 0.0500000007
   1408, -0.257142872, -0.588235319, 0.0500000007
   1409, -0.257142872, -0.529411793, 0.0500000007
   1410, -0.257142872, -0.470588237, 0.0500000007
   1411, -0.257142872, -0.411764711, 0.0500000007
   1412, -0.257142872, -0.352941185, 0.0500000007
   1413, -0.257142872, -0.294117659, 0.0500000007
   1414, -0.257142872, -0.235294119, 0.0500000007
   1415, -0.257142872, -0.176470593, 0.0500000007
   1416, -0.257142872, -0.117647059, 0.0500000007
   1417, -0.257142872, -0.0588235296, 0.0500000007
   1418, -0.257142872,           0., 0.0500000007
   1419, -0.257142872, 0.0588235296, 0.0500000007
   1420, -0.257142872,  0.117647059, 0.0500000007
   1421, -0.257142872,  0.176470593, 0.0500000007
   1422, -0.257142872,  0.235294119, 0.0500000007
   1423, -0.257142872,  0.294117659, 0.0500000007
   1424, -0.257142872,  0.352941185, 0.0500000007
   1425, -0.257142872,  0.411764711, 0.0500000007
   1426, -0.257142872,  0.470588237, 0.0500000007
   1427, -0.257142872,  0.529411793, 0.0500000007
   1428, -0.257142872,  0.588235319, 0.0500000007
   1429, -0.257142872,  0.647058845, 0.0500000007
   1430, -0.257142872,   0.70588237, 0.0500000007
   1431, -0.257142872,  0.764705896, 0.0500000007
   1432, -0.257142872,  0.823529422, 0.0500000007
   1433, -0.257142872,  0.882352948, 0.0500000007
   1434, -0.257142872,  0.941176474, 0.0500000007
   1435, -0.257142872,           1., 0.0500000007
   1436, -0.257142872,          -1.,           0.
   1437, -0.257142872, -0.941176474,           0.
   1438, -0.257142872, -0.882352948,           0.
   1439, -0.257142872, -0.823529422,           0.
   1440, -0.257142872, -0.764705896,           0.
   1441, -0.257142872,  -0.70588237,           0.
   1442, -0.257142872, -0.647058845,           0.
   1443, -0.257142872, -0.588235319,           0.
   1444, -0.257142872, -0.529411793,           0.
   1445, -0.257142872, -0.470588237,           0.
   1446, -0.257142872, -0.411764711,           0.
   1447, -0.257142872, -0.352941185,           0.
   1448, -0.257142872, -0.294117659,           0.
   1449, -0.257142872, -0.235294119,           0.
   1450, -0.257142872, -0.176470593,           0.
   1451, -0.257142872, -0.117647059,           0.
   1452, -0.257142872, -0.0588235296,           0.
   1453, -0.257142872,           0.,           0.
   1454, -0.257142872, 0.0588235296,           0.
   1455, -0.257142872,  0.117647059,           0.
   1456, -0.257142872,  0.176470593,           0.
   1457, -0.257142872,  0.235294119,           0.
   1458, -0.257142872,  0.294117659,           0.
   1459, -0.257142872,  0.352941185,           0.
   1460, -0.257142872,  0.411764711,           0.
   1461, -0.257142872,  0.470588237,           0.
   1462, -0.257142872,  0.529411793,           0.
   1463, -0.257142872,  0.588235319,           0.
   1464, -0.257142872,  0.647058845,           0.
   1465, -0.257142872,   0.70588237,           0.
   1466, -0.257142872,  0.764705896,           0.
   1467, -0.257142872,  0.823529422,           0.
   1468, -0.257142872,  0.882352948,           0.
   1469, -0.257142872,  0.941176474,           0.
   1470, -0.257142872,           1.,           0.
   1471, -0.200000003,          -1.,  0.100000001
   1472, -0.200000003, -0.941176474,  0.100000001
   1473, -0.200000003, -0.882352948,  0.100000001
   1474, -0.200000003, -0.823529422,  0.100000001
   1475, -0.200000003, -0.764705896,  0.100000001
   1476, -0.200000003,  -0.70588237,  0.100000001
   1477, -0.200000003, -0.647058845,  0.100000001
   1478, -0.200000003, -0.588235319,  0.100000001
   1479, -0.200000003, -0.529411793,  0.100000001
   1480, -0.200000003, -0.470588237,  0.100000001
   1481, -0.200000003, -0.411764711,  0.100000001
   1482, -0.200000003, -0.352941185,  0.100000001
   1483, -0.200000003, -0.294117659,  0.100000001
   1484, -0.200000003, -0.235294119,  0.100000001
   1485, -0.200000003, -0.176470593,  0.100000001
   1486, -0.200000003, -0.117647059,  0.100000001
   1487, -0.200000003, -0.0588235296,  0.100000001
   1488, -0.200000003,           0.,  0.100000001
   1489, -0.200000003, 0.0588235296,  0.100000001
   1490, -0.200000003,  0.117647059,  0.100000001
   1491, -0.200000003,  0.176470593,  0.100000001
   1492, -0.200000003,  0.235294119,  0.100000001
   1493, -0.200000003,  0.294117659,  0.100000001
   1494, -0.200000003,  0.352941185,  0.100000001
   1495, -0.200000003,  0.411764711,  0.100000001
   1496, -0.200000003,  0.470588237,  0.100000001
   1497, -0.200000003,  0.529411793,  0.100000001
   1498, -0.200000003,  0.588235319,  0.100000001
   1499, -0.200000003,  0.647058845,  0.100000001
   1500, -0.200000003,   0.70588237,  0.100000001
   1501, -0.200000003,  0.764705896,  0.100000001
   1502, -0.200000003,  0.823529422,  0.100000001
   1503, -0.200000003,  0.882352948,  0.100000001
   1504, -0.200000003,  0.941176474,  0.100000001
   1505, -0.200000003,           1.,  0.100000001
   1506, -0.200000003,          -1., 0.0500000007
   1507, -0.200000003, -0.941176474, 0.0500000007
   1508, -0.200000003, -0.882352948, 0.0500000007
   1509, -0.200000003, -0.823529422, 0.0500000007
   1510, -0.200000003, -0.764705896, 0.0500000007
   1511, -0.200000003,  -0.70588237, 0.0500000007
   1512, -0.200000003, -0.647058845, 0.0500000007
   1513, -0.200000003, -0.588235319, 0.0500000007
   1514, -0.200000003, -0.529411793, 0.0500000007
   1515, -0.200000003, -0.470588237, 0.0500000007
   1516, -0.200000003, -0.411764711, 0.0500000007
   1517, -0.200000003, -0.352941185, 0.0500000007
   1518, -0.200000003, -0.294117659, 0.0500000007
   1519, -0.200000003, -0.235294119, 0.0500000007
   1520, -0.200000003, -0.176470593, 0.0500000007
   1521, -0.200000003, -0.117647059, 0.0500000007
   1522, -0.200000003, -0.0588235296, 0.0500000007
   1523, -0.200000003,           0., 0.0500000007
   1524, -0.200000003, 0.0588235296, 0.0500000007
   1525, -0.200000003,  0.117647059, 0.0500000007
   1526, -0.200000003,  0.176470593, 0.0500000007
   1527, -0.200000003,  0.235294119, 0.0500000007
   1528, -0.200000003,  0.294117659, 0.0500000007
   1529, -0.200000003,  0.352941185, 0.0500000007
   1530, -0.200000003,  0.411764711, 0.0500000007
   1531, -0.200000003,  0.470588237, 0.0500000007
   1532, -0.200000003,  0.529411793, 0.0500000007
   1533, -0.200000003,  0.588235319, 0.0500000007
   1534, -0.200000003,  0.647058845, 0.0500000007
   1535, -0.200000003,   0.70588237, 0.0500000007
   1536, -0.200000003,  0.764705896, 0.0500000007
   1537, -0.200000003,  0.823529422, 0.0500000007
   1538, -0.200000003,  0.882352948, 0.0500000007
   1539, -0.200000003,  0.941176474, 0.0500000007
   1540, -0.200000003,           1., 0.0500000007
   1541, -0.200000003,          -1.,           0.
   1542, -0.200000003, -0.941176474,           0.
   1543, -0.200000003, -0.882352948,           0.
   1544, -0.200000003, -0.823529422,           0.
   1545, -0.200000003, -0.764705896,           0.
   1546, -0.200000003,  -0.70588237,           0.
   1547, -0.200000003, -0.647058845,           0.
   1548, -0.200000003, -0.588235319,           0.
   1549, -0.200000003, -0.529411793,           0.
   1550, -0.200000003, -0.470588237,           0.
   1551, -0.200000003, -0.411764711,           0.
   1552, -0.200000003, -0.352941185,           0.
   1553, -0.200000003, -0.294117659,           0.
   1554, -0.200000003, -0.235294119,           0.
   1555, -0.200000003, -0.176470593,           0.
   1556, -0.200000003, -0.117647059,           0.
   1557, -0.200000003, -0.0588235296,           0.
   1558, -0.200000003,           0.,           0.
   1559, -0.200000003, 0.0588235296,           0.
   1560, -0.200000003,  0.117647059,           0.
   1561, -0.200000003,  0.176470593,           0.
   1562, -0.200000003,  0.235294119,           0.
   1563, -0.200000003,  0.294117659,           0.
   1564, -0.200000003,  0.352941185,           0.
   1565, -0.200000003,  0.411764711,           0.
   1566, -0.200000003,  0.470588237,           0.
   1567, -0.200000003,  0.529411793,           0.
   1568, -0.200000003,  0.588235319,           0.
   1569, -0.200000003,  0.647058845,           0.
   1570, -0.200000003,   0.70588237,           0.
   1571, -0.200000003,  0.764705896,           0.
   1572, -0.200000003,  0.823529422,           0.
   1573, -0.200000003,  0.882352948,           0.
   1574, -0.200000003,  0.941176474,           0.
   1575, -0.200000003,           1.,           0.
   1576, -0.142857149,          -1.,  0.100000001
   1577, -0.142857149, -0.941176474,  0.100000001
   1578, -0.142857149, -0.882352948,  0.100000001
   1579, -0.142857149, -0.823529422,  0.100000001
   1580, -0.142857149, -0.764705896,  0.100000001
   1581, -0.142857149,  -0.70588237,  0.100000001
   1582, -0.142857149, -0.647058845,  0.100000001
   1583, -0.142857149, -0.588235319,  0.100000001
   1584, -0.142857149, -0.529411793,  0.100000001
   1585, -0.142857149, -0.470588237,  0.100000001
   1586, -0.142857149, -0.411764711,  0.100000001
   1587, -0.142857149, -0.352941185,  0.100000001
   1588, -0.142857149, -0.294117659,  0.100000001
   1589, -0.142857149, -0.235294119,  0.100000001
   1590, -0.142857149, -0.176470593,  0.100000001
   1591, -0.142857149, -0.117647059,  0.100000001
   1592, -0.142857149, -0.0588235296,  0.100000001
   1593, -0.142857149,           0.,  0.100000001
   1594, -0.142857149, 0.0588235296,  0.100000001
   1595, -0.142857149,  0.117647059,  0.100000001
   1596, -0.142857149,  0.176470593,  0.100000001
   1597, -0.142857149,  0.235294119,  0.100000001
   1598, -0.142857149,  0.294117659,  0.100000001
   1599, -0.142857149,  0.352941185,  0.100000001
   1600, -0.142857149,  0.411764711,  0.100000001
   1601, -0.142857149,  0.470588237,  0.100000001
   1602, -0.142857149,  0.529411793,  0.100000001
   1603, -0.142857149,  0.588235319,  0.100000001
   1604, -0.142857149,  0.647058845,  0.100000001
   1605, -0.142857149,   0.70588237,  0.100000001
   1606, -0.142857149,  0.764705896,  0.100000001
   1607, -0.142857149,  0.823529422,  0.100000001
   1608, -0.142857149,  0.882352948,  0.100000001
   1609, -0.142857149,  0.941176474,  0.100000001
   1610, -0.142857149,           1.,  0.100000001
   1611, -0.142857149,          -1., 0.0500000007
   1612, -0.142857149, -0.941176474, 0.0500000007
   1613, -0.142857149, -0.882352948, 0.0500000007
   1614, -0.142857149, -0.823529422, 0.0500000007
   1615, -0.142857149, -0.764705896, 0.0500000007
   1616, -0.142857149,  -0.70588237, 0.0500000007
   1617, -0.142857149, -0.647058845, 0.0500000007
   1618, -0.142857149, -0.588235319, 0.0500000007
   1619, -0.142857149, -0.529411793, 0.0500000007
   1620, -0.142857149, -0.470588237, 0.0500000007
   1621, -0.142857149, -0.411764711, 0.0500000007
   1622, -0.142857149, -0.352941185, 0.0500000007
   1623, -0.142857149, -0.294117659, 0.0500000007
   1624, -0.142857149, -0.235294119, 0.0500000007
   1625, -0.142857149, -0.176470593, 0.0500000007
   1626, -0.142857149, -0.117647059, 0.0500000007
   1627, -0.142857149, -0.0588235296, 0.0500000007
   1628, -0.142857149,           0., 0.0500000007
   1629, -0.142857149, 0.0588235296, 0.0500000007
   1630, -0.142857149,  0.117647059, 0.0500000007
   1631, -0.142857149,  0.176470593, 0.0500000007
   1632, -0.142857149,  0.235294119, 0.0500000007
   1633, -0.142857149,  0.294117659, 0.0500000007
   1634, -0.142857149,  0.352941185, 0.0500000007
   1635, -0.142857149,  0.411764711, 0.0500000007
   1636, -0.142857149,  0.470588237, 0.0500000007
   1637, -0.142857149,  0.529411793, 0.0500000007
   1638, -0.142857149,  0.588235319, 0.0500000007
   1639, -0.142857149,  0.647058845, 0.0500000007
   1640, -0.142857149,   0.70588237, 0.0500000007
   1641, -0.142857149,  0.764705896, 0.0500000007
   1642, -0.142857149,  0.823529422, 0.0500000007
   1643, -0.142857149,  0.882352948, 0.0500000007
   1644, -0.142857149,  0.941176474, 0.0500000007
   1645, -0.142857149,           1., 0.0500000007
   1646, -0.142857149,          -1.,           0.
   1647, -0.142857149, -0.941176474,           0.
   1648, -0.142857149, -0.882352948,           0.
   1649, -0.142857149, -0.823529422,           0.
   1650, -0.142857149, -0.764705896,           0.
   1651, -0.142857149,  -0.70588237,           0.
   1652, -0.142857149, -0.647058845,           0.
   1653, -0.142857149, -0.588235319,           0.
   1654, -0.142857149, -0.529411793,           0.
   1655, -0.142857149, -0.470588237,           0.
   1656, -0.142857149, -0.411764711,           0.
   1657, -0.142857149, -0.352941185,           0.
   1658, -0.142857149, -0.294117659,           0.
   1659, -0.142857149, -0.235294119,           0.
   1660, -0.142857149, -0.176470593,           0.
   1661, -0.142857149, -0.117647059,           0.
   1662, -0.142857149, -0.0588235296,           0.
   1663, -0.142857149,           0.,           0.
   1664, -0.142857149, 0.0588235296,           0.
   1665, -0.142857149,  0.117647059,           0.
   1666, -0.142857149,  0.176470593,           0.
   1667, -0.142857149,  0.235294119,           0.
   1668, -0.142857149,  0.294117659,           0.
   1669, -0.142857149,  0.352941185,           0.
   1670, -0.142857149,  0.411764711,           0.
   1671, -0.142857149,  0.470588237,           0.
   1672, -0.142857149,  0.529411793,           0.
   1673, -0.142857149,  0.588235319,           0.
   1674, -0.142857149,  0.647058845,           0.
   1675, -0.142857149,   0.70588237,           0.
   1676, -0.142857149,  0.764705896,           0.
   1677, -0.142857149,  0.823529422,           0.
   1678, -0.142857149,  0.882352948,           0.
   1679, -0.142857149,  0.941176474,           0.
   1680, -0.142857149,           1.,           0.
   1681, -0.0857142881,          -1.,  0.100000001
   1682, -0.0857142881, -0.941176474,  0.100000001
   1683, -0.0857142881, -0.882352948,  0.100000001
   1684, -0.0857142881, -0.823529422,  0.100000001
   1685, -0.0857142881, -0.764705896,  0.100000001
   1686, -0.0857142881,  -0.70588237,  0.100000001
   1687, -0.0857142881, -0.647058845,  0.100000001
   1688, -0.0857142881, -0.588235319,  0.100000001
   1689, -0.0857142881, -0.529411793,  0.100000001
   1690, -0.0857142881, -0.470588237,  0.100000001
   1691, -0.0857142881, -0.411764711,  0.100000001
   1692, -0.0857142881, -0.352941185,  0.100000001
   1693, -0.0857142881, -0.294117659,  0.100000001
   1694, -0.0857142881, -0.235294119,  0.100000001
   1695, -0.0857142881, -0.176470593,  0.100000001
   1696, -0.0857142881, -0.117647059,  0.100000001
   1697, -0.0857142881, -0.0588235296,  0.100000001
   1698, -0.0857142881,           0.,  0.100000001
   1699, -0.0857142881, 0.0588235296,  0.100000001
   1700, -0.0857142881,  0.117647059,  0.100000001
   1701, -0.0857142881,  0.176470593,  0.100000001
   1702, -0.0857142881,  0.235294119,  0.100000001
   1703, -0.0857142881,  0.294117659,  0.100000001
   1704, -0.0857142881,  0.352941185,  0.100000001
   1705, -0.0857142881,  0.411764711,  0.100000001
   1706, -0.0857142881,  0.470588237,  0.100000001
   1707, -0.0857142881,  0.529411793,  0.100000001
   1708, -0.0857142881,  0.588235319,  0.100000001
   1709, -0.0857142881,  0.647058845,  0.100000001
   1710, -0.0857142881,   0.70588237,  0.100000001
   1711, -0.0857142881,  0.764705896,  0.100000001
   1712, -0.0857142881,  0.823529422,  0.100000001
   1713, -0.0857142881,  0.882352948,  0.100000001
   1714, -0.0857142881,  0.941176474,  0.100000001
   1715, -0.0857142881,           1.,  0.100000001
   1716, -0.0857142881,          -1., 0.0500000007
   1717, -0.0857142881, -0.941176474, 0.0500000007
   1718, -0.0857142881, -0.882352948, 0.0500000007
   1719, -0.0857142881, -0.823529422, 0.0500000007
   1720, -0.0857142881, -0.764705896, 0.0500000007
   1721, -0.0857142881,  -0.70588237, 0.0500000007
   1722, -0.0857142881, -0.647058845, 0.0500000007
   1723, -0.0857142881, -0.588235319, 0.0500000007
   1724, -0.0857142881, -0.529411793, 0.0500000007
   1725, -0.0857142881, -0.470588237, 0.0500000007
   1726, -0.0857142881, -0.411764711, 0.0500000007
   1727, -0.0857142881, -0.352941185, 0.0500000007
   1728, -0.0857142881, -0.294117659, 0.0500000007
   1729, -0.0857142881, -0.235294119, 0.0500000007
   1730, -0.0857142881, -0.176470593, 0.0500000007
   1731, -0.0857142881, -0.117647059, 0.0500000007
   1732, -0.0857142881, -0.0588235296, 0.0500000007
   1733, -0.0857142881,           0., 0.0500000007
   1734, -0.0857142881, 0.0588235296, 0.0500000007
   1735, -0.0857142881,  0.117647059, 0.0500000007
   1736, -0.0857142881,  0.176470593, 0.0500000007
   1737, -0.0857142881,  0.235294119, 0.0500000007
   1738, -0.0857142881,  0.294117659, 0.0500000007
   1739, -0.0857142881,  0.352941185, 0.0500000007
   1740, -0.0857142881,  0.411764711, 0.0500000007
   1741, -0.0857142881,  0.470588237, 0.0500000007
   1742, -0.0857142881,  0.529411793, 0.0500000007
   1743, -0.0857142881,  0.588235319, 0.0500000007
   1744, -0.0857142881,  0.647058845, 0.0500000007
   1745, -0.0857142881,   0.70588237, 0.0500000007
   1746, -0.0857142881,  0.764705896, 0.0500000007
   1747, -0.0857142881,  0.823529422, 0.0500000007
   1748, -0.0857142881,  0.882352948, 0.0500000007
   1749, -0.0857142881,  0.941176474, 0.0500000007
   1750, -0.0857142881,           1., 0.0500000007
   1751, -0.0857142881,          -1.,           0.
   1752, -0.0857142881, -0.941176474,           0.
   1753, -0.0857142881, -0.882352948,           0.
   1754, -0.0857142881, -0.823529422,           0.
   1755, -0.0857142881, -0.764705896,           0.
   1756, -0.0857142881,  -0.70588237,           0.
   1757, -0.0857142881, -0.647058845,           0.
   1758, -0.0857142881, -0.588235319,           0.
   1759, -0.0857142881, -0.529411793,           0.
   1760, -0.0857142881, -0.470588237,           0.
   1761, -0.0857142881, -0.411764711,           0.
   1762, -0.0857142881, -0.352941185,           0.
   1763, -0.0857142881, -0.294117659,           0.
   1764, -0.0857142881, -0.235294119,           0.
   1765, -0.0857142881, -0.176470593,           0.
   1766, -0.0857142881, -0.117647059,           0.
   1767, -0.0857142881, -0.0588235296,           0.
   1768, -0.0857142881,           0.,           0.
   1769, -0.0857142881, 0.0588235296,           0.
   1770, -0.0857142881,  0.117647059,           0.
   1771, -0.0857142881,  0.176470593,           0.
   1772, -0.0857142881,  0.235294119,           0.
   1773, -0.0857142881,  0.294117659,           0.
   1774, -0.0857142881,  0.352941185,           0.
   1775, -0.0857142881,  0.411764711,           0.
   1776, -0.0857142881,  0.470588237,           0.
   1777, -0.0857142881,  0.529411793,           0.
   1778, -0.0857142881,  0.588235319,           0.
   1779, -0.0857142881,  0.647058845,           0.
   1780, -0.0857142881,   0.70588237,           0.
   1781, -0.0857142881,  0.764705896,           0.
   1782, -0.0857142881,  0.823529422,           0.
   1783, -0.0857142881,  0.882352948,           0.
   1784, -0.0857142881,  0.941176474,           0.
   1785, -0.0857142881,           1.,           0.
   1786, -0.0285714287,          -1.,  0.100000001
   1787, -0.0285714287, -0.941176474,  0.100000001
   1788, -0.0285714287, -0.882352948,  0.100000001
   1789, -0.0285714287, -0.823529422,  0.100000001
   1790, -0.0285714287, -0.764705896,  0.100000001
   1791, -0.0285714287,  -0.70588237,  0.100000001
   1792, -0.0285714287, -0.647058845,  0.100000001
   1793, -0.0285714287, -0.588235319,  0.100000001
   1794, -0.0285714287, -0.529411793,  0.100000001
   1795, -0.0285714287, -0.470588237,  0.100000001
   1796, -0.0285714287, -0.411764711,  0.100000001
   1797, -0.0285714287, -0.352941185,  0.100000001
   1798, -0.0285714287, -0.294117659,  0.100000001
   1799, -0.0285714287, -0.235294119,  0.100000001
   1800, -0.0285714287, -0.176470593,  0.100000001
   1801, -0.0285714287, -0.117647059,  0.100000001
   1802, -0.0285714287, -0.0588235296,  0.100000001
   1803, -0.0285714287,           0.,  0.100000001
   1804, -0.0285714287, 0.0588235296,  0.100000001
   1805, -0.0285714287,  0.117647059,  0.100000001
   1806, -0.0285714287,  0.176470593,  0.100000001
   1807, -0.0285714287,  0.235294119,  0.100000001
   1808, -0.0285714287,  0.294117659,  0.100000001
   1809, -0.0285714287,  0.352941185,  0.100000001
   1810, -0.0285714287,  0.411764711,  0.100000001
   1811, -0.0285714287,  0.470588237,  0.100000001
   1812, -0.0285714287,  0.529411793,  0.100000001
   1813, -0.0285714287,  0.588235319,  0.100000001
   1814, -0.0285714287,  0.647058845,  0.100000001
   1815, -0.0285714287,   0.70588237,  0.100000001
   1816, -0.0285714287,  0.764705896,  0.100000001
   1817, -0.0285714287,  0.823529422,  0.100000001
   1818, -0.0285714287,  0.882352948,  0.100000001
   1819, -0.0285714287,  0.941176474,  0.100000001
   1820, -0.0285714287,           1.,  0.100000001
   1821, -0.0285714287,          -1., 0.0500000007
   1822, -0.0285714287, -0.941176474, 0.0500000007
   1823, -0.0285714287, -0.882352948, 0.0500000007
   1824, -0.0285714287, -0.823529422, 0.0500000007
   1825, -0.0285714287, -0.764705896, 0.0500000007
   1826, -0.0285714287,  -0.70588237, 0.0500000007
   1827, -0.0285714287, -0.647058845, 0.0500000007
   1828, -0.0285714287, -0.588235319, 0.0500000007
   1829, -0.0285714287, -0.529411793, 0.0500000007
   1830, -0.0285714287, -0.470588237, 0.0500000007
   1831, -0.0285714287, -0.411764711, 0.0500000007
   1832, -0.0285714287, -0.352941185, 0.0500000007
   1833, -0.0285714287, -0.294117659, 0.0500000007
   1834, -0.0285714287, -0.235294119, 0.0500000007
   1835, -0.0285714287, -0.176470593, 0.0500000007
   1836, -0.0285714287, -0.117647059, 0.0500000007
   1837, -0.0285714287, -0.0588235296, 0.0500000007
   1838, -0.0285714287,           0., 0.0500000007
   1839, -0.0285714287, 0.0588235296, 0.0500000007
   1840, -0.0285714287,  0.117647059, 0.0500000007
   1841, -0.0285714287,  0.176470593, 0.0500000007
   1842, -0.0285714287,  0.235294119, 0.0500000007
   1843, -0.0285714287,  0.294117659, 0.0500000007
   1844, -0.0285714287,  0.352941185, 0.0500000007
   1845, -0.0285714287,  0.411764711, 0.0500000007
   1846, -0.0285714287,  0.470588237, 0.0500000007
   1847, -0.0285714287,  0.529411793, 0.0500000007
   1848, -0.0285714287,  0.588235319, 0.0500000007
   1849, -0.0285714287,  0.647058845, 0.0500000007
   1850, -0.0285714287,   0.70588237, 0.0500000007
   1851, -0.0285714287,  0.764705896, 0.0500000007
   1852, -0.0285714287,  0.823529422, 0.0500000007
   1853, -0.0285714287,  0.882352948, 0.0500000007
   1854, -0.0285714287,  0.941176474, 0.0500000007
   1855, -0.0285714287,           1., 0.0500000007
   1856, -0.0285714287,          -1.,           0.
   1857, -0.0285714287, -0.941176474,           0.
   1858, -0.0285714287, -0.882352948,           0.
   1859, -0.0285714287, -0.823529422,           0.
   1860, -0.0285714287, -0.764705896,           0.
   1861, -0.0285714287,  -0.70588237,           0.
   1862, -0.0285714287, -0.647058845,           0.
   1863, -0.0285714287, -0.588235319,           0.
   1864, -0.0285714287, -0.529411793,           0.
   1865, -0.0285714287, -0.470588237,           0.
   1866, -0.0285714287, -0.411764711,           0.
   1867, -0.0285714287, -0.352941185,           0.
   1868, -0.0285714287, -0.294117659,           0.
   1869, -0.0285714287, -0.235294119,           0.
   1870, -0.0285714287, -0.176470593,           0.
   1871, -0.0285714287, -0.117647059,           0.
   1872, -0.0285714287, -0.0588235296,           0.
   1873, -0.0285714287,           0.,           0.
   1874, -0.0285714287, 0.0588235296,           0.
   1875, -0.0285714287,  0.117647059,           0.
   1876, -0.0285714287,  0.176470593,           0.
   1877, -0.0285714287,  0.235294119,           0.
   1878, -0.0285714287,  0.294117659,           0.
   1879, -0.0285714287,  0.352941185,           0.
   1880, -0.0285714287,  0.411764711,           0.
   1881, -0.0285714287,  0.470588237,           0.
   1882, -0.0285714287,  0.529411793,           0.
   1883, -0.0285714287,  0.588235319,           0.
   1884, -0.0285714287,  0.647058845,           0.
   1885, -0.0285714287,   0.70588237,           0.
   1886, -0.0285714287,  0.764705896,           0.
   1887, -0.0285714287,  0.823529422,           0.
   1888, -0.0285714287,  0.882352948,           0.
   1889, -0.0285714287,  0.941176474,           0.
   1890, -0.0285714287,           1.,           0.
   1891, 0.0285714287,          -1.,  0.100000001
   1892, 0.0285714287, -0.941176474,  0.100000001
   1893, 0.0285714287, -0.882352948,  0.100000001
   1894, 0.0285714287, -0.823529422,  0.100000001
   1895, 0.0285714287, -0.764705896,  0.100000001
   1896, 0.0285714287,  -0.70588237,  0.100000001
   1897, 0.0285714287, -0.647058845,  0.100000001
   1898, 0.0285714287, -0.588235319,  0.100000001
   1899, 0.0285714287, -0.529411793,  0.100000001
   1900, 0.0285714287, -0.470588237,  0.100000001
   1901, 0.0285714287, -0.411764711,  0.100000001
   1902, 0.0285714287, -0.352941185,  0.100000001
   1903, 0.0285714287, -0.294117659,  0.100000001
   1904, 0.0285714287, -0.235294119,  0.100000001
   1905, 0.0285714287, -0.176470593,  0.100000001
   1906, 0.0285714287, -0.117647059,  0.100000001
   1907, 0.0285714287, -0.0588235296,  0.100000001
   1908, 0.0285714287,           0.,  0.100000001
   1909, 0.0285714287, 0.0588235296,  0.100000001
   1910, 0.0285714287,  0.117647059,  0.100000001
   1911, 0.0285714287,  0.176470593,  0.100000001
   1912, 0.0285714287,  0.235294119,  0.100000001
   1913, 0.0285714287,  0.294117659,  0.100000001
   1914, 0.0285714287,  0.352941185,  0.100000001
   1915, 0.0285714287,  0.411764711,  0.100000001
   1916, 0.0285714287,  0.470588237,  0.100000001
   1917, 0.0285714287,  0.529411793,  0.100000001
   1918, 0.0285714287,  0.588235319,  0.100000001
   1919, 0.0285714287,  0.647058845,  0.100000001
   1920, 0.0285714287,   0.70588237,  0.100000001
   1921, 0.0285714287,  0.764705896,  0.100000001
   1922, 0.0285714287,  0.823529422,  0.100000001
   1923, 0.0285714287,  0.882352948,  0.100000001
   1924, 0.0285714287,  0.941176474,  0.100000001
   1925, 0.0285714287,           1.,  0.100000001
   1926, 0.0285714287,          -1., 0.0500000007
   1927, 0.0285714287, -0.941176474, 0.0500000007
   1928, 0.0285714287, -0.882352948, 0.0500000007
   1929, 0.0285714287, -0.823529422, 0.0500000007
   1930, 0.0285714287, -0.764705896, 0.0500000007
   1931, 0.0285714287,  -0.70588237, 0.0500000007
   1932, 0.0285714287, -0.647058845, 0.0500000007
   1933, 0.0285714287, -0.588235319, 0.0500000007
   1934, 0.0285714287, -0.529411793, 0.0500000007
   1935, 0.0285714287, -0.470588237, 0.0500000007
   1936, 0.0285714287, -0.411764711, 0.0500000007
   1937, 0.0285714287, -0.352941185, 0.0500000007
   1938, 0.0285714287, -0.294117659, 0.0500000007
   1939, 0.0285714287, -0.235294119, 0.0500000007
   1940, 0.0285714287, -0.176470593, 0.0500000007
   1941, 0.0285714287, -0.117647059, 0.0500000007
   1942, 0.0285714287, -0.0588235296, 0.0500000007
   1943, 0.0285714287,           0., 0.0500000007
   1944, 0.0285714287, 0.0588235296, 0.0500000007
   1945, 0.0285714287,  0.117647059, 0.0500000007
   1946, 0.0285714287,  0.176470593, 0.0500000007
   1947, 0.0285714287,  0.235294119, 0.0500000007
   1948, 0.0285714287,  0.294117659, 0.0500000007
   1949, 0.0285714287,  0.352941185, 0.0500000007
   1950, 0.0285714287,  0.411764711, 0.0500000007
   1951, 0.0285714287,  0.470588237, 0.0500000007
   1952, 0.0285714287,  0.529411793, 0.0500000007
   1953, 0.0285714287,  0.588235319, 0.0500000007
   1954, 0.0285714287,  0.647058845, 0.0500000007
   1955, 0.0285714287,   0.70588237, 0.0500000007
   1956, 0.0285714287,  0.764705896, 0.0500000007
   1957, 0.0285714287,  0.823529422, 0.0500000007
   1958, 0.0285714287,  0.882352948, 0.0500000007
   1959, 0.0285714287,  0.941176474, 0.0500000007
   1960, 0.0285714287,           1., 0.0500000007
   1961, 0.0285714287,          -1.,           0.
   1962, 0.0285714287, -0.941176474,           0.
   1963, 0.0285714287, -0.882352948,           0.
   1964, 0.0285714287, -0.823529422,           0.
   1965, 0.0285714287, -0.764705896,           0.
   1966, 0.0285714287,  -0.70588237,           0.
   1967, 0.0285714287, -0.647058845,           0.
   1968, 0.0285714287, -0.588235319,           0.
   1969, 0.0285714287, -0.529411793,           0.
   1970, 0.0285714287, -0.470588237,           0.
   1971, 0.0285714287, -0.411764711,           0.
   1972, 0.0285714287, -0.352941185,           0.
   1973, 0.0285714287, -0.294117659,           0.
   1974, 0.0285714287, -0.235294119,           0.
   1975, 0.0285714287, -0.176470593,           0.
   1976, 0.0285714287, -0.117647059,           0.
   1977, 0.0285714287, -0.0588235296,           0.
   1978, 0.0285714287,           0.,           0.
   1979, 0.0285714287, 0.0588235296,           0.
   1980, 0.0285714287,  0.117647059,           0.
   1981, 0.0285714287,  0.176470593,           0.
   1982, 0.0285714287,  0.235294119,           0.
   1983, 0.0285714287,  0.294117659,           0.
   1984, 0.0285714287,  0.352941185,           0.
   1985, 0.0285714287,  0.411764711,           0.
   1986, 0.0285714287,  0.470588237,           0.
   1987, 0.0285714287,  0.529411793,           0.
   1988, 0.0285714287,  0.588235319,           0.
   1989, 0.0285714287,  0.647058845,           0.
   1990, 0.0285714287,   0.70588237,           0.
   1991, 0.0285714287,  0.764705896,           0.
   1992, 0.0285714287,  0.823529422,           0.
   1993, 0.0285714287,  0.882352948,           0.
   1994, 0.0285714287,  0.941176474,           0.
   1995, 0.0285714287,           1.,           0.
   1996, 0.0857142881,          -1.,  0.100000001
   1997, 0.0857142881, -0.941176474,  0.100000001
   1998, 0.0857142881, -0.882352948,  0.100000001
   1999, 0.0857142881, -0.823529422,  0.100000001
   2000, 0.0857142881, -0.764705896,  0.100000001
   2001, 0.0857142881,  -0.70588237,  0.100000001
   2002, 0.0857142881, -0.647058845,  0.100000001
   2003, 0.0857142881, -0.588235319,  0.100000001
   2004, 0.0857142881, -0.529411793,  0.100000001
   2005, 0.0857142881, -0.470588237,  0.100000001
   2006, 0.0857142881, -0.411764711,  0.100000001
   2007, 0.0857142881, -0.352941185,  0.100000001
   2008, 0.0857142881, -0.294117659,  0.100000001
   2009, 0.0857142881, -0.235294119,  0.100000001
   2010, 0.0857142881, -0.176470593,  0.100000001
   2011, 0.0857142881, -0.117647059,  0.100000001
   2012, 0.0857142881, -0.0588235296,  0.100000001
   2013, 0.0857142881,           0.,  0.100000001
   2014, 0.0857142881, 0.0588235296,  0.100000001
   2015, 0.0857142881,  0.117647059,  0.100000001
   2016, 0.0857142881,  0.176470593,  0.100000001
   2017, 0.0857142881,  0.235294119,  0.100000001
   2018, 0.0857142881,  0.294117659,  0.100000001
   2019, 0.0857142881,  0.352941185,  0.100000001
   2020, 0.0857142881,  0.411764711,  0.100000001
   2021, 0.0857142881,  0.470588237,  0.100000001
   2022, 0.0857142881,  0.529411793,  0.100000001
   2023, 0.0857142881,  0.588235319,  0.100000001
   2024, 0.0857142881,  0.647058845,  0.100000001
   2025, 0.0857142881,   0.70588237,  0.100000001
   2026, 0.0857142881,  0.764705896,  0.100000001
   2027, 0.0857142881,  0.823529422,  0.100000001
   2028, 0.0857142881,  0.882352948,  0.100000001
   2029, 0.0857142881,  0.941176474,  0.100000001
   2030, 0.0857142881,           1.,  0.100000001
   2031, 0.0857142881,          -1., 0.0500000007
   2032, 0.0857142881, -0.941176474, 0.0500000007
   2033, 0.0857142881, -0.882352948, 0.0500000007
   2034, 0.0857142881, -0.823529422, 0.0500000007
   2035, 0.0857142881, -0.764705896, 0.0500000007
   2036, 0.0857142881,  -0.70588237, 0.0500000007
   2037, 0.0857142881, -0.647058845, 0.0500000007
   2038, 0.0857142881, -0.588235319, 0.0500000007
   2039, 0.0857142881, -0.529411793, 0.0500000007
   2040, 0.0857142881, -0.470588237, 0.0500000007
   2041, 0.0857142881, -0.411764711, 0.0500000007
   2042, 0.0857142881, -0.352941185, 0.0500000007
   2043, 0.0857142881, -0.294117659, 0.0500000007
   2044, 0.0857142881, -0.235294119, 0.0500000007
   2045, 0.0857142881, -0.176470593, 0.0500000007
   2046, 0.0857142881, -0.117647059, 0.0500000007
   2047, 0.0857142881, -0.0588235296, 0.0500000007
   2048, 0.0857142881,           0., 0.0500000007
   2049, 0.0857142881, 0.0588235296, 0.0500000007
   2050, 0.0857142881,  0.117647059, 0.0500000007
   2051, 0.0857142881,  0.176470593, 0.0500000007
   2052, 0.0857142881,  0.235294119, 0.0500000007
   2053, 0.0857142881,  0.294117659, 0.0500000007
   2054, 0.0857142881,  0.352941185, 0.0500000007
   2055, 0.0857142881,  0.411764711, 0.0500000007
   2056, 0.0857142881,  0.470588237, 0.0500000007
   2057, 0.0857142881,  0.529411793, 0.0500000007
   2058, 0.0857142881,  0.588235319, 0.0500000007
   2059, 0.0857142881,  0.647058845, 0.0500000007
   2060, 0.0857142881,   0.70588237, 0.0500000007
   2061, 0.0857142881,  0.764705896, 0.0500000007
   2062, 0.0857142881,  0.823529422, 0.0500000007
   2063, 0.0857142881,  0.882352948, 0.0500000007
   2064, 0.0857142881,  0.941176474, 0.0500000007
   2065, 0.0857142881,           1., 0.0500000007
   2066, 0.0857142881,          -1.,           0.
   2067, 0.0857142881, -0.941176474,           0.
   2068, 0.0857142881, -0.882352948,           0.
   2069, 0.0857142881, -0.823529422,           0.
   2070, 0.0857142881, -0.764705896,           0.
   2071, 0.0857142881,  -0.70588237,           0.
   2072, 0.0857142881, -0.647058845,           0.
   2073, 0.0857142881, -0.588235319,           0.
   2074, 0.0857142881, -0.529411793,           0.
   2075, 0.0857142881, -0.470588237,           0.
   2076, 0.0857142881, -0.411764711,           0.
   2077, 0.0857142881, -0.352941185,           0.
   2078, 0.0857142881, -0.294117659,           0.
   2079, 0.0857142881, -0.235294119,           0.
   2080, 0.0857142881, -0.176470593,           0.
   2081, 0.0857142881, -0.117647059,           0.
   2082, 0.0857142881, -0.0588235296,           0.
   2083, 0.0857142881,           0.,           0.
   2084, 0.0857142881, 0.0588235296,           0.
   2085, 0.0857142881,  0.117647059,           0.
   2086, 0.0857142881,  0.176470593,           0.
   2087, 0.0857142881,  0.235294119,           0.
   2088, 0.0857142881,  0.294117659,           0.
   2089, 0.0857142881,  0.352941185,           0.
   2090, 0.0857142881,  0.411764711,           0.
   2091, 0.0857142881,  0.470588237,           0.
   2092, 0.0857142881,  0.529411793,           0.
   2093, 0.0857142881,  0.588235319,           0.
   2094, 0.0857142881,  0.647058845,           0.
   2095, 0.0857142881,   0.70588237,           0.
   2096, 0.0857142881,  0.764705896,           0.
   2097, 0.0857142881,  0.823529422,           0.
   2098, 0.0857142881,  0.882352948,           0.
   2099, 0.0857142881,  0.941176474,           0.
   2100, 0.0857142881,           1.,           0.
   2101,  0.142857149,          -1.,  0.100000001
   2102,  0.142857149, -0.941176474,  0.100000001
   2103,  0.142857149, -0.882352948,  0.100000001
   2104,  0.142857149, -0.823529422,  0.100000001
   2105,  0.142857149, -0.764705896,  0.100000001
   2106,  0.142857149,  -0.70588237,  0.100000001
   2107,  0.142857149, -0.647058845,  0.100000001
   2108,  0.142857149, -0.588235319,  0.100000001
   2109,  0.142857149, -0.529411793,  0.100000001
   2110,  0.142857149, -0.470588237,  0.100000001
   2111,  0.142857149, -0.411764711,  0.100000001
   2112,  0.142857149, -0.352941185,  0.100000001
   2113,  0.142857149, -0.294117659,  0.100000001
   2114,  0.142857149, -0.235294119,  0.100000001
   2115,  0.142857149, -0.176470593,  0.100000001
   2116,  0.142857149, -0.117647059,  0.100000001
   2117,  0.142857149, -0.0588235296,  0.100000001
   2118,  0.142857149,           0.,  0.100000001
   2119,  0.142857149, 0.0588235296,  0.100000001
   2120,  0.142857149,  0.117647059,  0.100000001
   2121,  0.142857149,  0.176470593,  0.100000001
   2122,  0.142857149,  0.235294119,  0.100000001
   2123,  0.142857149,  0.294117659,  0.100000001
   2124,  0.142857149,  0.352941185,  0.100000001
   2125,  0.142857149,  0.411764711,  0.100000001
   2126,  0.142857149,  0.470588237,  0.100000001
   2127,  0.142857149,  0.529411793,  0.100000001
   2128,  0.142857149,  0.588235319,  0.100000001
   2129,  0.142857149,  0.647058845,  0.100000001
   2130,  0.142857149,   0.70588237,  0.100000001
   2131,  0.142857149,  0.764705896,  0.100000001
   2132,  0.142857149,  0.823529422,  0.100000001
   2133,  0.142857149,  0.882352948,  0.100000001
   2134,  0.142857149,  0.941176474,  0.100000001
   2135,  0.142857149,           1.,  0.100000001
   2136,  0.142857149,          -1., 0.0500000007
   2137,  0.142857149, -0.941176474, 0.0500000007
   2138,  0.142857149, -0.882352948, 0.0500000007
   2139,  0.142857149, -0.823529422, 0.0500000007
   2140,  0.142857149, -0.764705896, 0.0500000007
   2141,  0.142857149,  -0.70588237, 0.0500000007
   2142,  0.142857149, -0.647058845, 0.0500000007
   2143,  0.142857149, -0.588235319, 0.0500000007
   2144,  0.142857149, -0.529411793, 0.0500000007
   2145,  0.142857149, -0.470588237, 0.0500000007
   2146,  0.142857149, -0.411764711, 0.0500000007
   2147,  0.142857149, -0.352941185, 0.0500000007
   2148,  0.142857149, -0.294117659, 0.0500000007
   2149,  0.142857149, -0.235294119, 0.0500000007
   2150,  0.142857149, -0.176470593, 0.0500000007
   2151,  0.142857149, -0.117647059, 0.0500000007
   2152,  0.142857149, -0.0588235296, 0.0500000007
   2153,  0.142857149,           0., 0.0500000007
   2154,  0.142857149, 0.0588235296, 0.0500000007
   2155,  0.142857149,  0.117647059, 0.0500000007
   2156,  0.142857149,  0.176470593, 0.0500000007
   2157,  0.142857149,  0.235294119, 0.0500000007
   2158,  0.142857149,  0.294117659, 0.0500000007
   2159,  0.142857149,  0.352941185, 0.0500000007
   2160,  0.142857149,  0.411764711, 0.0500000007
   2161,  0.142857149,  0.470588237, 0.0500000007
   2162,  0.142857149,  0.529411793, 0.0500000007
   2163,  0.142857149,  0.588235319, 0.0500000007
   2164,  0.142857149,  0.647058845, 0.0500000007
   2165,  0.142857149,   0.70588237, 0.0500000007
   2166,  0.142857149,  0.764705896, 0.0500000007
   2167,  0.142857149,  0.823529422, 0.0500000007
   2168,  0.142857149,  0.882352948, 0.0500000007
   2169,  0.142857149,  0.941176474, 0.0500000007
   2170,  0.142857149,           1., 0.0500000007
   2171,  0.142857149,          -1.,           0.
   2172,  0.142857149, -0.941176474,           0.
   2173,  0.142857149, -0.882352948,           0.
   2174,  0.142857149, -0.823529422,           0.
   2175,  0.142857149, -0.764705896,           0.
   2176,  0.142857149,  -0.70588237,           0.
   2177,  0.142857149, -0.647058845,           0.
   2178,  0.142857149, -0.588235319,           0.
   2179,  0.142857149, -0.529411793,           0.
   2180,  0.142857149, -0.470588237,           0.
   2181,  0.142857149, -0.411764711,           0.
   2182,  0.142857149, -0.352941185,           0.
   2183,  0.142857149, -0.294117659,           0.
   2184,  0.142857149, -0.235294119,           0.
   2185,  0.142857149, -0.176470593,           0.
   2186,  0.142857149, -0.117647059,           0.
   2187,  0.142857149, -0.0588235296,           0.
   2188,  0.142857149,           0.,           0.
   2189,  0.142857149, 0.0588235296,           0.
   2190,  0.142857149,  0.117647059,           0.
   2191,  0.142857149,  0.176470593,           0.
   2192,  0.142857149,  0.235294119,           0.
   2193,  0.142857149,  0.294117659,           0.
   2194,  0.142857149,  0.352941185,           0.
   2195,  0.142857149,  0.411764711,           0.
   2196,  0.142857149,  0.470588237,           0.
   2197,  0.142857149,  0.529411793,           0.
   2198,  0.142857149,  0.588235319,           0.
   2199,  0.142857149,  0.647058845,           0.
   2200,  0.142857149,   0.70588237,           0.
   2201,  0.142857149,  0.764705896,           0.
   2202,  0.142857149,  0.823529422,           0.
   2203,  0.142857149,  0.882352948,           0.
   2204,  0.142857149,  0.941176474,           0.
   2205,  0.142857149,           1.,           0.
   2206,  0.200000003,          -1.,  0.100000001
   2207,  0.200000003, -0.941176474,  0.100000001
   2208,  0.200000003, -0.882352948,  0.100000001
   2209,  0.200000003, -0.823529422,  0.100000001
   2210,  0.200000003, -0.764705896,  0.100000001
   2211,  0.200000003,  -0.70588237,  0.100000001
   2212,  0.200000003, -0.647058845,  0.100000001
   2213,  0.200000003, -0.588235319,  0.100000001
   2214,  0.200000003, -0.529411793,  0.100000001
   2215,  0.200000003, -0.470588237,  0.100000001
   2216,  0.200000003, -0.411764711,  0.100000001
   2217,  0.200000003, -0.352941185,  0.100000001
   2218,  0.200000003, -0.294117659,  0.100000001
   2219,  0.200000003, -0.235294119,  0.100000001
   2220,  0.200000003, -0.176470593,  0.100000001
   2221,  0.200000003, -0.117647059,  0.100000001
   2222,  0.200000003, -0.0588235296,  0.100000001
   2223,  0.200000003,           0.,  0.100000001
   2224,  0.200000003, 0.0588235296,  0.100000001
   2225,  0.200000003,  0.117647059,  0.100000001
   2226,  0.200000003,  0.176470593,  0.100000001
   2227,  0.200000003,  0.235294119,  0.100000001
   2228,  0.200000003,  0.294117659,  0.100000001
   2229,  0.200000003,  0.352941185,  0.100000001
   2230,  0.200000003,  0.411764711,  0.100000001
   2231,  0.200000003,  0.470588237,  0.100000001
   2232,  0.200000003,  0.529411793,  0.100000001
   2233,  0.200000003,  0.588235319,  0.100000001
   2234,  0.200000003,  0.647058845,  0.100000001
   2235,  0.200000003,   0.70588237,  0.100000001
   2236,  0.200000003,  0.764705896,  0.100000001
   2237,  0.200000003,  0.823529422,  0.100000001
   2238,  0.200000003,  0.882352948,  0.100000001
   2239,  0.200000003,  0.941176474,  0.100000001
   2240,  0.200000003,           1.,  0.100000001
   2241,  0.200000003,          -1., 0.0500000007
   2242,  0.200000003, -0.941176474, 0.0500000007
   2243,  0.200000003, -0.882352948, 0.0500000007
   2244,  0.200000003, -0.823529422, 0.0500000007
   2245,  0.200000003, -0.764705896, 0.0500000007
   2246,  0.200000003,  -0.70588237, 0.0500000007
   2247,  0.200000003, -0.647058845, 0.0500000007
   2248,  0.200000003, -0.588235319, 0.0500000007
   2249,  0.200000003, -0.529411793, 0.0500000007
   2250,  0.200000003, -0.470588237, 0.0500000007
   2251,  0.200000003, -0.411764711, 0.0500000007
   2252,  0.200000003, -0.352941185, 0.0500000007
   2253,  0.200000003, -0.294117659, 0.0500000007
   2254,  0.200000003, -0.235294119, 0.0500000007
   2255,  0.200000003, -0.176470593, 0.0500000007
   2256,  0.200000003, -0.117647059, 0.0500000007
   2257,  0.200000003, -0.0588235296, 0.0500000007
   2258,  0.200000003,           0., 0.0500000007
   2259,  0.200000003, 0.0588235296, 0.0500000007
   2260,  0.200000003,  0.117647059, 0.0500000007
   2261,  0.200000003,  0.176470593, 0.0500000007
   2262,  0.200000003,  0.235294119, 0.0500000007
   2263,  0.200000003,  0.294117659, 0.0500000007
   2264,  0.200000003,  0.352941185, 0.0500000007
   2265,  0.200000003,  0.411764711, 0.0500000007
   2266,  0.200000003,  0.470588237, 0.0500000007
   2267,  0.200000003,  0.529411793, 0.0500000007
   2268,  0.200000003,  0.588235319, 0.0500000007
   2269,  0.200000003,  0.647058845, 0.0500000007
   2270,  0.200000003,   0.70588237, 0.0500000007
   2271,  0.200000003,  0.764705896, 0.0500000007
   2272,  0.200000003,  0.823529422, 0.0500000007
   2273,  0.200000003,  0.882352948, 0.0500000007
   2274,  0.200000003,  0.941176474, 0.0500000007
   2275,  0.200000003,           1., 0.0500000007
   2276,  0.200000003,          -1.,           0.
   2277,  0.200000003, -0.941176474,           0.
   2278,  0.200000003, -0.882352948,           0.
   2279,  0.200000003, -0.823529422,           0.
   2280,  0.200000003, -0.764705896,           0.
   2281,  0.200000003,  -0.70588237,           0.
   2282,  0.200000003, -0.647058845,           0.
   2283,  0.200000003, -0.588235319,           0.
   2284,  0.200000003, -0.529411793,           0.
   2285,  0.200000003, -0.470588237,           0.
   2286,  0.200000003, -0.411764711,           0.
   2287,  0.200000003, -0.352941185,           0.
   2288,  0.200000003, -0.294117659,           0.
   2289,  0.200000003, -0.235294119,           0.
   2290,  0.200000003, -0.176470593,           0.
   2291,  0.200000003, -0.117647059,           0.
   2292,  0.200000003, -0.0588235296,           0.
   2293,  0.200000003,           0.,           0.
   2294,  0.200000003, 0.0588235296,           0.
   2295,  0.200000003,  0.117647059,           0.
   2296,  0.200000003,  0.176470593,           0.
   2297,  0.200000003,  0.235294119,           0.
   2298,  0.200000003,  0.294117659,           0.
   2299,  0.200000003,  0.352941185,           0.
   2300,  0.200000003,  0.411764711,           0.
   2301,  0.200000003,  0.470588237,           0.
   2302,  0.200000003,  0.529411793,           0.
   2303,  0.200000003,  0.588235319,           0.
   2304,  0.200000003,  0.647058845,           0.
   2305,  0.200000003,   0.70588237,           0.
   2306,  0.200000003,  0.764705896,           0.
   2307,  0.200000003,  0.823529422,           0.
   2308,  0.200000003,  0.882352948,           0.
   2309,  0.200000003,  0.941176474,           0.
   2310,  0.200000003,           1.,           0.
   2311,  0.257142872,          -1.,  0.100000001
   2312,  0.257142872, -0.941176474,  0.100000001
   2313,  0.257142872, -0.882352948,  0.100000001
   2314,  0.257142872, -0.823529422,  0.100000001
   2315,  0.257142872, -0.764705896,  0.100000001
   2316,  0.257142872,  -0.70588237,  0.100000001
   2317,  0.257142872, -0.647058845,  0.100000001
   2318,  0.257142872, -0.588235319,  0.100000001
   2319,  0.257142872, -0.529411793,  0.100000001
   2320,  0.257142872, -0.470588237,  0.100000001
   2321,  0.257142872, -0.411764711,  0.100000001
   2322,  0.257142872, -0.352941185,  0.100000001
   2323,  0.257142872, -0.294117659,  0.100000001
   2324,  0.257142872, -0.235294119,  0.100000001
   2325,  0.257142872, -0.176470593,  0.100000001
   2326,  0.257142872, -0.117647059,  0.100000001
   2327,  0.257142872, -0.0588235296,  0.100000001
   2328,  0.257142872,           0.,  0.100000001
   2329,  0.257142872, 0.0588235296,  0.100000001
   2330,  0.257142872,  0.117647059,  0.100000001
   2331,  0.257142872,  0.176470593,  0.100000001
   2332,  0.257142872,  0.235294119,  0.100000001
   2333,  0.257142872,  0.294117659,  0.100000001
   2334,  0.257142872,  0.352941185,  0.100000001
   2335,  0.257142872,  0.411764711,  0.100000001
   2336,  0.257142872,  0.470588237,  0.100000001
   2337,  0.257142872,  0.529411793,  0.100000001
   2338,  0.257142872,  0.588235319,  0.100000001
   2339,  0.257142872,  0.647058845,  0.100000001
   2340,  0.257142872,   0.70588237,  0.100000001
   2341,  0.257142872,  0.764705896,  0.100000001
   2342,  0.257142872,  0.823529422,  0.100000001
   2343,  0.257142872,  0.882352948,  0.100000001
   2344,  0.257142872,  0.941176474,  0.100000001
   2345,  0.257142872,           1.,  0.100000001
   2346,  0.257142872,          -1., 0.0500000007
   2347,  0.257142872, -0.941176474, 0.0500000007
   2348,  0.257142872, -0.882352948, 0.0500000007
   2349,  0.257142872, -0.823529422, 0.0500000007
   2350,  0.257142872, -0.764705896, 0.0500000007
   2351,  0.257142872,  -0.70588237, 0.0500000007
   2352,  0.257142872, -0.647058845, 0.0500000007
   2353,  0.257142872, -0.588235319, 0.0500000007
   2354,  0.257142872, -0.529411793, 0.0500000007
   2355,  0.257142872, -0.470588237, 0.0500000007
   2356,  0.257142872, -0.411764711, 0.0500000007
   2357,  0.257142872, -0.352941185, 0.0500000007
   2358,  0.257142872, -0.294117659, 0.0500000007
   2359,  0.257142872, -0.235294119, 0.0500000007
   2360,  0.257142872, -0.176470593, 0.0500000007
   2361,  0.257142872, -0.117647059, 0.0500000007
   2362,  0.257142872, -0.0588235296, 0.0500000007
   2363,  0.257142872,           0., 0.0500000007
   2364,  0.257142872, 0.0588235296, 0.0500000007
   2365,  0.257142872,  0.117647059, 0.0500000007
   2366,  0.257142872,  0.176470593, 0.0500000007
   2367,  0.257142872,  0.235294119, 0.0500000007
   2368,  0.257142872,  0.294117659, 0.0500000007
   2369,  0.257142872,  0.352941185, 0.0500000007
   2370,  0.257142872,  0.411764711, 0.0500000007
   2371,  0.257142872,  0.470588237, 0.0500000007
   2372,  0.257142872,  0.529411793, 0.0500000007
   2373,  0.257142872,  0.588235319, 0.0500000007
   2374,  0.257142872,  0.647058845, 0.0500000007
   2375,  0.257142872,   0.70588237, 0.0500000007
   2376,  0.257142872,  0.764705896, 0.0500000007
   2377,  0.257142872,  0.823529422, 0.0500000007
   2378,  0.257142872,  0.882352948, 0.0500000007
   2379,  0.257142872,  0.941176474, 0.0500000007
   2380,  0.257142872,           1., 0.0500000007
   2381,  0.257142872,          -1.,           0.
   2382,  0.257142872, -0.941176474,           0.
   2383,  0.257142872, -0.882352948,           0.
   2384,  0.257142872, -0.823529422,           0.
   2385,  0.257142872, -0.764705896,           0.
   2386,  0.257142872,  -0.70588237,           0.
   2387,  0.257142872, -0.647058845,           0.
   2388,  0.257142872, -0.588235319,           0.
   2389,  0.257142872, -0.529411793,           0.
   2390,  0.257142872, -0.470588237,           0.
   2391,  0.257142872, -0.411764711,           0.
   2392,  0.257142872, -0.352941185,           0.
   2393,  0.257142872, -0.294117659,           0.
   2394,  0.257142872, -0.235294119,           0.
   2395,  0.257142872, -0.176470593,           0.
   2396,  0.257142872, -0.117647059,           0.
   2397,  0.257142872, -0.0588235296,           0.
   2398,  0.257142872,           0.,           0.
   2399,  0.257142872, 0.0588235296,           0.
   2400,  0.257142872,  0.117647059,           0.
   2401,  0.257142872,  0.176470593,           0.
   2402,  0.257142872,  0.235294119,           0.
   2403,  0.257142872,  0.294117659,           0.
   2404,  0.257142872,  0.352941185,           0.
   2405,  0.257142872,  0.411764711,           0.
   2406,  0.257142872,  0.470588237,           0.
   2407,  0.257142872,  0.529411793,           0.
   2408,  0.257142872,  0.588235319,           0.
   2409,  0.257142872,  0.647058845,           0.
   2410,  0.257142872,   0.70588237,           0.
   2411,  0.257142872,  0.764705896,           0.
   2412,  0.257142872,  0.823529422,           0.
   2413,  0.257142872,  0.882352948,           0.
   2414,  0.257142872,  0.941176474,           0.
   2415,  0.257142872,           1.,           0.
   2416,  0.314285725,          -1.,  0.100000001
   2417,  0.314285725, -0.941176474,  0.100000001
   2418,  0.314285725, -0.882352948,  0.100000001
   2419,  0.314285725, -0.823529422,  0.100000001
   2420,  0.314285725, -0.764705896,  0.100000001
   2421,  0.314285725,  -0.70588237,  0.100000001
   2422,  0.314285725, -0.647058845,  0.100000001
   2423,  0.314285725, -0.588235319,  0.100000001
   2424,  0.314285725, -0.529411793,  0.100000001
   2425,  0.314285725, -0.470588237,  0.100000001
   2426,  0.314285725, -0.411764711,  0.100000001
   2427,  0.314285725, -0.352941185,  0.100000001
   2428,  0.314285725, -0.294117659,  0.100000001
   2429,  0.314285725, -0.235294119,  0.100000001
   2430,  0.314285725, -0.176470593,  0.100000001
   2431,  0.314285725, -0.117647059,  0.100000001
   2432,  0.314285725, -0.0588235296,  0.100000001
   2433,  0.314285725,           0.,  0.100000001
   2434,  0.314285725, 0.0588235296,  0.100000001
   2435,  0.314285725,  0.117647059,  0.100000001
   2436,  0.314285725,  0.176470593,  0.100000001
   2437,  0.314285725,  0.235294119,  0.100000001
   2438,  0.314285725,  0.294117659,  0.100000001
   2439,  0.314285725,  0.352941185,  0.100000001
   2440,  0.314285725,  0.411764711,  0.100000001
   2441,  0.314285725,  0.470588237,  0.100000001
   2442,  0.314285725,  0.529411793,  0.100000001
   2443,  0.314285725,  0.588235319,  0.100000001
   2444,  0.314285725,  0.647058845,  0.100000001
   2445,  0.314285725,   0.70588237,  0.100000001
   2446,  0.314285725,  0.764705896,  0.100000001
   2447,  0.314285725,  0.823529422,  0.100000001
   2448,  0.314285725,  0.882352948,  0.100000001
   2449,  0.314285725,  0.941176474,  0.100000001
   2450,  0.314285725,           1.,  0.100000001
   2451,  0.314285725,          -1., 0.0500000007
   2452,  0.314285725, -0.941176474, 0.0500000007
   2453,  0.314285725, -0.882352948, 0.0500000007
   2454,  0.314285725, -0.823529422, 0.0500000007
   2455,  0.314285725, -0.764705896, 0.0500000007
   2456,  0.314285725,  -0.70588237, 0.0500000007
   2457,  0.314285725, -0.647058845, 0.0500000007
   2458,  0.314285725, -0.588235319, 0.0500000007
   2459,  0.314285725, -0.529411793, 0.0500000007
   2460,  0.314285725, -0.470588237, 0.0500000007
   2461,  0.314285725, -0.411764711, 0.0500000007
   2462,  0.314285725, -0.352941185, 0.0500000007
   2463,  0.314285725, -0.294117659, 0.0500000007
   2464,  0.314285725, -0.235294119, 0.0500000007
   2465,  0.314285725, -0.176470593, 0.0500000007
   2466,  0.314285725, -0.117647059, 0.0500000007
   2467,  0.314285725, -0.0588235296, 0.0500000007
   2468,  0.314285725,           0., 0.0500000007
   2469,  0.314285725, 0.0588235296, 0.0500000007
   2470,  0.314285725,  0.117647059, 0.0500000007
   2471,  0.314285725,  0.176470593, 0.0500000007
   2472,  0.314285725,  0.235294119, 0.0500000007
   2473,  0.314285725,  0.294117659, 0.0500000007
   2474,  0.314285725,  0.352941185, 0.0500000007
   2475,  0.314285725,  0.411764711, 0.0500000007
   2476,  0.314285725,  0.470588237, 0.0500000007
   2477,  0.314285725,  0.529411793, 0.0500000007
   2478,  0.314285725,  0.588235319, 0.0500000007
   2479,  0.314285725,  0.647058845, 0.0500000007
   2480,  0.314285725,   0.70588237, 0.0500000007
   2481,  0.314285725,  0.764705896, 0.0500000007
   2482,  0.314285725,  0.823529422, 0.0500000007
   2483,  0.314285725,  0.882352948, 0.0500000007
   2484,  0.314285725,  0.941176474, 0.0500000007
   2485,  0.314285725,           1., 0.0500000007
   2486,  0.314285725,          -1.,           0.
   2487,  0.314285725, -0.941176474,           0.
   2488,  0.314285725, -0.882352948,           0.
   2489,  0.314285725, -0.823529422,           0.
   2490,  0.314285725, -0.764705896,           0.
   2491,  0.314285725,  -0.70588237,           0.
   2492,  0.314285725, -0.647058845,           0.
   2493,  0.314285725, -0.588235319,           0.
   2494,  0.314285725, -0.529411793,           0.
   2495,  0.314285725, -0.470588237,           0.
   2496,  0.314285725, -0.411764711,           0.
   2497,  0.314285725, -0.352941185,           0.
   2498,  0.314285725, -0.294117659,           0.
   2499,  0.314285725, -0.235294119,           0.
   2500,  0.314285725, -0.176470593,           0.
   2501,  0.314285725, -0.117647059,           0.
   2502,  0.314285725, -0.0588235296,           0.
   2503,  0.314285725,           0.,           0.
   2504,  0.314285725, 0.0588235296,           0.
   2505,  0.314285725,  0.117647059,           0.
   2506,  0.314285725,  0.176470593,           0.
   2507,  0.314285725,  0.235294119,           0.
   2508,  0.314285725,  0.294117659,           0.
   2509,  0.314285725,  0.352941185,           0.
   2510,  0.314285725,  0.411764711,           0.
   2511,  0.314285725,  0.470588237,           0.
   2512,  0.314285725,  0.529411793,           0.
   2513,  0.314285725,  0.588235319,           0.
   2514,  0.314285725,  0.647058845,           0.
   2515,  0.314285725,   0.70588237,           0.
   2516,  0.314285725,  0.764705896,           0.
   2517,  0.314285725,  0.823529422,           0.
   2518,  0.314285725,  0.882352948,           0.
   2519,  0.314285725,  0.941176474,           0.
   2520,  0.314285725,           1.,           0.
   2521,  0.371428579,          -1.,  0.100000001
   2522,  0.371428579, -0.941176474,  0.100000001
   2523,  0.371428579, -0.882352948,  0.100000001
   2524,  0.371428579, -0.823529422,  0.100000001
   2525,  0.371428579, -0.764705896,  0.100000001
   2526,  0.371428579,  -0.70588237,  0.100000001
   2527,  0.371428579, -0.647058845,  0.100000001
   2528,  0.371428579, -0.588235319,  0.100000001
   2529,  0.371428579, -0.529411793,  0.100000001
   2530,  0.371428579, -0.470588237,  0.100000001
   2531,  0.371428579, -0.411764711,  0.100000001
   2532,  0.371428579, -0.352941185,  0.100000001
   2533,  0.371428579, -0.294117659,  0.100000001
   2534,  0.371428579, -0.235294119,  0.100000001
   2535,  0.371428579, -0.176470593,  0.100000001
   2536,  0.371428579, -0.117647059,  0.100000001
   2537,  0.371428579, -0.0588235296,  0.100000001
   2538,  0.371428579,           0.,  0.100000001
   2539,  0.371428579, 0.0588235296,  0.100000001
   2540,  0.371428579,  0.117647059,  0.100000001
   2541,  0.371428579,  0.176470593,  0.100000001
   2542,  0.371428579,  0.235294119,  0.100000001
   2543,  0.371428579,  0.294117659,  0.100000001
   2544,  0.371428579,  0.352941185,  0.100000001
   2545,  0.371428579,  0.411764711,  0.100000001
   2546,  0.371428579,  0.470588237,  0.100000001
   2547,  0.371428579,  0.529411793,  0.100000001
   2548,  0.371428579,  0.588235319,  0.100000001
   2549,  0.371428579,  0.647058845,  0.100000001
   2550,  0.371428579,   0.70588237,  0.100000001
   2551,  0.371428579,  0.764705896,  0.100000001
   2552,  0.371428579,  0.823529422,  0.100000001
   2553,  0.371428579,  0.882352948,  0.100000001
   2554,  0.371428579,  0.941176474,  0.100000001
   2555,  0.371428579,           1.,  0.100000001
   2556,  0.371428579,          -1., 0.0500000007
   2557,  0.371428579, -0.941176474, 0.0500000007
   2558,  0.371428579, -0.882352948, 0.0500000007
   2559,  0.371428579, -0.823529422, 0.0500000007
   2560,  0.371428579, -0.764705896, 0.0500000007
   2561,  0.371428579,  -0.70588237, 0.0500000007
   2562,  0.371428579, -0.647058845, 0.0500000007
   2563,  0.371428579, -0.588235319, 0.0500000007
   2564,  0.371428579, -0.529411793, 0.0500000007
   2565,  0.371428579, -0.470588237, 0.0500000007
   2566,  0.371428579, -0.411764711, 0.0500000007
   2567,  0.371428579, -0.352941185, 0.0500000007
   2568,  0.371428579, -0.294117659, 0.0500000007
   2569,  0.371428579, -0.235294119, 0.0500000007
   2570,  0.371428579, -0.176470593, 0.0500000007
   2571,  0.371428579, -0.117647059, 0.0500000007
   2572,  0.371428579, -0.0588235296, 0.0500000007
   2573,  0.371428579,           0., 0.0500000007
   2574,  0.371428579, 0.0588235296, 0.0500000007
   2575,  0.371428579,  0.117647059, 0.0500000007
   2576,  0.371428579,  0.176470593, 0.0500000007
   2577,  0.371428579,  0.235294119, 0.0500000007
   2578,  0.371428579,  0.294117659, 0.0500000007
   2579,  0.371428579,  0.352941185, 0.0500000007
   2580,  0.371428579,  0.411764711, 0.0500000007
   2581,  0.371428579,  0.470588237, 0.0500000007
   2582,  0.371428579,  0.529411793, 0.0500000007
   2583,  0.371428579,  0.588235319, 0.0500000007
   2584,  0.371428579,  0.647058845, 0.0500000007
   2585,  0.371428579,   0.70588237, 0.0500000007
   2586,  0.371428579,  0.764705896, 0.0500000007
   2587,  0.371428579,  0.823529422, 0.0500000007
   2588,  0.371428579,  0.882352948, 0.0500000007
   2589,  0.371428579,  0.941176474, 0.0500000007
   2590,  0.371428579,           1., 0.0500000007
   2591,  0.371428579,          -1.,           0.
   2592,  0.371428579, -0.941176474,           0.
   2593,  0.371428579, -0.882352948,           0.
   2594,  0.371428579, -0.823529422,           0.
   2595,  0.371428579, -0.764705896,           0.
   2596,  0.371428579,  -0.70588237,           0.
   2597,  0.371428579, -0.647058845,           0.
   2598,  0.371428579, -0.588235319,           0.
   2599,  0.371428579, -0.529411793,           0.
   2600,  0.371428579, -0.470588237,           0.
   2601,  0.371428579, -0.411764711,           0.
   2602,  0.371428579, -0.352941185,           0.
   2603,  0.371428579, -0.294117659,           0.
   2604,  0.371428579, -0.235294119,           0.
   2605,  0.371428579, -0.176470593,           0.
   2606,  0.371428579, -0.117647059,           0.
   2607,  0.371428579, -0.0588235296,           0.
   2608,  0.371428579,           0.,           0.
   2609,  0.371428579, 0.0588235296,           0.
   2610,  0.371428579,  0.117647059,           0.
   2611,  0.371428579,  0.176470593,           0.
   2612,  0.371428579,  0.235294119,           0.
   2613,  0.371428579,  0.294117659,           0.
   2614,  0.371428579,  0.352941185,           0.
   2615,  0.371428579,  0.411764711,           0.
   2616,  0.371428579,  0.470588237,           0.
   2617,  0.371428579,  0.529411793,           0.
   2618,  0.371428579,  0.588235319,           0.
   2619,  0.371428579,  0.647058845,           0.
   2620,  0.371428579,   0.70588237,           0.
   2621,  0.371428579,  0.764705896,           0.
   2622,  0.371428579,  0.823529422,           0.
   2623,  0.371428579,  0.882352948,           0.
   2624,  0.371428579,  0.941176474,           0.
   2625,  0.371428579,           1.,           0.
   2626,  0.428571433,          -1.,  0.100000001
   2627,  0.428571433, -0.941176474,  0.100000001
   2628,  0.428571433, -0.882352948,  0.100000001
   2629,  0.428571433, -0.823529422,  0.100000001
   2630,  0.428571433, -0.764705896,  0.100000001
   2631,  0.428571433,  -0.70588237,  0.100000001
   2632,  0.428571433, -0.647058845,  0.100000001
   2633,  0.428571433, -0.588235319,  0.100000001
   2634,  0.428571433, -0.529411793,  0.100000001
   2635,  0.428571433, -0.470588237,  0.100000001
   2636,  0.428571433, -0.411764711,  0.100000001
   2637,  0.428571433, -0.352941185,  0.100000001
   2638,  0.428571433, -0.294117659,  0.100000001
   2639,  0.428571433, -0.235294119,  0.100000001
   2640,  0.428571433, -0.176470593,  0.100000001
   2641,  0.428571433, -0.117647059,  0.100000001
   2642,  0.428571433, -0.0588235296,  0.100000001
   2643,  0.428571433,           0.,  0.100000001
   2644,  0.428571433, 0.0588235296,  0.100000001
   2645,  0.428571433,  0.117647059,  0.100000001
   2646,  0.428571433,  0.176470593,  0.100000001
   2647,  0.428571433,  0.235294119,  0.100000001
   2648,  0.428571433,  0.294117659,  0.100000001
   2649,  0.428571433,  0.352941185,  0.100000001
   2650,  0.428571433,  0.411764711,  0.100000001
   2651,  0.428571433,  0.470588237,  0.100000001
   2652,  0.428571433,  0.529411793,  0.100000001
   2653,  0.428571433,  0.588235319,  0.100000001
   2654,  0.428571433,  0.647058845,  0.100000001
   2655,  0.428571433,   0.70588237,  0.100000001
   2656,  0.428571433,  0.764705896,  0.100000001
   2657,  0.428571433,  0.823529422,  0.100000001
   2658,  0.428571433,  0.882352948,  0.100000001
   2659,  0.428571433,  0.941176474,  0.100000001
   2660,  0.428571433,           1.,  0.100000001
   2661,  0.428571433,          -1., 0.0500000007
   2662,  0.428571433, -0.941176474, 0.0500000007
   2663,  0.428571433, -0.882352948, 0.0500000007
   2664,  0.428571433, -0.823529422, 0.0500000007
   2665,  0.428571433, -0.764705896, 0.0500000007
   2666,  0.428571433,  -0.70588237, 0.0500000007
   2667,  0.428571433, -0.647058845, 0.0500000007
   2668,  0.428571433, -0.588235319, 0.0500000007
   2669,  0.428571433, -0.529411793, 0.0500000007
   2670,  0.428571433, -0.470588237, 0.0500000007
   2671,  0.428571433, -0.411764711, 0.0500000007
   2672,  0.428571433, -0.352941185, 0.0500000007
   2673,  0.428571433, -0.294117659, 0.0500000007
   2674,  0.428571433, -0.235294119, 0.0500000007
   2675,  0.428571433, -0.176470593, 0.0500000007
   2676,  0.428571433, -0.117647059, 0.0500000007
   2677,  0.428571433, -0.0588235296, 0.0500000007
   2678,  0.428571433,           0., 0.0500000007
   2679,  0.428571433, 0.0588235296, 0.0500000007
   2680,  0.428571433,  0.117647059, 0.0500000007
   2681,  0.428571433,  0.176470593, 0.0500000007
   2682,  0.428571433,  0.235294119, 0.0500000007
   2683,  0.428571433,  0.294117659, 0.0500000007
   2684,  0.428571433,  0.352941185, 0.0500000007
   2685,  0.428571433,  0.411764711, 0.0500000007
   2686,  0.428571433,  0.470588237, 0.0500000007
   2687,  0.428571433,  0.529411793, 0.0500000007
   2688,  0.428571433,  0.588235319, 0.0500000007
   2689,  0.428571433,  0.647058845, 0.0500000007
   2690,  0.428571433,   0.70588237, 0.0500000007
   2691,  0.428571433,  0.764705896, 0.0500000007
   2692,  0.428571433,  0.823529422, 0.0500000007
   2693,  0.428571433,  0.882352948, 0.0500000007
   2694,  0.428571433,  0.941176474, 0.0500000007
   2695,  0.428571433,           1., 0.0500000007
   2696,  0.428571433,          -1.,           0.
   2697,  0.428571433, -0.941176474,           0.
   2698,  0.428571433, -0.882352948,           0.
   2699,  0.428571433, -0.823529422,           0.
   2700,  0.428571433, -0.764705896,           0.
   2701,  0.428571433,  -0.70588237,           0.
   2702,  0.428571433, -0.647058845,           0.
   2703,  0.428571433, -0.588235319,           0.
   2704,  0.428571433, -0.529411793,           0.
   2705,  0.428571433, -0.470588237,           0.
   2706,  0.428571433, -0.411764711,           0.
   2707,  0.428571433, -0.352941185,           0.
   2708,  0.428571433, -0.294117659,           0.
   2709,  0.428571433, -0.235294119,           0.
   2710,  0.428571433, -0.176470593,           0.
   2711,  0.428571433, -0.117647059,           0.
   2712,  0.428571433, -0.0588235296,           0.
   2713,  0.428571433,           0.,           0.
   2714,  0.428571433, 0.0588235296,           0.
   2715,  0.428571433,  0.117647059,           0.
   2716,  0.428571433,  0.176470593,           0.
   2717,  0.428571433,  0.235294119,           0.
   2718,  0.428571433,  0.294117659,           0.
   2719,  0.428571433,  0.352941185,           0.
   2720,  0.428571433,  0.411764711,           0.
   2721,  0.428571433,  0.470588237,           0.
   2722,  0.428571433,  0.529411793,           0.
   2723,  0.428571433,  0.588235319,           0.
   2724,  0.428571433,  0.647058845,           0.
   2725,  0.428571433,   0.70588237,           0.
   2726,  0.428571433,  0.764705896,           0.
   2727,  0.428571433,  0.823529422,           0.
   2728,  0.428571433,  0.882352948,           0.
   2729,  0.428571433,  0.941176474,           0.
   2730,  0.428571433,           1.,           0.
   2731,  0.485714287,          -1.,  0.100000001
   2732,  0.485714287, -0.941176474,  0.100000001
   2733,  0.485714287, -0.882352948,  0.100000001
   2734,  0.485714287, -0.823529422,  0.100000001
   2735,  0.485714287, -0.764705896,  0.100000001
   2736,  0.485714287,  -0.70588237,  0.100000001
   2737,  0.485714287, -0.647058845,  0.100000001
   2738,  0.485714287, -0.588235319,  0.100000001
   2739,  0.485714287, -0.529411793,  0.100000001
   2740,  0.485714287, -0.470588237,  0.100000001
   2741,  0.485714287, -0.411764711,  0.100000001
   2742,  0.485714287, -0.352941185,  0.100000001
   2743,  0.485714287, -0.294117659,  0.100000001
   2744,  0.485714287, -0.235294119,  0.100000001
   2745,  0.485714287, -0.176470593,  0.100000001
   2746,  0.485714287, -0.117647059,  0.100000001
   2747,  0.485714287, -0.0588235296,  0.100000001
   2748,  0.485714287,           0.,  0.100000001
   2749,  0.485714287, 0.0588235296,  0.100000001
   2750,  0.485714287,  0.117647059,  0.100000001
   2751,  0.485714287,  0.176470593,  0.100000001
   2752,  0.485714287,  0.235294119,  0.100000001
   2753,  0.485714287,  0.294117659,  0.100000001
   2754,  0.485714287,  0.352941185,  0.100000001
   2755,  0.485714287,  0.411764711,  0.100000001
   2756,  0.485714287,  0.470588237,  0.100000001
   2757,  0.485714287,  0.529411793,  0.100000001
   2758,  0.485714287,  0.588235319,  0.100000001
   2759,  0.485714287,  0.647058845,  0.100000001
   2760,  0.485714287,   0.70588237,  0.100000001
   2761,  0.485714287,  0.764705896,  0.100000001
   2762,  0.485714287,  0.823529422,  0.100000001
   2763,  0.485714287,  0.882352948,  0.100000001
   2764,  0.485714287,  0.941176474,  0.100000001
   2765,  0.485714287,           1.,  0.100000001
   2766,  0.485714287,          -1., 0.0500000007
   2767,  0.485714287, -0.941176474, 0.0500000007
   2768,  0.485714287, -0.882352948, 0.0500000007
   2769,  0.485714287, -0.823529422, 0.0500000007
   2770,  0.485714287, -0.764705896, 0.0500000007
   2771,  0.485714287,  -0.70588237, 0.0500000007
   2772,  0.485714287, -0.647058845, 0.0500000007
   2773,  0.485714287, -0.588235319, 0.0500000007
   2774,  0.485714287, -0.529411793, 0.0500000007
   2775,  0.485714287, -0.470588237, 0.0500000007
   2776,  0.485714287, -0.411764711, 0.0500000007
   2777,  0.485714287, -0.352941185, 0.0500000007
   2778,  0.485714287, -0.294117659, 0.0500000007
   2779,  0.485714287, -0.235294119, 0.0500000007
   2780,  0.485714287, -0.176470593, 0.0500000007
   2781,  0.485714287, -0.117647059, 0.0500000007
   2782,  0.485714287, -0.0588235296, 0.0500000007
   2783,  0.485714287,           0., 0.0500000007
   2784,  0.485714287, 0.0588235296, 0.0500000007
   2785,  0.485714287,  0.117647059, 0.0500000007
   2786,  0.485714287,  0.176470593, 0.0500000007
   2787,  0.485714287,  0.235294119, 0.0500000007
   2788,  0.485714287,  0.294117659, 0.0500000007
   2789,  0.485714287,  0.352941185, 0.0500000007
   2790,  0.485714287,  0.411764711, 0.0500000007
   2791,  0.485714287,  0.470588237, 0.0500000007
   2792,  0.485714287,  0.529411793, 0.0500000007
   2793,  0.485714287,  0.588235319, 0.0500000007
   2794,  0.485714287,  0.647058845, 0.0500000007
   2795,  0.485714287,   0.70588237, 0.0500000007
   2796,  0.485714287,  0.764705896, 0.0500000007
   2797,  0.485714287,  0.823529422, 0.0500000007
   2798,  0.485714287,  0.882352948, 0.0500000007
   2799,  0.485714287,  0.941176474, 0.0500000007
   2800,  0.485714287,           1., 0.0500000007
   2801,  0.485714287,          -1.,           0.
   2802,  0.485714287, -0.941176474,           0.
   2803,  0.485714287, -0.882352948,           0.
   2804,  0.485714287, -0.823529422,           0.
   2805,  0.485714287, -0.764705896,           0.
   2806,  0.485714287,  -0.70588237,           0.
   2807,  0.485714287, -0.647058845,           0.
   2808,  0.485714287, -0.588235319,           0.
   2809,  0.485714287, -0.529411793,           0.
   2810,  0.485714287, -0.470588237,           0.
   2811,  0.485714287, -0.411764711,           0.
   2812,  0.485714287, -0.352941185,           0.
   2813,  0.485714287, -0.294117659,           0.
   2814,  0.485714287, -0.235294119,           0.
   2815,  0.485714287, -0.176470593,           0.
   2816,  0.485714287, -0.117647059,           0.
   2817,  0.485714287, -0.0588235296,           0.
   2818,  0.485714287,           0.,           0.
   2819,  0.485714287, 0.0588235296,           0.
   2820,  0.485714287,  0.117647059,           0.
   2821,  0.485714287,  0.176470593,           0.
   2822,  0.485714287,  0.235294119,           0.
   2823,  0.485714287,  0.294117659,           0.
   2824,  0.485714287,  0.352941185,           0.
   2825,  0.485714287,  0.411764711,           0.
   2826,  0.485714287,  0.470588237,           0.
   2827,  0.485714287,  0.529411793,           0.
   2828,  0.485714287,  0.588235319,           0.
   2829,  0.485714287,  0.647058845,           0.
   2830,  0.485714287,   0.70588237,           0.
   2831,  0.485714287,  0.764705896,           0.
   2832,  0.485714287,  0.823529422,           0.
   2833,  0.485714287,  0.882352948,           0.
   2834,  0.485714287,  0.941176474,           0.
   2835,  0.485714287,           1.,           0.
   2836,   0.54285717,          -1.,  0.100000001
   2837,   0.54285717, -0.941176474,  0.100000001
   2838,   0.54285717, -0.882352948,  0.100000001
   2839,   0.54285717, -0.823529422,  0.100000001
   2840,   0.54285717, -0.764705896,  0.100000001
   2841,   0.54285717,  -0.70588237,  0.100000001
   2842,   0.54285717, -0.647058845,  0.100000001
   2843,   0.54285717, -0.588235319,  0.100000001
   2844,   0.54285717, -0.529411793,  0.100000001
   2845,   0.54285717, -0.470588237,  0.100000001
   2846,   0.54285717, -0.411764711,  0.100000001
   2847,   0.54285717, -0.352941185,  0.100000001
   2848,   0.54285717, -0.294117659,  0.100000001
   2849,   0.54285717, -0.235294119,  0.100000001
   2850,   0.54285717, -0.176470593,  0.100000001
   2851,   0.54285717, -0.117647059,  0.100000001
   2852,   0.54285717, -0.0588235296,  0.100000001
   2853,   0.54285717,           0.,  0.100000001
   2854,   0.54285717, 0.0588235296,  0.100000001
   2855,   0.54285717,  0.117647059,  0.100000001
   2856,   0.54285717,  0.176470593,  0.100000001
   2857,   0.54285717,  0.235294119,  0.100000001
   2858,   0.54285717,  0.294117659,  0.100000001
   2859,   0.54285717,  0.352941185,  0.100000001
   2860,   0.54285717,  0.411764711,  0.100000001
   2861,   0.54285717,  0.470588237,  0.100000001
   2862,   0.54285717,  0.529411793,  0.100000001
   2863,   0.54285717,  0.588235319,  0.100000001
   2864,   0.54285717,  0.647058845,  0.100000001
   2865,   0.54285717,   0.70588237,  0.100000001
   2866,   0.54285717,  0.764705896,  0.100000001
   2867,   0.54285717,  0.823529422,  0.100000001
   2868,   0.54285717,  0.882352948,  0.100000001
   2869,   0.54285717,  0.941176474,  0.100000001
   2870,   0.54285717,           1.,  0.100000001
   2871,   0.54285717,          -1., 0.0500000007
   2872,   0.54285717, -0.941176474, 0.0500000007
   2873,   0.54285717, -0.882352948, 0.0500000007
   2874,   0.54285717, -0.823529422, 0.0500000007
   2875,   0.54285717, -0.764705896, 0.0500000007
   2876,   0.54285717,  -0.70588237, 0.0500000007
   2877,   0.54285717, -0.647058845, 0.0500000007
   2878,   0.54285717, -0.588235319, 0.0500000007
   2879,   0.54285717, -0.529411793, 0.0500000007
   2880,   0.54285717, -0.470588237, 0.0500000007
   2881,   0.54285717, -0.411764711, 0.0500000007
   2882,   0.54285717, -0.352941185, 0.0500000007
   2883,   0.54285717, -0.294117659, 0.0500000007
   2884,   0.54285717, -0.235294119, 0.0500000007
   2885,   0.54285717, -0.176470593, 0.0500000007
   2886,   0.54285717, -0.117647059, 0.0500000007
   2887,   0.54285717, -0.0588235296, 0.0500000007
   2888,   0.54285717,           0., 0.0500000007
   2889,   0.54285717, 0.0588235296, 0.0500000007
   2890,   0.54285717,  0.117647059, 0.0500000007
   2891,   0.54285717,  0.176470593, 0.0500000007
   2892,   0.54285717,  0.235294119, 0.0500000007
   2893,   0.54285717,  0.294117659, 0.0500000007
   2894,   0.54285717,  0.352941185, 0.0500000007
   2895,   0.54285717,  0.411764711, 0.0500000007
   2896,   0.54285717,  0.470588237, 0.0500000007
   2897,   0.54285717,  0.529411793, 0.0500000007
   2898,   0.54285717,  0.588235319, 0.0500000007
   2899,   0.54285717,  0.647058845, 0.0500000007
   2900,   0.54285717,   0.70588237, 0.0500000007
   2901,   0.54285717,  0.764705896, 0.0500000007
   2902,   0.54285717,  0.823529422, 0.0500000007
   2903,   0.54285717,  0.882352948, 0.0500000007
   2904,   0.54285717,  0.941176474, 0.0500000007
   2905,   0.54285717,           1., 0.0500000007
   2906,   0.54285717,          -1.,           0.
   2907,   0.54285717, -0.941176474,           0.
   2908,   0.54285717, -0.882352948,           0.
   2909,   0.54285717, -0.823529422,           0.
   2910,   0.54285717, -0.764705896,           0.
   2911,   0.54285717,  -0.70588237,           0.
   2912,   0.54285717, -0.647058845,           0.
   2913,   0.54285717, -0.588235319,           0.
   2914,   0.54285717, -0.529411793,           0.
   2915,   0.54285717, -0.470588237,           0.
   2916,   0.54285717, -0.411764711,           0.
   2917,   0.54285717, -0.352941185,           0.
   2918,   0.54285717, -0.294117659,           0.
   2919,   0.54285717, -0.235294119,           0.
   2920,   0.54285717, -0.176470593,           0.
   2921,   0.54285717, -0.117647059,           0.
   2922,   0.54285717, -0.0588235296,           0.
   2923,   0.54285717,           0.,           0.
   2924,   0.54285717, 0.0588235296,           0.
   2925,   0.54285717,  0.117647059,           0.
   2926,   0.54285717,  0.176470593,           0.
   2927,   0.54285717,  0.235294119,           0.
   2928,   0.54285717,  0.294117659,           0.
   2929,   0.54285717,  0.352941185,           0.
   2930,   0.54285717,  0.411764711,           0.
   2931,   0.54285717,  0.470588237,           0.
   2932,   0.54285717,  0.529411793,           0.
   2933,   0.54285717,  0.588235319,           0.
   2934,   0.54285717,  0.647058845,           0.
   2935,   0.54285717,   0.70588237,           0.
   2936,   0.54285717,  0.764705896,           0.
   2937,   0.54285717,  0.823529422,           0.
   2938,   0.54285717,  0.882352948,           0.
   2939,   0.54285717,  0.941176474,           0.
   2940,   0.54285717,           1.,           0.
   2941,  0.600000024,          -1.,  0.100000001
   2942,  0.600000024, -0.941176474,  0.100000001
   2943,  0.600000024, -0.882352948,  0.100000001
   2944,  0.600000024, -0.823529422,  0.100000001
   2945,  0.600000024, -0.764705896,  0.100000001
   2946,  0.600000024,  -0.70588237,  0.100000001
   2947,  0.600000024, -0.647058845,  0.100000001
   2948,  0.600000024, -0.588235319,  0.100000001
   2949,  0.600000024, -0.529411793,  0.100000001
   2950,  0.600000024, -0.470588237,  0.100000001
   2951,  0.600000024, -0.411764711,  0.100000001
   2952,  0.600000024, -0.352941185,  0.100000001
   2953,  0.600000024, -0.294117659,  0.100000001
   2954,  0.600000024, -0.235294119,  0.100000001
   2955,  0.600000024, -0.176470593,  0.100000001
   2956,  0.600000024, -0.117647059,  0.100000001
   2957,  0.600000024, -0.0588235296,  0.100000001
   2958,  0.600000024,           0.,  0.100000001
   2959,  0.600000024, 0.0588235296,  0.100000001
   2960,  0.600000024,  0.117647059,  0.100000001
   2961,  0.600000024,  0.176470593,  0.100000001
   2962,  0.600000024,  0.235294119,  0.100000001
   2963,  0.600000024,  0.294117659,  0.100000001
   2964,  0.600000024,  0.352941185,  0.100000001
   2965,  0.600000024,  0.411764711,  0.100000001
   2966,  0.600000024,  0.470588237,  0.100000001
   2967,  0.600000024,  0.529411793,  0.100000001
   2968,  0.600000024,  0.588235319,  0.100000001
   2969,  0.600000024,  0.647058845,  0.100000001
   2970,  0.600000024,   0.70588237,  0.100000001
   2971,  0.600000024,  0.764705896,  0.100000001
   2972,  0.600000024,  0.823529422,  0.100000001
   2973,  0.600000024,  0.882352948,  0.100000001
   2974,  0.600000024,  0.941176474,  0.100000001
   2975,  0.600000024,           1.,  0.100000001
   2976,  0.600000024,          -1., 0.0500000007
   2977,  0.600000024, -0.941176474, 0.0500000007
   2978,  0.600000024, -0.882352948, 0.0500000007
   2979,  0.600000024, -0.823529422, 0.0500000007
   2980,  0.600000024, -0.764705896, 0.0500000007
   2981,  0.600000024,  -0.70588237, 0.0500000007
   2982,  0.600000024, -0.647058845, 0.0500000007
   2983,  0.600000024, -0.588235319, 0.0500000007
   2984,  0.600000024, -0.529411793, 0.0500000007
   2985,  0.600000024, -0.470588237, 0.0500000007
   2986,  0.600000024, -0.411764711, 0.0500000007
   2987,  0.600000024, -0.352941185, 0.0500000007
   2988,  0.600000024, -0.294117659, 0.0500000007
   2989,  0.600000024, -0.235294119, 0.0500000007
   2990,  0.600000024, -0.176470593, 0.0500000007
   2991,  0.600000024, -0.117647059, 0.0500000007
   2992,  0.600000024, -0.0588235296, 0.0500000007
   2993,  0.600000024,           0., 0.0500000007
   2994,  0.600000024, 0.0588235296, 0.0500000007
   2995,  0.600000024,  0.117647059, 0.0500000007
   2996,  0.600000024,  0.176470593, 0.0500000007
   2997,  0.600000024,  0.235294119, 0.0500000007
   2998,  0.600000024,  0.294117659, 0.0500000007
   2999,  0.600000024,  0.352941185, 0.0500000007
   3000,  0.600000024,  0.411764711, 0.0500000007
   3001,  0.600000024,  0.470588237, 0.0500000007
   3002,  0.600000024,  0.529411793, 0.0500000007
   3003,  0.600000024,  0.588235319, 0.0500000007
   3004,  0.600000024,  0.647058845, 0.0500000007
   3005,  0.600000024,   0.70588237, 0.0500000007
   3006,  0.600000024,  0.764705896, 0.0500000007
   3007,  0.600000024,  0.823529422, 0.0500000007
   3008,  0.600000024,  0.882352948, 0.0500000007
   3009,  0.600000024,  0.941176474, 0.0500000007
   3010,  0.600000024,           1., 0.0500000007
   3011,  0.600000024,          -1.,           0.
   3012,  0.600000024, -0.941176474,           0.
   3013,  0.600000024, -0.882352948,           0.
   3014,  0.600000024, -0.823529422,           0.
   3015,  0.600000024, -0.764705896,           0.
   3016,  0.600000024,  -0.70588237,           0.
   3017,  0.600000024, -0.647058845,           0.
   3018,  0.600000024, -0.588235319,           0.
   3019,  0.600000024, -0.529411793,           0.
   3020,  0.600000024, -0.470588237,           0.
   3021,  0.600000024, -0.411764711,           0.
   3022,  0.600000024, -0.352941185,           0.
   3023,  0.600000024, -0.294117659,           0.
   3024,  0.600000024, -0.235294119,           0.
   3025,  0.600000024, -0.176470593,           0.
   3026,  0.600000024, -0.117647059,           0.
   3027,  0.600000024, -0.0588235296,           0.
   3028,  0.600000024,           0.,           0.
   3029,  0.600000024, 0.0588235296,           0.
   3030,  0.600000024,  0.117647059,           0.
   3031,  0.600000024,  0.176470593,           0.
   3032,  0.600000024,  0.235294119,           0.
   3033,  0.600000024,  0.294117659,           0.
   3034,  0.600000024,  0.352941185,           0.
   3035,  0.600000024,  0.411764711,           0.
   3036,  0.600000024,  0.470588237,           0.
   3037,  0.600000024,  0.529411793,           0.
   3038,  0.600000024,  0.588235319,           0.
   3039,  0.600000024,  0.647058845,           0.
   3040,  0.600000024,   0.70588237,           0.
   3041,  0.600000024,  0.764705896,           0.
   3042,  0.600000024,  0.823529422,           0.
   3043,  0.600000024,  0.882352948,           0.
   3044,  0.600000024,  0.941176474,           0.
   3045,  0.600000024,           1.,           0.
   3046,  0.657142878,          -1.,  0.100000001
   3047,  0.657142878, -0.941176474,  0.100000001
   3048,  0.657142878, -0.882352948,  0.100000001
   3049,  0.657142878, -0.823529422,  0.100000001
   3050,  0.657142878, -0.764705896,  0.100000001
   3051,  0.657142878,  -0.70588237,  0.100000001
   3052,  0.657142878, -0.647058845,  0.100000001
   3053,  0.657142878, -0.588235319,  0.100000001
   3054,  0.657142878, -0.529411793,  0.100000001
   3055,  0.657142878, -0.470588237,  0.100000001
   3056,  0.657142878, -0.411764711,  0.100000001
   3057,  0.657142878, -0.352941185,  0.100000001
   3058,  0.657142878, -0.294117659,  0.100000001
   3059,  0.657142878, -0.235294119,  0.100000001
   3060,  0.657142878, -0.176470593,  0.100000001
   3061,  0.657142878, -0.117647059,  0.100000001
   3062,  0.657142878, -0.0588235296,  0.100000001
   3063,  0.657142878,           0.,  0.100000001
   3064,  0.657142878, 0.0588235296,  0.100000001
   3065,  0.657142878,  0.117647059,  0.100000001
   3066,  0.657142878,  0.176470593,  0.100000001
   3067,  0.657142878,  0.235294119,  0.100000001
   3068,  0.657142878,  0.294117659,  0.100000001
   3069,  0.657142878,  0.352941185,  0.100000001
   3070,  0.657142878,  0.411764711,  0.100000001
   3071,  0.657142878,  0.470588237,  0.100000001
   3072,  0.657142878,  0.529411793,  0.100000001
   3073,  0.657142878,  0.588235319,  0.100000001
   3074,  0.657142878,  0.647058845,  0.100000001
   3075,  0.657142878,   0.70588237,  0.100000001
   3076,  0.657142878,  0.764705896,  0.100000001
   3077,  0.657142878,  0.823529422,  0.100000001
   3078,  0.657142878,  0.882352948,  0.100000001
   3079,  0.657142878,  0.941176474,  0.100000001
   3080,  0.657142878,           1.,  0.100000001
   3081,  0.657142878,          -1., 0.0500000007
   3082,  0.657142878, -0.941176474, 0.0500000007
   3083,  0.657142878, -0.882352948, 0.0500000007
   3084,  0.657142878, -0.823529422, 0.0500000007
   3085,  0.657142878, -0.764705896, 0.0500000007
   3086,  0.657142878,  -0.70588237, 0.0500000007
   3087,  0.657142878, -0.647058845, 0.0500000007
   3088,  0.657142878, -0.588235319, 0.0500000007
   3089,  0.657142878, -0.529411793, 0.0500000007
   3090,  0.657142878, -0.470588237, 0.0500000007
   3091,  0.657142878, -0.411764711, 0.0500000007
   3092,  0.657142878, -0.352941185, 0.0500000007
   3093,  0.657142878, -0.294117659, 0.0500000007
   3094,  0.657142878, -0.235294119, 0.0500000007
   3095,  0.657142878, -0.176470593, 0.0500000007
   3096,  0.657142878, -0.117647059, 0.0500000007
   3097,  0.657142878, -0.0588235296, 0.0500000007
   3098,  0.657142878,           0., 0.0500000007
   3099,  0.657142878, 0.0588235296, 0.0500000007
   3100,  0.657142878,  0.117647059, 0.0500000007
   3101,  0.657142878,  0.176470593, 0.0500000007
   3102,  0.657142878,  0.235294119, 0.0500000007
   3103,  0.657142878,  0.294117659, 0.0500000007
   3104,  0.657142878,  0.352941185, 0.0500000007
   3105,  0.657142878,  0.411764711, 0.0500000007
   3106,  0.657142878,  0.470588237, 0.0500000007
   3107,  0.657142878,  0.529411793, 0.0500000007
   3108,  0.657142878,  0.588235319, 0.0500000007
   3109,  0.657142878,  0.647058845, 0.0500000007
   3110,  0.657142878,   0.70588237, 0.0500000007
   3111,  0.657142878,  0.764705896, 0.0500000007
   3112,  0.657142878,  0.823529422, 0.0500000007
   3113,  0.657142878,  0.882352948, 0.0500000007
   3114,  0.657142878,  0.941176474, 0.0500000007
   3115,  0.657142878,           1., 0.0500000007
   3116,  0.657142878,          -1.,           0.
   3117,  0.657142878, -0.941176474,           0.
   3118,  0.657142878, -0.882352948,           0.
   3119,  0.657142878, -0.823529422,           0.
   3120,  0.657142878, -0.764705896,           0.
   3121,  0.657142878,  -0.70588237,           0.
   3122,  0.657142878, -0.647058845,           0.
   3123,  0.657142878, -0.588235319,           0.
   3124,  0.657142878, -0.529411793,           0.
   3125,  0.657142878, -0.470588237,           0.
   3126,  0.657142878, -0.411764711,           0.
   3127,  0.657142878, -0.352941185,           0.
   3128,  0.657142878, -0.294117659,           0.
   3129,  0.657142878, -0.235294119,           0.
   3130,  0.657142878, -0.176470593,           0.
   3131,  0.657142878, -0.117647059,           0.
   3132,  0.657142878, -0.0588235296,           0.
   3133,  0.657142878,           0.,           0.
   3134,  0.657142878, 0.0588235296,           0.
   3135,  0.657142878,  0.117647059,           0.
   3136,  0.657142878,  0.176470593,           0.
   3137,  0.657142878,  0.235294119,           0.
   3138,  0.657142878,  0.294117659,           0.
   3139,  0.657142878,  0.352941185,           0.
   3140,  0.657142878,  0.411764711,           0.
   3141,  0.657142878,  0.470588237,           0.
   3142,  0.657142878,  0.529411793,           0.
   3143,  0.657142878,  0.588235319,           0.
   3144,  0.657142878,  0.647058845,           0.
   3145,  0.657142878,   0.70588237,           0.
   3146,  0.657142878,  0.764705896,           0.
   3147,  0.657142878,  0.823529422,           0.
   3148,  0.657142878,  0.882352948,           0.
   3149,  0.657142878,  0.941176474,           0.
   3150,  0.657142878,           1.,           0.
   3151,  0.714285731,          -1.,  0.100000001
   3152,  0.714285731, -0.941176474,  0.100000001
   3153,  0.714285731, -0.882352948,  0.100000001
   3154,  0.714285731, -0.823529422,  0.100000001
   3155,  0.714285731, -0.764705896,  0.100000001
   3156,  0.714285731,  -0.70588237,  0.100000001
   3157,  0.714285731, -0.647058845,  0.100000001
   3158,  0.714285731, -0.588235319,  0.100000001
   3159,  0.714285731, -0.529411793,  0.100000001
   3160,  0.714285731, -0.470588237,  0.100000001
   3161,  0.714285731, -0.411764711,  0.100000001
   3162,  0.714285731, -0.352941185,  0.100000001
   3163,  0.714285731, -0.294117659,  0.100000001
   3164,  0.714285731, -0.235294119,  0.100000001
   3165,  0.714285731, -0.176470593,  0.100000001
   3166,  0.714285731, -0.117647059,  0.100000001
   3167,  0.714285731, -0.0588235296,  0.100000001
   3168,  0.714285731,           0.,  0.100000001
   3169,  0.714285731, 0.0588235296,  0.100000001
   3170,  0.714285731,  0.117647059,  0.100000001
   3171,  0.714285731,  0.176470593,  0.100000001
   3172,  0.714285731,  0.235294119,  0.100000001
   3173,  0.714285731,  0.294117659,  0.100000001
   3174,  0.714285731,  0.352941185,  0.100000001
   3175,  0.714285731,  0.411764711,  0.100000001
   3176,  0.714285731,  0.470588237,  0.100000001
   3177,  0.714285731,  0.529411793,  0.100000001
   3178,  0.714285731,  0.588235319,  0.100000001
   3179,  0.714285731,  0.647058845,  0.100000001
   3180,  0.714285731,   0.70588237,  0.100000001
   3181,  0.714285731,  0.764705896,  0.100000001
   3182,  0.714285731,  0.823529422,  0.100000001
   3183,  0.714285731,  0.882352948,  0.100000001
   3184,  0.714285731,  0.941176474,  0.100000001
   3185,  0.714285731,           1.,  0.100000001
   3186,  0.714285731,          -1., 0.0500000007
   3187,  0.714285731, -0.941176474, 0.0500000007
   3188,  0.714285731, -0.882352948, 0.0500000007
   3189,  0.714285731, -0.823529422, 0.0500000007
   3190,  0.714285731, -0.764705896, 0.0500000007
   3191,  0.714285731,  -0.70588237, 0.0500000007
   3192,  0.714285731, -0.647058845, 0.0500000007
   3193,  0.714285731, -0.588235319, 0.0500000007
   3194,  0.714285731, -0.529411793, 0.0500000007
   3195,  0.714285731, -0.470588237, 0.0500000007
   3196,  0.714285731, -0.411764711, 0.0500000007
   3197,  0.714285731, -0.352941185, 0.0500000007
   3198,  0.714285731, -0.294117659, 0.0500000007
   3199,  0.714285731, -0.235294119, 0.0500000007
   3200,  0.714285731, -0.176470593, 0.0500000007
   3201,  0.714285731, -0.117647059, 0.0500000007
   3202,  0.714285731, -0.0588235296, 0.0500000007
   3203,  0.714285731,           0., 0.0500000007
   3204,  0.714285731, 0.0588235296, 0.0500000007
   3205,  0.714285731,  0.117647059, 0.0500000007
   3206,  0.714285731,  0.176470593, 0.0500000007
   3207,  0.714285731,  0.235294119, 0.0500000007
   3208,  0.714285731,  0.294117659, 0.0500000007
   3209,  0.714285731,  0.352941185, 0.0500000007
   3210,  0.714285731,  0.411764711, 0.0500000007
   3211,  0.714285731,  0.470588237, 0.0500000007
   3212,  0.714285731,  0.529411793, 0.0500000007
   3213,  0.714285731,  0.588235319, 0.0500000007
   3214,  0.714285731,  0.647058845, 0.0500000007
   3215,  0.714285731,   0.70588237, 0.0500000007
   3216,  0.714285731,  0.764705896, 0.0500000007
   3217,  0.714285731,  0.823529422, 0.0500000007
   3218,  0.714285731,  0.882352948, 0.0500000007
   3219,  0.714285731,  0.941176474, 0.0500000007
   3220,  0.714285731,           1., 0.0500000007
   3221,  0.714285731,          -1.,           0.
   3222,  0.714285731, -0.941176474,           0.
   3223,  0.714285731, -0.882352948,           0.
   3224,  0.714285731, -0.823529422,           0.
   3225,  0.714285731, -0.764705896,           0.
   3226,  0.714285731,  -0.70588237,           0.
   3227,  0.714285731, -0.647058845,           0.
   3228,  0.714285731, -0.588235319,           0.
   3229,  0.714285731, -0.529411793,           0.
   3230,  0.714285731, -0.470588237,           0.
   3231,  0.714285731, -0.411764711,           0.
   3232,  0.714285731, -0.352941185,           0.
   3233,  0.714285731, -0.294117659,           0.
   3234,  0.714285731, -0.235294119,           0.
   3235,  0.714285731, -0.176470593,           0.
   3236,  0.714285731, -0.117647059,           0.
   3237,  0.714285731, -0.0588235296,           0.
   3238,  0.714285731,           0.,           0.
   3239,  0.714285731, 0.0588235296,           0.
   3240,  0.714285731,  0.117647059,           0.
   3241,  0.714285731,  0.176470593,           0.
   3242,  0.714285731,  0.235294119,           0.
   3243,  0.714285731,  0.294117659,           0.
   3244,  0.714285731,  0.352941185,           0.
   3245,  0.714285731,  0.411764711,           0.
   3246,  0.714285731,  0.470588237,           0.
   3247,  0.714285731,  0.529411793,           0.
   3248,  0.714285731,  0.588235319,           0.
   3249,  0.714285731,  0.647058845,           0.
   3250,  0.714285731,   0.70588237,           0.
   3251,  0.714285731,  0.764705896,           0.
   3252,  0.714285731,  0.823529422,           0.
   3253,  0.714285731,  0.882352948,           0.
   3254,  0.714285731,  0.941176474,           0.
   3255,  0.714285731,           1.,           0.
   3256,  0.771428585,          -1.,  0.100000001
   3257,  0.771428585, -0.941176474,  0.100000001
   3258,  0.771428585, -0.882352948,  0.100000001
   3259,  0.771428585, -0.823529422,  0.100000001
   3260,  0.771428585, -0.764705896,  0.100000001
   3261,  0.771428585,  -0.70588237,  0.100000001
   3262,  0.771428585, -0.647058845,  0.100000001
   3263,  0.771428585, -0.588235319,  0.100000001
   3264,  0.771428585, -0.529411793,  0.100000001
   3265,  0.771428585, -0.470588237,  0.100000001
   3266,  0.771428585, -0.411764711,  0.100000001
   3267,  0.771428585, -0.352941185,  0.100000001
   3268,  0.771428585, -0.294117659,  0.100000001
   3269,  0.771428585, -0.235294119,  0.100000001
   3270,  0.771428585, -0.176470593,  0.100000001
   3271,  0.771428585, -0.117647059,  0.100000001
   3272,  0.771428585, -0.0588235296,  0.100000001
   3273,  0.771428585,           0.,  0.100000001
   3274,  0.771428585, 0.0588235296,  0.100000001
   3275,  0.771428585,  0.117647059,  0.100000001
   3276,  0.771428585,  0.176470593,  0.100000001
   3277,  0.771428585,  0.235294119,  0.100000001
   3278,  0.771428585,  0.294117659,  0.100000001
   3279,  0.771428585,  0.352941185,  0.100000001
   3280,  0.771428585,  0.411764711,  0.100000001
   3281,  0.771428585,  0.470588237,  0.100000001
   3282,  0.771428585,  0.529411793,  0.100000001
   3283,  0.771428585,  0.588235319,  0.100000001
   3284,  0.771428585,  0.647058845,  0.100000001
   3285,  0.771428585,   0.70588237,  0.100000001
   3286,  0.771428585,  0.764705896,  0.100000001
   3287,  0.771428585,  0.823529422,  0.100000001
   3288,  0.771428585,  0.882352948,  0.100000001
   3289,  0.771428585,  0.941176474,  0.100000001
   3290,  0.771428585,           1.,  0.100000001
   3291,  0.771428585,          -1., 0.0500000007
   3292,  0.771428585, -0.941176474, 0.0500000007
   3293,  0.771428585, -0.882352948, 0.0500000007
   3294,  0.771428585, -0.823529422, 0.0500000007
   3295,  0.771428585, -0.764705896, 0.0500000007
   3296,  0.771428585,  -0.70588237, 0.0500000007
   3297,  0.771428585, -0.647058845, 0.0500000007
   3298,  0.771428585, -0.588235319, 0.0500000007
   3299,  0.771428585, -0.529411793, 0.0500000007
   3300,  0.771428585, -0.470588237, 0.0500000007
   3301,  0.771428585, -0.411764711, 0.0500000007
   3302,  0.771428585, -0.352941185, 0.0500000007
   3303,  0.771428585, -0.294117659, 0.0500000007
   3304,  0.771428585, -0.235294119, 0.0500000007
   3305,  0.771428585, -0.176470593, 0.0500000007
   3306,  0.771428585, -0.117647059, 0.0500000007
   3307,  0.771428585, -0.0588235296, 0.0500000007
   3308,  0.771428585,           0., 0.0500000007
   3309,  0.771428585, 0.0588235296, 0.0500000007
   3310,  0.771428585,  0.117647059, 0.0500000007
   3311,  0.771428585,  0.176470593, 0.0500000007
   3312,  0.771428585,  0.235294119, 0.0500000007
   3313,  0.771428585,  0.294117659, 0.0500000007
   3314,  0.771428585,  0.352941185, 0.0500000007
   3315,  0.771428585,  0.411764711, 0.0500000007
   3316,  0.771428585,  0.470588237, 0.0500000007
   3317,  0.771428585,  0.529411793, 0.0500000007
   3318,  0.771428585,  0.588235319, 0.0500000007
   3319,  0.771428585,  0.647058845, 0.0500000007
   3320,  0.771428585,   0.70588237, 0.0500000007
   3321,  0.771428585,  0.764705896, 0.0500000007
   3322,  0.771428585,  0.823529422, 0.0500000007
   3323,  0.771428585,  0.882352948, 0.0500000007
   3324,  0.771428585,  0.941176474, 0.0500000007
   3325,  0.771428585,           1., 0.0500000007
   3326,  0.771428585,          -1.,           0.
   3327,  0.771428585, -0.941176474,           0.
   3328,  0.771428585, -0.882352948,           0.
   3329,  0.771428585, -0.823529422,           0.
   3330,  0.771428585, -0.764705896,           0.
   3331,  0.771428585,  -0.70588237,           0.
   3332,  0.771428585, -0.647058845,           0.
   3333,  0.771428585, -0.588235319,           0.
   3334,  0.771428585, -0.529411793,           0.
   3335,  0.771428585, -0.470588237,           0.
   3336,  0.771428585, -0.411764711,           0.
   3337,  0.771428585, -0.352941185,           0.
   3338,  0.771428585, -0.294117659,           0.
   3339,  0.771428585, -0.235294119,           0.
   3340,  0.771428585, -0.176470593,           0.
   3341,  0.771428585, -0.117647059,           0.
   3342,  0.771428585, -0.0588235296,           0.
   3343,  0.771428585,           0.,           0.
   3344,  0.771428585, 0.0588235296,           0.
   3345,  0.771428585,  0.117647059,           0.
   3346,  0.771428585,  0.176470593,           0.
   3347,  0.771428585,  0.235294119,           0.
   3348,  0.771428585,  0.294117659,           0.
   3349,  0.771428585,  0.352941185,           0.
   3350,  0.771428585,  0.411764711,           0.
   3351,  0.771428585,  0.470588237,           0.
   3352,  0.771428585,  0.529411793,           0.
   3353,  0.771428585,  0.588235319,           0.
   3354,  0.771428585,  0.647058845,           0.
   3355,  0.771428585,   0.70588237,           0.
   3356,  0.771428585,  0.764705896,           0.
   3357,  0.771428585,  0.823529422,           0.
   3358,  0.771428585,  0.882352948,           0.
   3359,  0.771428585,  0.941176474,           0.
   3360,  0.771428585,           1.,           0.
   3361,  0.828571439,          -1.,  0.100000001
   3362,  0.828571439, -0.941176474,  0.100000001
   3363,  0.828571439, -0.882352948,  0.100000001
   3364,  0.828571439, -0.823529422,  0.100000001
   3365,  0.828571439, -0.764705896,  0.100000001
   3366,  0.828571439,  -0.70588237,  0.100000001
   3367,  0.828571439, -0.647058845,  0.100000001
   3368,  0.828571439, -0.588235319,  0.100000001
   3369,  0.828571439, -0.529411793,  0.100000001
   3370,  0.828571439, -0.470588237,  0.100000001
   3371,  0.828571439, -0.411764711,  0.100000001
   3372,  0.828571439, -0.352941185,  0.100000001
   3373,  0.828571439, -0.294117659,  0.100000001
   3374,  0.828571439, -0.235294119,  0.100000001
   3375,  0.828571439, -0.176470593,  0.100000001
   3376,  0.828571439, -0.117647059,  0.100000001
   3377,  0.828571439, -0.0588235296,  0.100000001
   3378,  0.828571439,           0.,  0.100000001
   3379,  0.828571439, 0.0588235296,  0.100000001
   3380,  0.828571439,  0.117647059,  0.100000001
   3381,  0.828571439,  0.176470593,  0.100000001
   3382,  0.828571439,  0.235294119,  0.100000001
   3383,  0.828571439,  0.294117659,  0.100000001
   3384,  0.828571439,  0.352941185,  0.100000001
   3385,  0.828571439,  0.411764711,  0.100000001
   3386,  0.828571439,  0.470588237,  0.100000001
   3387,  0.828571439,  0.529411793,  0.100000001
   3388,  0.828571439,  0.588235319,  0.100000001
   3389,  0.828571439,  0.647058845,  0.100000001
   3390,  0.828571439,   0.70588237,  0.100000001
   3391,  0.828571439,  0.764705896,  0.100000001
   3392,  0.828571439,  0.823529422,  0.100000001
   3393,  0.828571439,  0.882352948,  0.100000001
   3394,  0.828571439,  0.941176474,  0.100000001
   3395,  0.828571439,           1.,  0.100000001
   3396,  0.828571439,          -1., 0.0500000007
   3397,  0.828571439, -0.941176474, 0.0500000007
   3398,  0.828571439, -0.882352948, 0.0500000007
   3399,  0.828571439, -0.823529422, 0.0500000007
   3400,  0.828571439, -0.764705896, 0.0500000007
   3401,  0.828571439,  -0.70588237, 0.0500000007
   3402,  0.828571439, -0.647058845, 0.0500000007
   3403,  0.828571439, -0.588235319, 0.0500000007
   3404,  0.828571439, -0.529411793, 0.0500000007
   3405,  0.828571439, -0.470588237, 0.0500000007
   3406,  0.828571439, -0.411764711, 0.0500000007
   3407,  0.828571439, -0.352941185, 0.0500000007
   3408,  0.828571439, -0.294117659, 0.0500000007
   3409,  0.828571439, -0.235294119, 0.0500000007
   3410,  0.828571439, -0.176470593, 0.0500000007
   3411,  0.828571439, -0.117647059, 0.0500000007
   3412,  0.828571439, -0.0588235296, 0.0500000007
   3413,  0.828571439,           0., 0.0500000007
   3414,  0.828571439, 0.0588235296, 0.0500000007
   3415,  0.828571439,  0.117647059, 0.0500000007
   3416,  0.828571439,  0.176470593, 0.0500000007
   3417,  0.828571439,  0.235294119, 0.0500000007
   3418,  0.828571439,  0.294117659, 0.0500000007
   3419,  0.828571439,  0.352941185, 0.0500000007
   3420,  0.828571439,  0.411764711, 0.0500000007
   3421,  0.828571439,  0.470588237, 0.0500000007
   3422,  0.828571439,  0.529411793, 0.0500000007
   3423,  0.828571439,  0.588235319, 0.0500000007
   3424,  0.828571439,  0.647058845, 0.0500000007
   3425,  0.828571439,   0.70588237, 0.0500000007
   3426,  0.828571439,  0.764705896, 0.0500000007
   3427,  0.828571439,  0.823529422, 0.0500000007
   3428,  0.828571439,  0.882352948, 0.0500000007
   3429,  0.828571439,  0.941176474, 0.0500000007
   3430,  0.828571439,           1., 0.0500000007
   3431,  0.828571439,          -1.,           0.
   3432,  0.828571439, -0.941176474,           0.
   3433,  0.828571439, -0.882352948,           0.
   3434,  0.828571439, -0.823529422,           0.
   3435,  0.828571439, -0.764705896,           0.
   3436,  0.828571439,  -0.70588237,           0.
   3437,  0.828571439, -0.647058845,           0.
   3438,  0.828571439, -0.588235319,           0.
   3439,  0.828571439, -0.529411793,           0.
   3440,  0.828571439, -0.470588237,           0.
   3441,  0.828571439, -0.411764711,           0.
   3442,  0.828571439, -0.352941185,           0.
   3443,  0.828571439, -0.294117659,           0.
   3444,  0.828571439, -0.235294119,           0.
   3445,  0.828571439, -0.176470593,           0.
   3446,  0.828571439, -0.117647059,           0.
   3447,  0.828571439, -0.0588235296,           0.
   3448,  0.828571439,           0.,           0.
   3449,  0.828571439, 0.0588235296,           0.
   3450,  0.828571439,  0.117647059,           0.
   3451,  0.828571439,  0.176470593,           0.
   3452,  0.828571439,  0.235294119,           0.
   3453,  0.828571439,  0.294117659,           0.
   3454,  0.828571439,  0.352941185,           0.
   3455,  0.828571439,  0.411764711,           0.
   3456,  0.828571439,  0.470588237,           0.
   3457,  0.828571439,  0.529411793,           0.
   3458,  0.828571439,  0.588235319,           0.
   3459,  0.828571439,  0.647058845,           0.
   3460,  0.828571439,   0.70588237,           0.
   3461,  0.828571439,  0.764705896,           0.
   3462,  0.828571439,  0.823529422,           0.
   3463,  0.828571439,  0.882352948,           0.
   3464,  0.828571439,  0.941176474,           0.
   3465,  0.828571439,           1.,           0.
   3466,  0.885714293,          -1.,  0.100000001
   3467,  0.885714293, -0.941176474,  0.100000001
   3468,  0.885714293, -0.882352948,  0.100000001
   3469,  0.885714293, -0.823529422,  0.100000001
   3470,  0.885714293, -0.764705896,  0.100000001
   3471,  0.885714293,  -0.70588237,  0.100000001
   3472,  0.885714293, -0.647058845,  0.100000001
   3473,  0.885714293, -0.588235319,  0.100000001
   3474,  0.885714293, -0.529411793,  0.100000001
   3475,  0.885714293, -0.470588237,  0.100000001
   3476,  0.885714293, -0.411764711,  0.100000001
   3477,  0.885714293, -0.352941185,  0.100000001
   3478,  0.885714293, -0.294117659,  0.100000001
   3479,  0.885714293, -0.235294119,  0.100000001
   3480,  0.885714293, -0.176470593,  0.100000001
   3481,  0.885714293, -0.117647059,  0.100000001
   3482,  0.885714293, -0.0588235296,  0.100000001
   3483,  0.885714293,           0.,  0.100000001
   3484,  0.885714293, 0.0588235296,  0.100000001
   3485,  0.885714293,  0.117647059,  0.100000001
   3486,  0.885714293,  0.176470593,  0.100000001
   3487,  0.885714293,  0.235294119,  0.100000001
   3488,  0.885714293,  0.294117659,  0.100000001
   3489,  0.885714293,  0.352941185,  0.100000001
   3490,  0.885714293,  0.411764711,  0.100000001
   3491,  0.885714293,  0.470588237,  0.100000001
   3492,  0.885714293,  0.529411793,  0.100000001
   3493,  0.885714293,  0.588235319,  0.100000001
   3494,  0.885714293,  0.647058845,  0.100000001
   3495,  0.885714293,   0.70588237,  0.100000001
   3496,  0.885714293,  0.764705896,  0.100000001
   3497,  0.885714293,  0.823529422,  0.100000001
   3498,  0.885714293,  0.882352948,  0.100000001
   3499,  0.885714293,  0.941176474,  0.100000001
   3500,  0.885714293,           1.,  0.100000001
   3501,  0.885714293,          -1., 0.0500000007
   3502,  0.885714293, -0.941176474, 0.0500000007
   3503,  0.885714293, -0.882352948, 0.0500000007
   3504,  0.885714293, -0.823529422, 0.0500000007
   3505,  0.885714293, -0.764705896, 0.0500000007
   3506,  0.885714293,  -0.70588237, 0.0500000007
   3507,  0.885714293, -0.647058845, 0.0500000007
   3508,  0.885714293, -0.588235319, 0.0500000007
   3509,  0.885714293, -0.529411793, 0.0500000007
   3510,  0.885714293, -0.470588237, 0.0500000007
   3511,  0.885714293, -0.411764711, 0.0500000007
   3512,  0.885714293, -0.352941185, 0.0500000007
   3513,  0.885714293, -0.294117659, 0.0500000007
   3514,  0.885714293, -0.235294119, 0.0500000007
   3515,  0.885714293, -0.176470593, 0.0500000007
   3516,  0.885714293, -0.117647059, 0.0500000007
   3517,  0.885714293, -0.0588235296, 0.0500000007
   3518,  0.885714293,           0., 0.0500000007
   3519,  0.885714293, 0.0588235296, 0.0500000007
   3520,  0.885714293,  0.117647059, 0.0500000007
   3521,  0.885714293,  0.176470593, 0.0500000007
   3522,  0.885714293,  0.235294119, 0.0500000007
   3523,  0.885714293,  0.294117659, 0.0500000007
   3524,  0.885714293,  0.352941185, 0.0500000007
   3525,  0.885714293,  0.411764711, 0.0500000007
   3526,  0.885714293,  0.470588237, 0.0500000007
   3527,  0.885714293,  0.529411793, 0.0500000007
   3528,  0.885714293,  0.588235319, 0.0500000007
   3529,  0.885714293,  0.647058845, 0.0500000007
   3530,  0.885714293,   0.70588237, 0.0500000007
   3531,  0.885714293,  0.764705896, 0.0500000007
   3532,  0.885714293,  0.823529422, 0.0500000007
   3533,  0.885714293,  0.882352948, 0.0500000007
   3534,  0.885714293,  0.941176474, 0.0500000007
   3535,  0.885714293,           1., 0.0500000007
   3536,  0.885714293,          -1.,           0.
   3537,  0.885714293, -0.941176474,           0.
   3538,  0.885714293, -0.882352948,           0.
   3539,  0.885714293, -0.823529422,           0.
   3540,  0.885714293, -0.764705896,           0.
   3541,  0.885714293,  -0.70588237,           0.
   3542,  0.885714293, -0.647058845,           0.
   3543,  0.885714293, -0.588235319,           0.
   3544,  0.885714293, -0.529411793,           0.
   3545,  0.885714293, -0.470588237,           0.
   3546,  0.885714293, -0.411764711,           0.
   3547,  0.885714293, -0.352941185,           0.
   3548,  0.885714293, -0.294117659,           0.
   3549,  0.885714293, -0.235294119,           0.
   3550,  0.885714293, -0.176470593,           0.
   3551,  0.885714293, -0.117647059,           0.
   3552,  0.885714293, -0.0588235296,           0.
   3553,  0.885714293,           0.,           0.
   3554,  0.885714293, 0.0588235296,           0.
   3555,  0.885714293,  0.117647059,           0.
   3556,  0.885714293,  0.176470593,           0.
   3557,  0.885714293,  0.235294119,           0.
   3558,  0.885714293,  0.294117659,           0.
   3559,  0.885714293,  0.352941185,           0.
   3560,  0.885714293,  0.411764711,           0.
   3561,  0.885714293,  0.470588237,           0.
   3562,  0.885714293,  0.529411793,           0.
   3563,  0.885714293,  0.588235319,           0.
   3564,  0.885714293,  0.647058845,           0.
   3565,  0.885714293,   0.70588237,           0.
   3566,  0.885714293,  0.764705896,           0.
   3567,  0.885714293,  0.823529422,           0.
   3568,  0.885714293,  0.882352948,           0.
   3569,  0.885714293,  0.941176474,           0.
   3570,  0.885714293,           1.,           0.
   3571,  0.942857146,          -1.,  0.100000001
   3572,  0.942857146, -0.941176474,  0.100000001
   3573,  0.942857146, -0.882352948,  0.100000001
   3574,  0.942857146, -0.823529422,  0.100000001
   3575,  0.942857146, -0.764705896,  0.100000001
   3576,  0.942857146,  -0.70588237,  0.100000001
   3577,  0.942857146, -0.647058845,  0.100000001
   3578,  0.942857146, -0.588235319,  0.100000001
   3579,  0.942857146, -0.529411793,  0.100000001
   3580,  0.942857146, -0.470588237,  0.100000001
   3581,  0.942857146, -0.411764711,  0.100000001
   3582,  0.942857146, -0.352941185,  0.100000001
   3583,  0.942857146, -0.294117659,  0.100000001
   3584,  0.942857146, -0.235294119,  0.100000001
   3585,  0.942857146, -0.176470593,  0.100000001
   3586,  0.942857146, -0.117647059,  0.100000001
   3587,  0.942857146, -0.0588235296,  0.100000001
   3588,  0.942857146,           0.,  0.100000001
   3589,  0.942857146, 0.0588235296,  0.100000001
   3590,  0.942857146,  0.117647059,  0.100000001
   3591,  0.942857146,  0.176470593,  0.100000001
   3592,  0.942857146,  0.235294119,  0.100000001
   3593,  0.942857146,  0.294117659,  0.100000001
   3594,  0.942857146,  0.352941185,  0.100000001
   3595,  0.942857146,  0.411764711,  0.100000001
   3596,  0.942857146,  0.470588237,  0.100000001
   3597,  0.942857146,  0.529411793,  0.100000001
   3598,  0.942857146,  0.588235319,  0.100000001
   3599,  0.942857146,  0.647058845,  0.100000001
   3600,  0.942857146,   0.70588237,  0.100000001
   3601,  0.942857146,  0.764705896,  0.100000001
   3602,  0.942857146,  0.823529422,  0.100000001
   3603,  0.942857146,  0.882352948,  0.100000001
   3604,  0.942857146,  0.941176474,  0.100000001
   3605,  0.942857146,           1.,  0.100000001
   3606,  0.942857146,          -1., 0.0500000007
   3607,  0.942857146, -0.941176474, 0.0500000007
   3608,  0.942857146, -0.882352948, 0.0500000007
   3609,  0.942857146, -0.823529422, 0.0500000007
   3610,  0.942857146, -0.764705896, 0.0500000007
   3611,  0.942857146,  -0.70588237, 0.0500000007
   3612,  0.942857146, -0.647058845, 0.0500000007
   3613,  0.942857146, -0.588235319, 0.0500000007
   3614,  0.942857146, -0.529411793, 0.0500000007
   3615,  0.942857146, -0.470588237, 0.0500000007
   3616,  0.942857146, -0.411764711, 0.0500000007
   3617,  0.942857146, -0.352941185, 0.0500000007
   3618,  0.942857146, -0.294117659, 0.0500000007
   3619,  0.942857146, -0.235294119, 0.0500000007
   3620,  0.942857146, -0.176470593, 0.0500000007
   3621,  0.942857146, -0.117647059, 0.0500000007
   3622,  0.942857146, -0.0588235296, 0.0500000007
   3623,  0.942857146,           0., 0.0500000007
   3624,  0.942857146, 0.0588235296, 0.0500000007
   3625,  0.942857146,  0.117647059, 0.0500000007
   3626,  0.942857146,  0.176470593, 0.0500000007
   3627,  0.942857146,  0.235294119, 0.0500000007
   3628,  0.942857146,  0.294117659, 0.0500000007
   3629,  0.942857146,  0.352941185, 0.0500000007
   3630,  0.942857146,  0.411764711, 0.0500000007
   3631,  0.942857146,  0.470588237, 0.0500000007
   3632,  0.942857146,  0.529411793, 0.0500000007
   3633,  0.942857146,  0.588235319, 0.0500000007
   3634,  0.942857146,  0.647058845, 0.0500000007
   3635,  0.942857146,   0.70588237, 0.0500000007
   3636,  0.942857146,  0.764705896, 0.0500000007
   3637,  0.942857146,  0.823529422, 0.0500000007
   3638,  0.942857146,  0.882352948, 0.0500000007
   3639,  0.942857146,  0.941176474, 0.0500000007
   3640,  0.942857146,           1., 0.0500000007
   3641,  0.942857146,          -1.,           0.
   3642,  0.942857146, -0.941176474,           0.
   3643,  0.942857146, -0.882352948,           0.
   3644,  0.942857146, -0.823529422,           0.
   3645,  0.942857146, -0.764705896,           0.
   3646,  0.942857146,  -0.70588237,           0.
   3647,  0.942857146, -0.647058845,           0.
   3648,  0.942857146, -0.588235319,           0.
   3649,  0.942857146, -0.529411793,           0.
   3650,  0.942857146, -0.470588237,           0.
   3651,  0.942857146, -0.411764711,           0.
   3652,  0.942857146, -0.352941185,           0.
   3653,  0.942857146, -0.294117659,           0.
   3654,  0.942857146, -0.235294119,           0.
   3655,  0.942857146, -0.176470593,           0.
   3656,  0.942857146, -0.117647059,           0.
   3657,  0.942857146, -0.0588235296,           0.
   3658,  0.942857146,           0.,           0.
   3659,  0.942857146, 0.0588235296,           0.
   3660,  0.942857146,  0.117647059,           0.
   3661,  0.942857146,  0.176470593,           0.
   3662,  0.942857146,  0.235294119,           0.
   3663,  0.942857146,  0.294117659,           0.
   3664,  0.942857146,  0.352941185,           0.
   3665,  0.942857146,  0.411764711,           0.
   3666,  0.942857146,  0.470588237,           0.
   3667,  0.942857146,  0.529411793,           0.
   3668,  0.942857146,  0.588235319,           0.
   3669,  0.942857146,  0.647058845,           0.
   3670,  0.942857146,   0.70588237,           0.
   3671,  0.942857146,  0.764705896,           0.
   3672,  0.942857146,  0.823529422,           0.
   3673,  0.942857146,  0.882352948,           0.
   3674,  0.942857146,  0.941176474,           0.
   3675,  0.942857146,           1.,           0.
   3676,           1.,          -1.,  0.100000001
   3677,           1., -0.941176474,  0.100000001
   3678,           1., -0.882352948,  0.100000001
   3679,           1., -0.823529422,  0.100000001
   3680,           1., -0.764705896,  0.100000001
   3681,           1.,  -0.70588237,  0.100000001
   3682,           1., -0.647058845,  0.100000001
   3683,           1., -0.588235319,  0.100000001
   3684,           1., -0.529411793,  0.100000001
   3685,           1., -0.470588237,  0.100000001
   3686,           1., -0.411764711,  0.100000001
   3687,           1., -0.352941185,  0.100000001
   3688,           1., -0.294117659,  0.100000001
   3689,           1., -0.235294119,  0.100000001
   3690,           1., -0.176470593,  0.100000001
   3691,           1., -0.117647059,  0.100000001
   3692,           1., -0.0588235296,  0.100000001
   3693,           1.,           0.,  0.100000001
   3694,           1., 0.0588235296,  0.100000001
   3695,           1.,  0.117647059,  0.100000001
   3696,           1.,  0.176470593,  0.100000001
   3697,           1.,  0.235294119,  0.100000001
   3698,           1.,  0.294117659,  0.100000001
   3699,           1.,  0.352941185,  0.100000001
   3700,           1.,  0.411764711,  0.100000001
   3701,           1.,  0.470588237,  0.100000001
   3702,           1.,  0.529411793,  0.100000001
   3703,           1.,  0.588235319,  0.100000001
   3704,           1.,  0.647058845,  0.100000001
   3705,           1.,   0.70588237,  0.100000001
   3706,           1.,  0.764705896,  0.100000001
   3707,           1.,  0.823529422,  0.100000001
   3708,           1.,  0.882352948,  0.100000001
   3709,           1.,  0.941176474,  0.100000001
   3710,           1.,           1.,  0.100000001
   3711,           1.,          -1., 0.0500000007
   3712,           1., -0.941176474, 0.0500000007
   3713,           1., -0.882352948, 0.0500000007
   3714,           1., -0.823529422, 0.0500000007
   3715,           1., -0.764705896, 0.0500000007
   3716,           1.,  -0.70588237, 0.0500000007
   3717,           1., -0.647058845, 0.0500000007
   3718,           1., -0.588235319, 0.0500000007
   3719,           1., -0.529411793, 0.0500000007
   3720,           1., -0.470588237, 0.0500000007
   3721,           1., -0.411764711, 0.0500000007
   3722,           1., -0.352941185, 0.0500000007
   3723,           1., -0.294117659, 0.0500000007
   3724,           1., -0.235294119, 0.0500000007
   3725,           1., -0.176470593, 0.0500000007
   3726,           1., -0.117647059, 0.0500000007
   3727,           1., -0.0588235296, 0.0500000007
   3728,           1.,           0., 0.0500000007
   3729,           1., 0.0588235296, 0.0500000007
   3730,           1.,  0.117647059, 0.0500000007
   3731,           1.,  0.176470593, 0.0500000007
   3732,           1.,  0.235294119, 0.0500000007
   3733,           1.,  0.294117659, 0.0500000007
   3734,           1.,  0.352941185, 0.0500000007
   3735,           1.,  0.411764711, 0.0500000007
   3736,           1.,  0.470588237, 0.0500000007
   3737,           1.,  0.529411793, 0.0500000007
   3738,           1.,  0.588235319, 0.0500000007
   3739,           1.,  0.647058845, 0.0500000007
   3740,           1.,   0.70588237, 0.0500000007
   3741,           1.,  0.764705896, 0.0500000007
   3742,           1.,  0.823529422, 0.0500000007
   3743,           1.,  0.882352948, 0.0500000007
   3744,           1.,  0.941176474, 0.0500000007
   3745,           1.,           1., 0.0500000007
   3746,           1.,          -1.,           0.
   3747,           1., -0.941176474,           0.
   3748,           1., -0.882352948,           0.
   3749,           1., -0.823529422,           0.
   3750,           1., -0.764705896,           0.
   3751,           1.,  -0.70588237,           0.
   3752,           1., -0.647058845,           0.
   3753,           1., -0.588235319,           0.
   3754,           1., -0.529411793,           0.
   3755,           1., -0.470588237,           0.
   3756,           1., -0.411764711,           0.
   3757,           1., -0.352941185,           0.
   3758,           1., -0.294117659,           0.
   3759,           1., -0.235294119,           0.
   3760,           1., -0.176470593,           0.
   3761,           1., -0.117647059,           0.
   3762,           1., -0.0588235296,           0.
   3763,           1.,           0.,           0.
   3764,           1., 0.0588235296,           0.
   3765,           1.,  0.117647059,           0.
   3766,           1.,  0.176470593,           0.
   3767,           1.,  0.235294119,           0.
   3768,           1.,  0.294117659,           0.
   3769,           1.,  0.352941185,           0.
   3770,           1.,  0.411764711,           0.
   3771,           1.,  0.470588237,           0.
   3772,           1.,  0.529411793,           0.
   3773,           1.,  0.588235319,           0.
   3774,           1.,  0.647058845,           0.
   3775,           1.,   0.70588237,           0.
   3776,           1.,  0.764705896,           0.
   3777,           1.,  0.823529422,           0.
   3778,           1.,  0.882352948,           0.
   3779,           1.,  0.941176474,           0.
   3780,           1.,           1.,           0.
*Element, type=C3D8R
   1,  106,  107,  142,  141,    1,    2,   37,   36
   2,  107,  108,  143,  142,    2,    3,   38,   37
   3,  108,  109,  144,  143,    3,    4,   39,   38
   4,  109,  110,  145,  144,    4,    5,   40,   39
   5,  110,  111,  146,  145,    5,    6,   41,   40
   6,  111,  112,  147,  146,    6,    7,   42,   41
   7,  112,  113,  148,  147,    7,    8,   43,   42
   8,  113,  114,  149,  148,    8,    9,   44,   43
   9,  114,  115,  150,  149,    9,   10,   45,   44
  10,  115,  116,  151,  150,   10,   11,   46,   45
  11,  116,  117,  152,  151,   11,   12,   47,   46
  12,  117,  118,  153,  152,   12,   13,   48,   47
  13,  118,  119,  154,  153,   13,   14,   49,   48
  14,  119,  120,  155,  154,   14,   15,   50,   49
  15,  120,  121,  156,  155,   15,   16,   51,   50
  16,  121,  122,  157,  156,   16,   17,   52,   51
  17,  122,  123,  158,  157,   17,   18,   53,   52
  18,  123,  124,  159,  158,   18,   19,   54,   53
  19,  124,  125,  160,  159,   19,   20,   55,   54
  20,  125,  126,  161,  160,   20,   21,   56,   55
  21,  126,  127,  162,  161,   21,   22,   57,   56
  22,  127,  128,  163,  162,   22,   23,   58,   57
  23,  128,  129,  164,  163,   23,   24,   59,   58
  24,  129,  130,  165,  164,   24,   25,   60,   59
  25,  130,  131,  166,  165,   25,   26,   61,   60
  26,  131,  132,  167,  166,   26,   27,   62,   61
  27,  132,  133,  168,  167,   27,   28,   63,   62
  28,  133,  134,  169,  168,   28,   29,   64,   63
  29,  134,  135,  170,  169,   29,   30,   65,   64
  30,  135,  136,  171,  170,   30,   31,   66,   65
  31,  136,  137,  172,  171,   31,   32,   67,   66
  32,  137,  138,  173,  172,   32,   33,   68,   67
  33,  138,  139,  174,  173,   33,   34,   69,   68
  34,  139,  140,  175,  174,   34,   35,   70,   69
  35,  141,  142,  177,  176,   36,   37,   72,   71
  36,  142,  143,  178,  177,   37,   38,   73,   72
  37,  143,  144,  179,  178,   38,   39,   74,   73
  38,  144,  145,  180,  179,   39,   40,   75,   74
  39,  145,  146,  181,  180,   40,   41,   76,   75
  40,  146,  147,  182,  181,   41,   42,   77,   76
  41,  147,  148,  183,  182,   42,   43,   78,   77
  42,  148,  149,  184,  183,   43,   44,   79,   78
  43,  149,  150,  185,  184,   44,   45,   80,   79
  44,  150,  151,  186,  185,   45,   46,   81,   80
  45,  151,  152,  187,  186,   46,   47,   82,   81
  46,  152,  153,  188,  187,   47,   48,   83,   82
  47,  153,  154,  189,  188,   48,   49,   84,   83
  48,  154,  155,  190,  189,   49,   50,   85,   84
  49,  155,  156,  191,  190,   50,   51,   86,   85
  50,  156,  157,  192,  191,   51,   52,   87,   86
  51,  157,  158,  193,  192,   52,   53,   88,   87
  52,  158,  159,  194,  193,   53,   54,   89,   88
  53,  159,  160,  195,  194,   54,   55,   90,   89
  54,  160,  161,  196,  195,   55,   56,   91,   90
  55,  161,  162,  197,  196,   56,   57,   92,   91
  56,  162,  163,  198,  197,   57,   58,   93,   92
  57,  163,  164,  199,  198,   58,   59,   94,   93
  58,  164,  165,  200,  199,   59,   60,   95,   94
  59,  165,  166,  201,  200,   60,   61,   96,   95
  60,  166,  167,  202,  201,   61,   62,   97,   96
  61,  167,  168,  203,  202,   62,   63,   98,   97
  62,  168,  169,  204,  203,   63,   64,   99,   98
  63,  169,  170,  205,  204,   64,   65,  100,   99
  64,  170,  171,  206,  205,   65,   66,  101,  100
  65,  171,  172,  207,  206,   66,   67,  102,  101
  66,  172,  173,  208,  207,   67,   68,  103,  102
  67,  173,  174,  209,  208,   68,   69,  104,  103
  68,  174,  175,  210,  209,   69,   70,  105,  104
  69,  211,  212,  247,  246,  106,  107,  142,  141
  70,  212,  213,  248,  247,  107,  108,  143,  142
  71,  213,  214,  249,  248,  108,  109,  144,  143
  72,  214,  215,  250,  249,  109,  110,  145,  144
  73,  215,  216,  251,  250,  110,  111,  146,  145
  74,  216,  217,  252,  251,  111,  112,  147,  146
  75,  217,  218,  253,  252,  112,  113,  148,  147
  76,  218,  219,  254,  253,  113,  114,  149,  148
  77,  219,  220,  255,  254,  114,  115,  150,  149
  78,  220,  221,  256,  255,  115,  116,  151,  150
  79,  221,  222,  257,  256,  116,  117,  152,  151
  80,  222,  223,  258,  257,  117,  118,  153,  152
  81,  223,  224,  259,  258,  118,  119,  154,  153
  82,  224,  225,  260,  259,  119,  120,  155,  154
  83,  225,  226,  261,  260,  120,  121,  156,  155
  84,  226,  227,  262,  261,  121,  122,  157,  156
  85,  227,  228,  263,  262,  122,  123,  158,  157
  86,  228,  229,  264,  263,  123,  124,  159,  158
  87,  229,  230,  265,  264,  124,  125,  160,  159
  88,  230,  231,  266,  265,  125,  126,  161,  160
  89,  231,  232,  267,  266,  126,  127,  162,  161
  90,  232,  233,  268,  267,  127,  128,  163,  162
  91,  233,  234,  269,  268,  128,  129,  164,  163
  92,  234,  235,  270,  269,  129,  130,  165,  164
  93,  235,  236,  271,  270,  130,  131,  166,  165
  94,  236,  237,  272,  271,  131,  132,  167,  166
  95,  237,  238,  273,  272,  132,  133,  168,  167
  96,  238,  239,  274,  273,  133,  134,  169,  168
  97,  239,  240,  275,  274,  134,  135,  170,  169
  98,  240,  241,  276,  275,  135,  136,  171,  170
  99,  241,  242,  277,  276,  136,  137,  172,  171
 100,  242,  243,  278,  277,  137,  138,  173,  172
 101,  243,  244,  279,  278,  138,  139,  174,  173
 102,  244,  245,  280,  279,  139,  140,  175,  174
 103,  246,  247,  282,  281,  141,  142,  177,  176
 104,  247,  248,  283,  282,  142,  143,  178,  177
 105,  248,  249,  284,  283,  143,  144,  179,  178
 106,  249,  250,  285,  284,  144,  145,  180,  179
 107,  250,  251,  286,  285,  145,  146,  181,  180
 108,  251,  252,  287,  286,  146,  147,  182,  181
 109,  252,  253,  288,  287,  147,  148,  183,  182
 110,  253,  254,  289,  288,  148,  149,  184,  183
 111,  254,  255,  290,  289,  149,  150,  185,  184
 112,  255,  256,  291,  290,  150,  151,  186,  185
 113,  256,  257,  292,  291,  151,  152,  187,  186
 114,  257,  258,  293,  292,  152,  153,  188,  187
 115,  258,  259,  294,  293,  153,  154,  189,  188
 116,  259,  260,  295,  294,  154,  155,  190,  189
 117,  260,  261,  296,  295,  155,  156,  191,  190
 118,  261,  262,  297,  296,  156,  157,  192,  191
 119,  262,  263,  298,  297,  157,  158,  193,  192
 120,  263,  264,  299,  298,  158,  159,  194,  193
 121,  264,  265,  300,  299,  159,  160,  195,  194
 122,  265,  266,  301,  300,  160,  161,  196,  195
 123,  266,  267,  302,  301,  161,  162,  197,  196
 124,  267,  268,  303,  302,  162,  163,  198,  197
 125,  268,  269,  304,  303,  163,  164,  199,  198
 126,  269,  270,  305,  304,  164,  165,  200,  199
 127,  270,  271,  306,  305,  165,  166,  201,  200
 128,  271,  272,  307,  306,  166,  167,  202,  201
 129,  272,  273,  308,  307,  167,  168,  203,  202
 130,  273,  274,  309,  308,  168,  169,  204,  203
 131,  274,  275,  310,  309,  169,  170,  205,  204
 132,  275,  276,  311,  310,  170,  171,  206,  205
 133,  276,  277,  312,  311,  171,  172,  207,  206
 134,  277,  278,  313,  312,  172,  173,  208,  207
 135,  278,  279,  314,  313,  173,  174,  209,  208
 136,  279,  280,  315,  314,  174,  175,  210,  209
 137,  316,  317,  352,  351,  211,  212,  247,  246
 138,  317,  318,  353,  352,  212,  213,  248,  247
 139,  318,  319,  354,  353,  213,  214,  249,  248
 140,  319,  320,  355,  354,  214,  215,  250,  249
 141,  320,  321,  356,  355,  215,  216,  251,  250
 142,  321,  322,  357,  356,  216,  217,  252,  251
 143,  322,  323,  358,  357,  217,  218,  253,  252
 144,  323,  324,  359,  358,  218,  219,  254,  253
 145,  324,  325,  360,  359,  219,  220,  255,  254
 146,  325,  326,  361,  360,  220,  221,  256,  255
 147,  326,  327,  362,  361,  221,  222,  257,  256
 148,  327,  328,  363,  362,  222,  223,  258,  257
 149,  328,  329,  364,  363,  223,  224,  259,  258
 150,  329,  330,  365,  364,  224,  225,  260,  259
 151,  330,  331,  366,  365,  225,  226,  261,  260
 152,  331,  332,  367,  366,  226,  227,  262,  261
 153,  332,  333,  368,  367,  227,  228,  263,  262
 154,  333,  334,  369,  368,  228,  229,  264,  263
 155,  334,  335,  370,  369,  229,  230,  265,  264
 156,  335,  336,  371,  370,  230,  231,  266,  265
 157,  336,  337,  372,  371,  231,  232,  267,  266
 158,  337,  338,  373,  372,  232,  233,  268,  267
 159,  338,  339,  374,  373,  233,  234,  269,  268
 160,  339,  340,  375,  374,  234,  235,  270,  269
 161,  340,  341,  376,  375,  235,  236,  271,  270
 162,  341,  342,  377,  376,  236,  237,  272,  271
 163,  342,  343,  378,  377,  237,  238,  273,  272
 164,  343,  344,  379,  378,  238,  239,  274,  273
 165,  344,  345,  380,  379,  239,  240,  275,  274
 166,  345,  346,  381,  380,  240,  241,  276,  275
 167,  346,  347,  382,  381,  241,  242,  277,  276
 168,  347,  348,  383,  382,  242,  243,  278,  277
 169,  348,  349,  384,  383,  243,  244,  279,  278
 170,  349,  350,  385,  384,  244,  245,  280,  279
 171,  351,  352,  387,  386,  246,  247,  282,  281
 172,  352,  353,  388,  387,  247,  248,  283,  282
 173,  353,  354,  389,  388,  248,  249,  284,  283
 174,  354,  355,  390,  389,  249,  250,  285,  284
 175,  355,  356,  391,  390,  250,  251,  286,  285
 176,  356,  357,  392,  391,  251,  252,  287,  286
 177,  357,  358,  393,  392,  252,  253,  288,  287
 178,  358,  359,  394,  393,  253,  254,  289,  288
 179,  359,  360,  395,  394,  254,  255,  290,  289
 180,  360,  361,  396,  395,  255,  256,  291,  290
 181,  361,  362,  397,  396,  256,  257,  292,  291
 182,  362,  363,  398,  397,  257,  258,  293,  292
 183,  363,  364,  399,  398,  258,  259,  294,  293
 184,  364,  365,  400,  399,  259,  260,  295,  294
 185,  365,  366,  401,  400,  260,  261,  296,  295
 186,  366,  367,  402,  401,  261,  262,  297,  296
 187,  367,  368,  403,  402,  262,  263,  298,  297
 188,  368,  369,  404,  403,  263,  264,  299,  298
 189,  369,  370,  405,  404,  264,  265,  300,  299
 190,  370,  371,  406,  405,  265,  266,  301,  300
 191,  371,  372,  407,  406,  266,  267,  302,  301
 192,  372,  373,  408,  407,  267,  268,  303,  302
 193,  373,  374,  409,  408,  268,  269,  304,  303
 194,  374,  375,  410,  409,  269,  270,  305,  304
 195,  375,  376,  411,  410,  270,  271,  306,  305
 196,  376,  377,  412,  411,  271,  272,  307,  306
 197,  377,  378,  413,  412,  272,  273,  308,  307
 198,  378,  379,  414,  413,  273,  274,  309,  308
 199,  379,  380,  415,  414,  274,  275,  310,  309
 200,  380,  381,  416,  415,  275,  276,  311,  310
 201,  381,  382,  417,  416,  276,  277,  312,  311
 202,  382,  383,  418,  417,  277,  278,  313,  312
 203,  383,  384,  419,  418,  278,  279,  314,  313
 204,  384,  385,  420,  419,  279,  280,  315,  314
 205,  421,  422,  457,  456,  316,  317,  352,  351
 206,  422,  423,  458,  457,  317,  318,  353,  352
 207,  423,  424,  459,  458,  318,  319,  354,  353
 208,  424,  425,  460,  459,  319,  320,  355,  354
 209,  425,  426,  461,  460,  320,  321,  356,  355
 210,  426,  427,  462,  461,  321,  322,  357,  356
 211,  427,  428,  463,  462,  322,  323,  358,  357
 212,  428,  429,  464,  463,  323,  324,  359,  358
 213,  429,  430,  465,  464,  324,  325,  360,  359
 214,  430,  431,  466,  465,  325,  326,  361,  360
 215,  431,  432,  467,  466,  326,  327,  362,  361
 216,  432,  433,  468,  467,  327,  328,  363,  362
 217,  433,  434,  469,  468,  328,  329,  364,  363
 218,  434,  435,  470,  469,  329,  330,  365,  364
 219,  435,  436,  471,  470,  330,  331,  366,  365
 220,  436,  437,  472,  471,  331,  332,  367,  366
 221,  437,  438,  473,  472,  332,  333,  368,  367
 222,  438,  439,  474,  473,  333,  334,  369,  368
 223,  439,  440,  475,  474,  334,  335,  370,  369
 224,  440,  441,  476,  475,  335,  336,  371,  370
 225,  441,  442,  477,  476,  336,  337,  372,  371
 226,  442,  443,  478,  477,  337,  338,  373,  372
 227,  443,  444,  479,  478,  338,  339,  374,  373
 228,  444,  445,  480,  479,  339,  340,  375,  374
 229,  445,  446,  481,  480,  340,  341,  376,  375
 230,  446,  447,  482,  481,  341,  342,  377,  376
 231,  447,  448,  483,  482,  342,  343,  378,  377
 232,  448,  449,  484,  483,  343,  344,  379,  378
 233,  449,  450,  485,  484,  344,  345,  380,  379
 234,  450,  451,  486,  485,  345,  346,  381,  380
 235,  451,  452,  487,  486,  346,  347,  382,  381
 236,  452,  453,  488,  487,  347,  348,  383,  382
 237,  453,  454,  489,  488,  348,  349,  384,  383
 238,  454,  455,  490,  489,  349,  350,  385,  384
 239,  456,  457,  492,  491,  351,  352,  387,  386
 240,  457,  458,  493,  492,  352,  353,  388,  387
 241,  458,  459,  494,  493,  353,  354,  389,  388
 242,  459,  460,  495,  494,  354,  355,  390,  389
 243,  460,  461,  496,  495,  355,  356,  391,  390
 244,  461,  462,  497,  496,  356,  357,  392,  391
 245,  462,  463,  498,  497,  357,  358,  393,  392
 246,  463,  464,  499,  498,  358,  359,  394,  393
 247,  464,  465,  500,  499,  359,  360,  395,  394
 248,  465,  466,  501,  500,  360,  361,  396,  395
 249,  466,  467,  502,  501,  361,  362,  397,  396
 250,  467,  468,  503,  502,  362,  363,  398,  397
 251,  468,  469,  504,  503,  363,  364,  399,  398
 252,  469,  470,  505,  504,  364,  365,  400,  399
 253,  470,  471,  506,  505,  365,  366,  401,  400
 254,  471,  472,  507,  506,  366,  367,  402,  401
 255,  472,  473,  508,  507,  367,  368,  403,  402
 256,  473,  474,  509,  508,  368,  369,  404,  403
 257,  474,  475,  510,  509,  369,  370,  405,  404
 258,  475,  476,  511,  510,  370,  371,  406,  405
 259,  476,  477,  512,  511,  371,  372,  407,  406
 260,  477,  478,  513,  512,  372,  373,  408,  407
 261,  478,  479,  514,  513,  373,  374,  409,  408
 262,  479,  480,  515,  514,  374,  375,  410,  409
 263,  480,  481,  516,  515,  375,  376,  411,  410
 264,  481,  482,  517,  516,  376,  377,  412,  411
 265,  482,  483,  518,  517,  377,  378,  413,  412
 266,  483,  484,  519,  518,  378,  379,  414,  413
 267,  484,  485,  520,  519,  379,  380,  415,  414
 268,  485,  486,  521,  520,  380,  381,  416,  415
 269,  486,  487,  522,  521,  381,  382,  417,  416
 270,  487,  488,  523,  522,  382,  383,  418,  417
 271,  488,  489,  524,  523,  383,  384,  419,  418
 272,  489,  490,  525,  524,  384,  385,  420,  419
 273,  526,  527,  562,  561,  421,  422,  457,  456
 274,  527,  528,  563,  562,  422,  423,  458,  457
 275,  528,  529,  564,  563,  423,  424,  459,  458
 276,  529,  530,  565,  564,  424,  425,  460,  459
 277,  530,  531,  566,  565,  425,  426,  461,  460
 278,  531,  532,  567,  566,  426,  427,  462,  461
 279,  532,  533,  568,  567,  427,  428,  463,  462
 280,  533,  534,  569,  568,  428,  429,  464,  463
 281,  534,  535,  570,  569,  429,  430,  465,  464
 282,  535,  536,  571,  570,  430,  431,  466,  465
 283,  536,  537,  572,  571,  431,  432,  467,  466
 284,  537,  538,  573,  572,  432,  433,  468,  467
 285,  538,  539,  574,  573,  433,  434,  469,  468
 286,  539,  540,  575,  574,  434,  435,  470,  469
 287,  540,  541,  576,  575,  435,  436,  471,  470
 288,  541,  542,  577,  576,  436,  437,  472,  471
 289,  542,  543,  578,  577,  437,  438,  473,  472
 290,  543,  544,  579,  578,  438,  439,  474,  473
 291,  544,  545,  580,  579,  439,  440,  475,  474
 292,  545,  546,  581,  580,  440,  441,  476,  475
 293,  546,  547,  582,  581,  441,  442,  477,  476
 294,  547,  548,  583,  582,  442,  443,  478,  477
 295,  548,  549,  584,  583,  443,  444,  479,  478
 296,  549,  550,  585,  584,  444,  445,  480,  479
 297,  550,  551,  586,  585,  445,  446,  481,  480
 298,  551,  552,  587,  586,  446,  447,  482,  481
 299,  552,  553,  588,  587,  447,  448,  483,  482
 300,  553,  554,  589,  588,  448,  449,  484,  483
 301,  554,  555,  590,  589,  449,  450,  485,  484
 302,  555,  556,  591,  590,  450,  451,  486,  485
 303,  556,  557,  592,  591,  451,  452,  487,  486
 304,  557,  558,  593,  592,  452,  453,  488,  487
 305,  558,  559,  594,  593,  453,  454,  489,  488
 306,  559,  560,  595,  594,  454,  455,  490,  489
 307,  561,  562,  597,  596,  456,  457,  492,  491
 308,  562,  563,  598,  597,  457,  458,  493,  492
 309,  563,  564,  599,  598,  458,  459,  494,  493
 310,  564,  565,  600,  599,  459,  460,  495,  494
 311,  565,  566,  601,  600,  460,  461,  496,  495
 312,  566,  567,  602,  601,  461,  462,  497,  496
 313,  567,  568,  603,  602,  462,  463,  498,  497
 314,  568,  569,  604,  603,  463,  464,  499,  498
 315,  569,  570,  605,  604,  464,  465,  500,  499
 316,  570,  571,  606,  605,  465,  466,  501,  500
 317,  571,  572,  607,  606,  466,  467,  502,  501
 318,  572,  573,  608,  607,  467,  468,  503,  502
 319,  573,  574,  609,  608,  468,  469,  504,  503
 320,  574,  575,  610,  609,  469,  470,  505,  504
 321,  575,  576,  611,  610,  470,  471,  506,  505
 322,  576,  577,  612,  611,  471,  472,  507,  506
 323,  577,  578,  613,  612,  472,  473,  508,  507
 324,  578,  579,  614,  613,  473,  474,  509,  508
 325,  579,  580,  615,  614,  474,  475,  510,  509
 326,  580,  581,  616,  615,  475,  476,  511,  510
 327,  581,  582,  617,  616,  476,  477,  512,  511
 328,  582,  583,  618,  617,  477,  478,  513,  512
 329,  583,  584,  619,  618,  478,  479,  514,  513
 330,  584,  585,  620,  619,  479,  480,  515,  514
 331,  585,  586,  621,  620,  480,  481,  516,  515
 332,  586,  587,  622,  621,  481,  482,  517,  516
 333,  587,  588,  623,  622,  482,  483,  518,  517
 334,  588,  589,  624,  623,  483,  484,  519,  518
 335,  589,  590,  625,  624,  484,  485,  520,  519
 336,  590,  591,  626,  625,  485,  486,  521,  520
 337,  591,  592,  627,  626,  486,  487,  522,  521
 338,  592,  593,  628,  627,  487,  488,  523,  522
 339,  593,  594,  629,  628,  488,  489,  524,  523
 340,  594,  595,  630,  629,  489,  490,  525,  524
 341,  631,  632,  667,  666,  526,  527,  562,  561
 342,  632,  633,  668,  667,  527,  528,  563,  562
 343,  633,  634,  669,  668,  528,  529,  564,  563
 344,  634,  635,  670,  669,  529,  530,  565,  564
 345,  635,  636,  671,  670,  530,  531,  566,  565
 346,  636,  637,  672,  671,  531,  532,  567,  566
 347,  637,  638,  673,  672,  532,  533,  568,  567
 348,  638,  639,  674,  673,  533,  534,  569,  568
 349,  639,  640,  675,  674,  534,  535,  570,  569
 350,  640,  641,  676,  675,  535,  536,  571,  570
 351,  641,  642,  677,  676,  536,  537,  572,  571
 352,  642,  643,  678,  677,  537,  538,  573,  572
 353,  643,  644,  679,  678,  538,  539,  574,  573
 354,  644,  645,  680,  679,  539,  540,  575,  574
 355,  645,  646,  681,  680,  540,  541,  576,  575
 356,  646,  647,  682,  681,  541,  542,  577,  576
 357,  647,  648,  683,  682,  542,  543,  578,  577
 358,  648,  649,  684,  683,  543,  544,  579,  578
 359,  649,  650,  685,  684,  544,  545,  580,  579
 360,  650,  651,  686,  685,  545,  546,  581,  580
 361,  651,  652,  687,  686,  546,  547,  582,  581
 362,  652,  653,  688,  687,  547,  548,  583,  582
 363,  653,  654,  689,  688,  548,  549,  584,  583
 364,  654,  655,  690,  689,  549,  550,  585,  584
 365,  655,  656,  691,  690,  550,  551,  586,  585
 366,  656,  657,  692,  691,  551,  552,  587,  586
 367,  657,  658,  693,  692,  552,  553,  588,  587
 368,  658,  659,  694,  693,  553,  554,  589,  588
 369,  659,  660,  695,  694,  554,  555,  590,  589
 370,  660,  661,  696,  695,  555,  556,  591,  590
 371,  661,  662,  697,  696,  556,  557,  592,  591
 372,  662,  663,  698,  697,  557,  558,  593,  592
 373,  663,  664,  699,  698,  558,  559,  594,  593
 374,  664,  665,  700,  699,  559,  560,  595,  594
 375,  666,  667,  702,  701,  561,  562,  597,  596
 376,  667,  668,  703,  702,  562,  563,  598,  597
 377,  668,  669,  704,  703,  563,  564,  599,  598
 378,  669,  670,  705,  704,  564,  565,  600,  599
 379,  670,  671,  706,  705,  565,  566,  601,  600
 380,  671,  672,  707,  706,  566,  567,  602,  601
 381,  672,  673,  708,  707,  567,  568,  603,  602
 382,  673,  674,  709,  708,  568,  569,  604,  603
 383,  674,  675,  710,  709,  569,  570,  605,  604
 384,  675,  676,  711,  710,  570,  571,  606,  605
 385,  676,  677,  712,  711,  571,  572,  607,  606
 386,  677,  678,  713,  712,  572,  573,  608,  607
 387,  678,  679,  714,  713,  573,  574,  609,  608
 388,  679,  680,  715,  714,  574,  575,  610,  609
 389,  680,  681,  716,  715,  575,  576,  611,  610
 390,  681,  682,  717,  716,  576,  577,  612,  611
 391,  682,  683,  718,  717,  577,  578,  613,  612
 392,  683,  684,  719,  718,  578,  579,  614,  613
 393,  684,  685,  720,  719,  579,  580,  615,  614
 394,  685,  686,  721,  720,  580,  581,  616,  615
 395,  686,  687,  722,  721,  581,  582,  617,  616
 396,  687,  688,  723,  722,  582,  583,  618,  617
 397,  688,  689,  724,  723,  583,  584,  619,  618
 398,  689,  690,  725,  724,  584,  585,  620,  619
 399,  690,  691,  726,  725,  585,  586,  621,  620
 400,  691,  692,  727,  726,  586,  587,  622,  621
 401,  692,  693,  728,  727,  587,  588,  623,  622
 402,  693,  694,  729,  728,  588,  589,  624,  623
 403,  694,  695,  730,  729,  589,  590,  625,  624
 404,  695,  696,  731,  730,  590,  591,  626,  625
 405,  696,  697,  732,  731,  591,  592,  627,  626
 406,  697,  698,  733,  732,  592,  593,  628,  627
 407,  698,  699,  734,  733,  593,  594,  629,  628
 408,  699,  700,  735,  734,  594,  595,  630,  629
 409,  736,  737,  772,  771,  631,  632,  667,  666
 410,  737,  738,  773,  772,  632,  633,  668,  667
 411,  738,  739,  774,  773,  633,  634,  669,  668
 412,  739,  740,  775,  774,  634,  635,  670,  669
 413,  740,  741,  776,  775,  635,  636,  671,  670
 414,  741,  742,  777,  776,  636,  637,  672,  671
 415,  742,  743,  778,  777,  637,  638,  673,  672
 416,  743,  744,  779,  778,  638,  639,  674,  673
 417,  744,  745,  780,  779,  639,  640,  675,  674
 418,  745,  746,  781,  780,  640,  641,  676,  675
 419,  746,  747,  782,  781,  641,  642,  677,  676
 420,  747,  748,  783,  782,  642,  643,  678,  677
 421,  748,  749,  784,  783,  643,  644,  679,  678
 422,  749,  750,  785,  784,  644,  645,  680,  679
 423,  750,  751,  786,  785,  645,  646,  681,  680
 424,  751,  752,  787,  786,  646,  647,  682,  681
 425,  752,  753,  788,  787,  647,  648,  683,  682
 426,  753,  754,  789,  788,  648,  649,  684,  683
 427,  754,  755,  790,  789,  649,  650,  685,  684
 428,  755,  756,  791,  790,  650,  651,  686,  685
 429,  756,  757,  792,  791,  651,  652,  687,  686
 430,  757,  758,  793,  792,  652,  653,  688,  687
 431,  758,  759,  794,  793,  653,  654,  689,  688
 432,  759,  760,  795,  794,  654,  655,  690,  689
 433,  760,  761,  796,  795,  655,  656,  691,  690
 434,  761,  762,  797,  796,  656,  657,  692,  691
 435,  762,  763,  798,  797,  657,  658,  693,  692
 436,  763,  764,  799,  798,  658,  659,  694,  693
 437,  764,  765,  800,  799,  659,  660,  695,  694
 438,  765,  766,  801,  800,  660,  661,  696,  695
 439,  766,  767,  802,  801,  661,  662,  697,  696
 440,  767,  768,  803,  802,  662,  663,  698,  697
 441,  768,  769,  804,  803,  663,  664,  699,  698
 442,  769,  770,  805,  804,  664,  665,  700,  699
 443,  771,  772,  807,  806,  666,  667,  702,  701
 444,  772,  773,  808,  807,  667,  668,  703,  702
 445,  773,  774,  809,  808,  668,  669,  704,  703
 446,  774,  775,  810,  809,  669,  670,  705,  704
 447,  775,  776,  811,  810,  670,  671,  706,  705
 448,  776,  777,  812,  811,  671,  672,  707,  706
 449,  777,  778,  813,  812,  672,  673,  708,  707
 450,  778,  779,  814,  813,  673,  674,  709,  708
 451,  779,  780,  815,  814,  674,  675,  710,  709
 452,  780,  781,  816,  815,  675,  676,  711,  710
 453,  781,  782,  817,  816,  676,  677,  712,  711
 454,  782,  783,  818,  817,  677,  678,  713,  712
 455,  783,  784,  819,  818,  678,  679,  714,  713
 456,  784,  785,  820,  819,  679,  680,  715,  714
 457,  785,  786,  821,  820,  680,  681,  716,  715
 458,  786,  787,  822,  821,  681,  682,  717,  716
 459,  787,  788,  823,  822,  682,  683,  718,  717
 460,  788,  789,  824,  823,  683,  684,  719,  718
 461,  789,  790,  825,  824,  684,  685,  720,  719
 462,  790,  791,  826,  825,  685,  686,  721,  720
 463,  791,  792,  827,  826,  686,  687,  722,  721
 464,  792,  793,  828,  827,  687,  688,  723,  722
 465,  793,  794,  829,  828,  688,  689,  724,  723
 466,  794,  795,  830,  829,  689,  690,  725,  724
 467,  795,  796,  831,  830,  690,  691,  726,  725
 468,  796,  797,  832,  831,  691,  692,  727,  726
 469,  797,  798,  833,  832,  692,  693,  728,  727
 470,  798,  799,  834,  833,  693,  694,  729,  728
 471,  799,  800,  835,  834,  694,  695,  730,  729
 472,  800,  801,  836,  835,  695,  696,  731,  730
 473,  801,  802,  837,  836,  696,  697,  732,  731
 474,  802,  803,  838,  837,  697,  698,  733,  732
 475,  803,  804,  839,  838,  698,  699,  734,  733
 476,  804,  805,  840,  839,  699,  700,  735,  734
 477,  841,  842,  877,  876,  736,  737,  772,  771
 478,  842,  843,  878,  877,  737,  738,  773,  772
 479,  843,  844,  879,  878,  738,  739,  774,  773
 480,  844,  845,  880,  879,  739,  740,  775,  774
 481,  845,  846,  881,  880,  740,  741,  776,  775
 482,  846,  847,  882,  881,  741,  742,  777,  776
 483,  847,  848,  883,  882,  742,  743,  778,  777
 484,  848,  849,  884,  883,  743,  744,  779,  778
 485,  849,  850,  885,  884,  744,  745,  780,  779
 486,  850,  851,  886,  885,  745,  746,  781,  780
 487,  851,  852,  887,  886,  746,  747,  782,  781
 488,  852,  853,  888,  887,  747,  748,  783,  782
 489,  853,  854,  889,  888,  748,  749,  784,  783
 490,  854,  855,  890,  889,  749,  750,  785,  784
 491,  855,  856,  891,  890,  750,  751,  786,  785
 492,  856,  857,  892,  891,  751,  752,  787,  786
 493,  857,  858,  893,  892,  752,  753,  788,  787
 494,  858,  859,  894,  893,  753,  754,  789,  788
 495,  859,  860,  895,  894,  754,  755,  790,  789
 496,  860,  861,  896,  895,  755,  756,  791,  790
 497,  861,  862,  897,  896,  756,  757,  792,  791
 498,  862,  863,  898,  897,  757,  758,  793,  792
 499,  863,  864,  899,  898,  758,  759,  794,  793
 500,  864,  865,  900,  899,  759,  760,  795,  794
 501,  865,  866,  901,  900,  760,  761,  796,  795
 502,  866,  867,  902,  901,  761,  762,  797,  796
 503,  867,  868,  903,  902,  762,  763,  798,  797
 504,  868,  869,  904,  903,  763,  764,  799,  798
 505,  869,  870,  905,  904,  764,  765,  800,  799
 506,  870,  871,  906,  905,  765,  766,  801,  800
 507,  871,  872,  907,  906,  766,  767,  802,  801
 508,  872,  873,  908,  907,  767,  768,  803,  802
 509,  873,  874,  909,  908,  768,  769,  804,  803
 510,  874,  875,  910,  909,  769,  770,  805,  804
 511,  876,  877,  912,  911,  771,  772,  807,  806
 512,  877,  878,  913,  912,  772,  773,  808,  807
 513,  878,  879,  914,  913,  773,  774,  809,  808
 514,  879,  880,  915,  914,  774,  775,  810,  809
 515,  880,  881,  916,  915,  775,  776,  811,  810
 516,  881,  882,  917,  916,  776,  777,  812,  811
 517,  882,  883,  918,  917,  777,  778,  813,  812
 518,  883,  884,  919,  918,  778,  779,  814,  813
 519,  884,  885,  920,  919,  779,  780,  815,  814
 520,  885,  886,  921,  920,  780,  781,  816,  815
 521,  886,  887,  922,  921,  781,  782,  817,  816
 522,  887,  888,  923,  922,  782,  783,  818,  817
 523,  888,  889,  924,  923,  783,  784,  819,  818
 524,  889,  890,  925,  924,  784,  785,  820,  819
 525,  890,  891,  926,  925,  785,  786,  821,  820
 526,  891,  892,  927,  926,  786,  787,  822,  821
 527,  892,  893,  928,  927,  787,  788,  823,  822
 528,  893,  894,  929,  928,  788,  789,  824,  823
 529,  894,  895,  930,  929,  789,  790,  825,  824
 530,  895,  896,  931,  930,  790,  791,  826,  825
 531,  896,  897,  932,  931,  791,  792,  827,  826
 532,  897,  898,  933,  932,  792,  793,  828,  827
 533,  898,  899,  934,  933,  793,  794,  829,  828
 534,  899,  900,  935,  934,  794,  795,  830,  829
 535,  900,  901,  936,  935,  795,  796,  831,  830
 536,  901,  902,  937,  936,  796,  797,  832,  831
 537,  902,  903,  938,  937,  797,  798,  833,  832
 538,  903,  904,  939,  938,  798,  799,  834,  833
 539,  904,  905,  940,  939,  799,  800,  835,  834
 540,  905,  906,  941,  940,  800,  801,  836,  835
 541,  906,  907,  942,  941,  801,  802,  837,  836
 542,  907,  908,  943,  942,  802,  803,  838,  837
 543,  908,  909,  944,  943,  803,  804,  839,  838
 544,  909,  910,  945,  944,  804,  805,  840,  839
 545,  946,  947,  982,  981,  841,  842,  877,  876
 546,  947,  948,  983,  982,  842,  843,  878,  877
 547,  948,  949,  984,  983,  843,  844,  879,  878
 548,  949,  950,  985,  984,  844,  845,  880,  879
 549,  950,  951,  986,  985,  845,  846,  881,  880
 550,  951,  952,  987,  986,  846,  847,  882,  881
 551,  952,  953,  988,  987,  847,  848,  883,  882
 552,  953,  954,  989,  988,  848,  849,  884,  883
 553,  954,  955,  990,  989,  849,  850,  885,  884
 554,  955,  956,  991,  990,  850,  851,  886,  885
 555,  956,  957,  992,  991,  851,  852,  887,  886
 556,  957,  958,  993,  992,  852,  853,  888,  887
 557,  958,  959,  994,  993,  853,  854,  889,  888
 558,  959,  960,  995,  994,  854,  855,  890,  889
 559,  960,  961,  996,  995,  855,  856,  891,  890
 560,  961,  962,  997,  996,  856,  857,  892,  891
 561,  962,  963,  998,  997,  857,  858,  893,  892
 562,  963,  964,  999,  998,  858,  859,  894,  893
 563,  964,  965, 1000,  999,  859,  860,  895,  894
 564,  965,  966, 1001, 1000,  860,  861,  896,  895
 565,  966,  967, 1002, 1001,  861,  862,  897,  896
 566,  967,  968, 1003, 1002,  862,  863,  898,  897
 567,  968,  969, 1004, 1003,  863,  864,  899,  898
 568,  969,  970, 1005, 1004,  864,  865,  900,  899
 569,  970,  971, 1006, 1005,  865,  866,  901,  900
 570,  971,  972, 1007, 1006,  866,  867,  902,  901
 571,  972,  973, 1008, 1007,  867,  868,  903,  902
 572,  973,  974, 1009, 1008,  868,  869,  904,  903
 573,  974,  975, 1010, 1009,  869,  870,  905,  904
 574,  975,  976, 1011, 1010,  870,  871,  906,  905
 575,  976,  977, 1012, 1011,  871,  872,  907,  906
 576,  977,  978, 1013, 1012,  872,  873,  908,  907
 577,  978,  979, 1014, 1013,  873,  874,  909,  908
 578,  979,  980, 1015, 1014,  874,  875,  910,  909
 579,  981,  982, 1017, 1016,  876,  877,  912,  911
 580,  982,  983, 1018, 1017,  877,  878,  913,  912
 581,  983,  984, 1019, 1018,  878,  879,  914,  913
 582,  984,  985, 1020, 1019,  879,  880,  915,  914
 583,  985,  986, 1021, 1020,  880,  881,  916,  915
 584,  986,  987, 1022, 1021,  881,  882,  917,  916
 585,  987,  988, 1023, 1022,  882,  883,  918,  917
 586,  988,  989, 1024, 1023,  883,  884,  919,  918
 587,  989,  990, 1025, 1024,  884,  885,  920,  919
 588,  990,  991, 1026, 1025,  885,  886,  921,  920
 589,  991,  992, 1027, 1026,  886,  887,  922,  921
 590,  992,  993, 1028, 1027,  887,  888,  923,  922
 591,  993,  994, 1029, 1028,  888,  889,  924,  923
 592,  994,  995, 1030, 1029,  889,  890,  925,  924
 593,  995,  996, 1031, 1030,  890,  891,  926,  925
 594,  996,  997, 1032, 1031,  891,  892,  927,  926
 595,  997,  998, 1033, 1032,  892,  893,  928,  927
 596,  998,  999, 1034, 1033,  893,  894,  929,  928
 597,  999, 1000, 1035, 1034,  894,  895,  930,  929
 598, 1000, 1001, 1036, 1035,  895,  896,  931,  930
 599, 1001, 1002, 1037, 1036,  896,  897,  932,  931
 600, 1002, 1003, 1038, 1037,  897,  898,  933,  932
 601, 1003, 1004, 1039, 1038,  898,  899,  934,  933
 602, 1004, 1005, 1040, 1039,  899,  900,  935,  934
 603, 1005, 1006, 1041, 1040,  900,  901,  936,  935
 604, 1006, 1007, 1042, 1041,  901,  902,  937,  936
 605, 1007, 1008, 1043, 1042,  902,  903,  938,  937
 606, 1008, 1009, 1044, 1043,  903,  904,  939,  938
 607, 1009, 1010, 1045, 1044,  904,  905,  940,  939
 608, 1010, 1011, 1046, 1045,  905,  906,  941,  940
 609, 1011, 1012, 1047, 1046,  906,  907,  942,  941
 610, 1012, 1013, 1048, 1047,  907,  908,  943,  942
 611, 1013, 1014, 1049, 1048,  908,  909,  944,  943
 612, 1014, 1015, 1050, 1049,  909,  910,  945,  944
 613, 1051, 1052, 1087, 1086,  946,  947,  982,  981
 614, 1052, 1053, 1088, 1087,  947,  948,  983,  982
 615, 1053, 1054, 1089, 1088,  948,  949,  984,  983
 616, 1054, 1055, 1090, 1089,  949,  950,  985,  984
 617, 1055, 1056, 1091, 1090,  950,  951,  986,  985
 618, 1056, 1057, 1092, 1091,  951,  952,  987,  986
 619, 1057, 1058, 1093, 1092,  952,  953,  988,  987
 620, 1058, 1059, 1094, 1093,  953,  954,  989,  988
 621, 1059, 1060, 1095, 1094,  954,  955,  990,  989
 622, 1060, 1061, 1096, 1095,  955,  956,  991,  990
 623, 1061, 1062, 1097, 1096,  956,  957,  992,  991
 624, 1062, 1063, 1098, 1097,  957,  958,  993,  992
 625, 1063, 1064, 1099, 1098,  958,  959,  994,  993
 626, 1064, 1065, 1100, 1099,  959,  960,  995,  994
 627, 1065, 1066, 1101, 1100,  960,  961,  996,  995
 628, 1066, 1067, 1102, 1101,  961,  962,  997,  996
 629, 1067, 1068, 1103, 1102,  962,  963,  998,  997
 630, 1068, 1069, 1104, 1103,  963,  964,  999,  998
 631, 1069, 1070, 1105, 1104,  964,  965, 1000,  999
 632, 1070, 1071, 1106, 1105,  965,  966, 1001, 1000
 633, 1071, 1072, 1107, 1106,  966,  967, 1002, 1001
 634, 1072, 1073, 1108, 1107,  967,  968, 1003, 1002
 635, 1073, 1074, 1109, 1108,  968,  969, 1004, 1003
 636, 1074, 1075, 1110, 1109,  969,  970, 1005, 1004
 637, 1075, 1076, 1111, 1110,  970,  971, 1006, 1005
 638, 1076, 1077, 1112, 1111,  971,  972, 1007, 1006
 639, 1077, 1078, 1113, 1112,  972,  973, 1008, 1007
 640, 1078, 1079, 1114, 1113,  973,  974, 1009, 1008
 641, 1079, 1080, 1115, 1114,  974,  975, 1010, 1009
 642, 1080, 1081, 1116, 1115,  975,  976, 1011, 1010
 643, 1081, 1082, 1117, 1116,  976,  977, 1012, 1011
 644, 1082, 1083, 1118, 1117,  977,  978, 1013, 1012
 645, 1083, 1084, 1119, 1118,  978,  979, 1014, 1013
 646, 1084, 1085, 1120, 1119,  979,  980, 1015, 1014
 647, 1086, 1087, 1122, 1121,  981,  982, 1017, 1016
 648, 1087, 1088, 1123, 1122,  982,  983, 1018, 1017
 649, 1088, 1089, 1124, 1123,  983,  984, 1019, 1018
 650, 1089, 1090, 1125, 1124,  984,  985, 1020, 1019
 651, 1090, 1091, 1126, 1125,  985,  986, 1021, 1020
 652, 1091, 1092, 1127, 1126,  986,  987, 1022, 1021
 653, 1092, 1093, 1128, 1127,  987,  988, 1023, 1022
 654, 1093, 1094, 1129, 1128,  988,  989, 1024, 1023
 655, 1094, 1095, 1130, 1129,  989,  990, 1025, 1024
 656, 1095, 1096, 1131, 1130,  990,  991, 1026, 1025
 657, 1096, 1097, 1132, 1131,  991,  992, 1027, 1026
 658, 1097, 1098, 1133, 1132,  992,  993, 1028, 1027
 659, 1098, 1099, 1134, 1133,  993,  994, 1029, 1028
 660, 1099, 1100, 1135, 1134,  994,  995, 1030, 1029
 661, 1100, 1101, 1136, 1135,  995,  996, 1031, 1030
 662, 1101, 1102, 1137, 1136,  996,  997, 1032, 1031
 663, 1102, 1103, 1138, 1137,  997,  998, 1033, 1032
 664, 1103, 1104, 1139, 1138,  998,  999, 1034, 1033
 665, 1104, 1105, 1140, 1139,  999, 1000, 1035, 1034
 666, 1105, 1106, 1141, 1140, 1000, 1001, 1036, 1035
 667, 1106, 1107, 1142, 1141, 1001, 1002, 1037, 1036
 668, 1107, 1108, 1143, 1142, 1002, 1003, 1038, 1037
 669, 1108, 1109, 1144, 1143, 1003, 1004, 1039, 1038
 670, 1109, 1110, 1145, 1144, 1004, 1005, 1040, 1039
 671, 1110, 1111, 1146, 1145, 1005, 1006, 1041, 1040
 672, 1111, 1112, 1147, 1146, 1006, 1007, 1042, 1041
 673, 1112, 1113, 1148, 1147, 1007, 1008, 1043, 1042
 674, 1113, 1114, 1149, 1148, 1008, 1009, 1044, 1043
 675, 1114, 1115, 1150, 1149, 1009, 1010, 1045, 1044
 676, 1115, 1116, 1151, 1150, 1010, 1011, 1046, 1045
 677, 1116, 1117, 1152, 1151, 1011, 1012, 1047, 1046
 678, 1117, 1118, 1153, 1152, 1012, 1013, 1048, 1047
 679, 1118, 1119, 1154, 1153, 1013, 1014, 1049, 1048
 680, 1119, 1120, 1155, 1154, 1014, 1015, 1050, 1049
 681, 1156, 1157, 1192, 1191, 1051, 1052, 1087, 1086
 682, 1157, 1158, 1193, 1192, 1052, 1053, 1088, 1087
 683, 1158, 1159, 1194, 1193, 1053, 1054, 1089, 1088
 684, 1159, 1160, 1195, 1194, 1054, 1055, 1090, 1089
 685, 1160, 1161, 1196, 1195, 1055, 1056, 1091, 1090
 686, 1161, 1162, 1197, 1196, 1056, 1057, 1092, 1091
 687, 1162, 1163, 1198, 1197, 1057, 1058, 1093, 1092
 688, 1163, 1164, 1199, 1198, 1058, 1059, 1094, 1093
 689, 1164, 1165, 1200, 1199, 1059, 1060, 1095, 1094
 690, 1165, 1166, 1201, 1200, 1060, 1061, 1096, 1095
 691, 1166, 1167, 1202, 1201, 1061, 1062, 1097, 1096
 692, 1167, 1168, 1203, 1202, 1062, 1063, 1098, 1097
 693, 1168, 1169, 1204, 1203, 1063, 1064, 1099, 1098
 694, 1169, 1170, 1205, 1204, 1064, 1065, 1100, 1099
 695, 1170, 1171, 1206, 1205, 1065, 1066, 1101, 1100
 696, 1171, 1172, 1207, 1206, 1066, 1067, 1102, 1101
 697, 1172, 1173, 1208, 1207, 1067, 1068, 1103, 1102
 698, 1173, 1174, 1209, 1208, 1068, 1069, 1104, 1103
 699, 1174, 1175, 1210, 1209, 1069, 1070, 1105, 1104
 700, 1175, 1176, 1211, 1210, 1070, 1071, 1106, 1105
 701, 1176, 1177, 1212, 1211, 1071, 1072, 1107, 1106
 702, 1177, 1178, 1213, 1212, 1072, 1073, 1108, 1107
 703, 1178, 1179, 1214, 1213, 1073, 1074, 1109, 1108
 704, 1179, 1180, 1215, 1214, 1074, 1075, 1110, 1109
 705, 1180, 1181, 1216, 1215, 1075, 1076, 1111, 1110
 706, 1181, 1182, 1217, 1216, 1076, 1077, 1112, 1111
 707, 1182, 1183, 1218, 1217, 1077, 1078, 1113, 1112
 708, 1183, 1184, 1219, 1218, 1078, 1079, 1114, 1113
 709, 1184, 1185, 1220, 1219, 1079, 1080, 1115, 1114
 710, 1185, 1186, 1221, 1220, 1080, 1081, 1116, 1115
 711, 1186, 1187, 1222, 1221, 1081, 1082, 1117, 1116
 712, 1187, 1188, 1223, 1222, 1082, 1083, 1118, 1117
 713, 1188, 1189, 1224, 1223, 1083, 1084, 1119, 1118
 714, 1189, 1190, 1225, 1224, 1084, 1085, 1120, 1119
 715, 1191, 1192, 1227, 1226, 1086, 1087, 1122, 1121
 716, 1192, 1193, 1228, 1227, 1087, 1088, 1123, 1122
 717, 1193, 1194, 1229, 1228, 1088, 1089, 1124, 1123
 718, 1194, 1195, 1230, 1229, 1089, 1090, 1125, 1124
 719, 1195, 1196, 1231, 1230, 1090, 1091, 1126, 1125
 720, 1196, 1197, 1232, 1231, 1091, 1092, 1127, 1126
 721, 1197, 1198, 1233, 1232, 1092, 1093, 1128, 1127
 722, 1198, 1199, 1234, 1233, 1093, 1094, 1129, 1128
 723, 1199, 1200, 1235, 1234, 1094, 1095, 1130, 1129
 724, 1200, 1201, 1236, 1235, 1095, 1096, 1131, 1130
 725, 1201, 1202, 1237, 1236, 1096, 1097, 1132, 1131
 726, 1202, 1203, 1238, 1237, 1097, 1098, 1133, 1132
 727, 1203, 1204, 1239, 1238, 1098, 1099, 1134, 1133
 728, 1204, 1205, 1240, 1239, 1099, 1100, 1135, 1134
 729, 1205, 1206, 1241, 1240, 1100, 1101, 1136, 1135
 730, 1206, 1207, 1242, 1241, 1101, 1102, 1137, 1136
 731, 1207, 1208, 1243, 1242, 1102, 1103, 1138, 1137
 732, 1208, 1209, 1244, 1243, 1103, 1104, 1139, 1138
 733, 1209, 1210, 1245, 1244, 1104, 1105, 1140, 1139
 734, 1210, 1211, 1246, 1245, 1105, 1106, 1141, 1140
 735, 1211, 1212, 1247, 1246, 1106, 1107, 1142, 1141
 736, 1212, 1213, 1248, 1247, 1107, 1108, 1143, 1142
 737, 1213, 1214, 1249, 1248, 1108, 1109, 1144, 1143
 738, 1214, 1215, 1250, 1249, 1109, 1110, 1145, 1144
 739, 1215, 1216, 1251, 1250, 1110, 1111, 1146, 1145
 740, 1216, 1217, 1252, 1251, 1111, 1112, 1147, 1146
 741, 1217, 1218, 1253, 1252, 1112, 1113, 1148, 1147
 742, 1218, 1219, 1254, 1253, 1113, 1114, 1149, 1148
 743, 1219, 1220, 1255, 1254, 1114, 1115, 1150, 1149
 744, 1220, 1221, 1256, 1255, 1115, 1116, 1151, 1150
 745, 1221, 1222, 1257, 1256, 1116, 1117, 1152, 1151
 746, 1222, 1223, 1258, 1257, 1117, 1118, 1153, 1152
 747, 1223, 1224, 1259, 1258, 1118, 1119, 1154, 1153
 748, 1224, 1225, 1260, 1259, 1119, 1120, 1155, 1154
 749, 1261, 1262, 1297, 1296, 1156, 1157, 1192, 1191
 750, 1262, 1263, 1298, 1297, 1157, 1158, 1193, 1192
 751, 1263, 1264, 1299, 1298, 1158, 1159, 1194, 1193
 752, 1264, 1265, 1300, 1299, 1159, 1160, 1195, 1194
 753, 1265, 1266, 1301, 1300, 1160, 1161, 1196, 1195
 754, 1266, 1267, 1302, 1301, 1161, 1162, 1197, 1196
 755, 1267, 1268, 1303, 1302, 1162, 1163, 1198, 1197
 756, 1268, 1269, 1304, 1303, 1163, 1164, 1199, 1198
 757, 1269, 1270, 1305, 1304, 1164, 1165, 1200, 1199
 758, 1270, 1271, 1306, 1305, 1165, 1166, 1201, 1200
 759, 1271, 1272, 1307, 1306, 1166, 1167, 1202, 1201
 760, 1272, 1273, 1308, 1307, 1167, 1168, 1203, 1202
 761, 1273, 1274, 1309, 1308, 1168, 1169, 1204, 1203
 762, 1274, 1275, 1310, 1309, 1169, 1170, 1205, 1204
 763, 1275, 1276, 1311, 1310, 1170, 1171, 1206, 1205
 764, 1276, 1277, 1312, 1311, 1171, 1172, 1207, 1206
 765, 1277, 1278, 1313, 1312, 1172, 1173, 1208, 1207
 766, 1278, 1279, 1314, 1313, 1173, 1174, 1209, 1208
 767, 1279, 1280, 1315, 1314, 1174, 1175, 1210, 1209
 768, 1280, 1281, 1316, 1315, 1175, 1176, 1211, 1210
 769, 1281, 1282, 1317, 1316, 1176, 1177, 1212, 1211
 770, 1282, 1283, 1318, 1317, 1177, 1178, 1213, 1212
 771, 1283, 1284, 1319, 1318, 1178, 1179, 1214, 1213
 772, 1284, 1285, 1320, 1319, 1179, 1180, 1215, 1214
 773, 1285, 1286, 1321, 1320, 1180, 1181, 1216, 1215
 774, 1286, 1287, 1322, 1321, 1181, 1182, 1217, 1216
 775, 1287, 1288, 1323, 1322, 1182, 1183, 1218, 1217
 776, 1288, 1289, 1324, 1323, 1183, 1184, 1219, 1218
 777, 1289, 1290, 1325, 1324, 1184, 1185, 1220, 1219
 778, 1290, 1291, 1326, 1325, 1185, 1186, 1221, 1220
 779, 1291, 1292, 1327, 1326, 1186, 1187, 1222, 1221
 780, 1292, 1293, 1328, 1327, 1187, 1188, 1223, 1222
 781, 1293, 1294, 1329, 1328, 1188, 1189, 1224, 1223
 782, 1294, 1295, 1330, 1329, 1189, 1190, 1225, 1224
 783, 1296, 1297, 1332, 1331, 1191, 1192, 1227, 1226
 784, 1297, 1298, 1333, 1332, 1192, 1193, 1228, 1227
 785, 1298, 1299, 1334, 1333, 1193, 1194, 1229, 1228
 786, 1299, 1300, 1335, 1334, 1194, 1195, 1230, 1229
 787, 1300, 1301, 1336, 1335, 1195, 1196, 1231, 1230
 788, 1301, 1302, 1337, 1336, 1196, 1197, 1232, 1231
 789, 1302, 1303, 1338, 1337, 1197, 1198, 1233, 1232
 790, 1303, 1304, 1339, 1338, 1198, 1199, 1234, 1233
 791, 1304, 1305, 1340, 1339, 1199, 1200, 1235, 1234
 792, 1305, 1306, 1341, 1340, 1200, 1201, 1236, 1235
 793, 1306, 1307, 1342, 1341, 1201, 1202, 1237, 1236
 794, 1307, 1308, 1343, 1342, 1202, 1203, 1238, 1237
 795, 1308, 1309, 1344, 1343, 1203, 1204, 1239, 1238
 796, 1309, 1310, 1345, 1344, 1204, 1205, 1240, 1239
 797, 1310, 1311, 1346, 1345, 1205, 1206, 1241, 1240
 798, 1311, 1312, 1347, 1346, 1206, 1207, 1242, 1241
 799, 1312, 1313, 1348, 1347, 1207, 1208, 1243, 1242
 800, 1313, 1314, 1349, 1348, 1208, 1209, 1244, 1243
 801, 1314, 1315, 1350, 1349, 1209, 1210, 1245, 1244
 802, 1315, 1316, 1351, 1350, 1210, 1211, 1246, 1245
 803, 1316, 1317, 1352, 1351, 1211, 1212, 1247, 1246
 804, 1317, 1318, 1353, 1352, 1212, 1213, 1248, 1247
 805, 1318, 1319, 1354, 1353, 1213, 1214, 1249, 1248
 806, 1319, 1320, 1355, 1354, 1214, 1215, 1250, 1249
 807, 1320, 1321, 1356, 1355, 1215, 1216, 1251, 1250
 808, 1321, 1322, 1357, 1356, 1216, 1217, 1252, 1251
 809, 1322, 1323, 1358, 1357, 1217, 1218, 1253, 1252
 810, 1323, 1324, 1359, 1358, 1218, 1219, 1254, 1253
 811, 1324, 1325, 1360, 1359, 1219, 1220, 1255, 1254
 812, 1325, 1326, 1361, 1360, 1220, 1221, 1256, 1255
 813, 1326, 1327, 1362, 1361, 1221, 1222, 1257, 1256
 814, 1327, 1328, 1363, 1362, 1222, 1223, 1258, 1257
 815, 1328, 1329, 1364, 1363, 1223, 1224, 1259, 1258
 816, 1329, 1330, 1365, 1364, 1224, 1225, 1260, 1259
 817, 1366, 1367, 1402, 1401, 1261, 1262, 1297, 1296
 818, 1367, 1368, 1403, 1402, 1262, 1263, 1298, 1297
 819, 1368, 1369, 1404, 1403, 1263, 1264, 1299, 1298
 820, 1369, 1370, 1405, 1404, 1264, 1265, 1300, 1299
 821, 1370, 1371, 1406, 1405, 1265, 1266, 1301, 1300
 822, 1371, 1372, 1407, 1406, 1266, 1267, 1302, 1301
 823, 1372, 1373, 1408, 1407, 1267, 1268, 1303, 1302
 824, 1373, 1374, 1409, 1408, 1268, 1269, 1304, 1303
 825, 1374, 1375, 1410, 1409, 1269, 1270, 1305, 1304
 826, 1375, 1376, 1411, 1410, 1270, 1271, 1306, 1305
 827, 1376, 1377, 1412, 1411, 1271, 1272, 1307, 1306
 828, 1377, 1378, 1413, 1412, 1272, 1273, 1308, 1307
 829, 1378, 1379, 1414, 1413, 1273, 1274, 1309, 1308
 830, 1379, 1380, 1415, 1414, 1274, 1275, 1310, 1309
 831, 1380, 1381, 1416, 1415, 1275, 1276, 1311, 1310
 832, 1381, 1382, 1417, 1416, 1276, 1277, 1312, 1311
 833, 1382, 1383, 1418, 1417, 1277, 1278, 1313, 1312
 834, 1383, 1384, 1419, 1418, 1278, 1279, 1314, 1313
 835, 1384, 1385, 1420, 1419, 1279, 1280, 1315, 1314
 836, 1385, 1386, 1421, 1420, 1280, 1281, 1316, 1315
 837, 1386, 1387, 1422, 1421, 1281, 1282, 1317, 1316
 838, 1387, 1388, 1423, 1422, 1282, 1283, 1318, 1317
 839, 1388, 1389, 1424, 1423, 1283, 1284, 1319, 1318
 840, 1389, 1390, 1425, 1424, 1284, 1285, 1320, 1319
 841, 1390, 1391, 1426, 1425, 1285, 1286, 1321, 1320
 842, 1391, 1392, 1427, 1426, 1286, 1287, 1322, 1321
 843, 1392, 1393, 1428, 1427, 1287, 1288, 1323, 1322
 844, 1393, 1394, 1429, 1428, 1288, 1289, 1324, 1323
 845, 1394, 1395, 1430, 1429, 1289, 1290, 1325, 1324
 846, 1395, 1396, 1431, 1430, 1290, 1291, 1326, 1325
 847, 1396, 1397, 1432, 1431, 1291, 1292, 1327, 1326
 848, 1397, 1398, 1433, 1432, 1292, 1293, 1328, 1327
 849, 1398, 1399, 1434, 1433, 1293, 1294, 1329, 1328
 850, 1399, 1400, 1435, 1434, 1294, 1295, 1330, 1329
 851, 1401, 1402, 1437, 1436, 1296, 1297, 1332, 1331
 852, 1402, 1403, 1438, 1437, 1297, 1298, 1333, 1332
 853, 1403, 1404, 1439, 1438, 1298, 1299, 1334, 1333
 854, 1404, 1405, 1440, 1439, 1299, 1300, 1335, 1334
 855, 1405, 1406, 1441, 1440, 1300, 1301, 1336, 1335
 856, 1406, 1407, 1442, 1441, 1301, 1302, 1337, 1336
 857, 1407, 1408, 1443, 1442, 1302, 1303, 1338, 1337
 858, 1408, 1409, 1444, 1443, 1303, 1304, 1339, 1338
 859, 1409, 1410, 1445, 1444, 1304, 1305, 1340, 1339
 860, 1410, 1411, 1446, 1445, 1305, 1306, 1341, 1340
 861, 1411, 1412, 1447, 1446, 1306, 1307, 1342, 1341
 862, 1412, 1413, 1448, 1447, 1307, 1308, 1343, 1342
 863, 1413, 1414, 1449, 1448, 1308, 1309, 1344, 1343
 864, 1414, 1415, 1450, 1449, 1309, 1310, 1345, 1344
 865, 1415, 1416, 1451, 1450, 1310, 1311, 1346, 1345
 866, 1416, 1417, 1452, 1451, 1311, 1312, 1347, 1346
 867, 1417, 1418, 1453, 1452, 1312, 1313, 1348, 1347
 868, 1418, 1419, 1454, 1453, 1313, 1314, 1349, 1348
 869, 1419, 1420, 1455, 1454, 1314, 1315, 1350, 1349
 870, 1420, 1421, 1456, 1455, 1315, 1316, 1351, 1350
 871, 1421, 1422, 1457, 1456, 1316, 1317, 1352, 1351
 872, 1422, 1423, 1458, 1457, 1317, 1318, 1353, 1352
 873, 1423, 1424, 1459, 1458, 1318, 1319, 1354, 1353
 874, 1424, 1425, 1460, 1459, 1319, 1320, 1355, 1354
 875, 1425, 1426, 1461, 1460, 1320, 1321, 1356, 1355
 876, 1426, 1427, 1462, 1461, 1321, 1322, 1357, 1356
 877, 1427, 1428, 1463, 1462, 1322, 1323, 1358, 1357
 878, 1428, 1429, 1464, 1463, 1323, 1324, 1359, 1358
 879, 1429, 1430, 1465, 1464, 1324, 1325, 1360, 1359
 880, 1430, 1431, 1466, 1465, 1325, 1326, 1361, 1360
 881, 1431, 1432, 1467, 1466, 1326, 1327, 1362, 1361
 882, 1432, 1433, 1468, 1467, 1327, 1328, 1363, 1362
 883, 1433, 1434, 1469, 1468, 1328, 1329, 1364, 1363
 884, 1434, 1435, 1470, 1469, 1329, 1330, 1365, 1364
 885, 1471, 1472, 1507, 1506, 1366, 1367, 1402, 1401
 886, 1472, 1473, 1508, 1507, 1367, 1368, 1403, 1402
 887, 1473, 1474, 1509, 1508, 1368, 1369, 1404, 1403
 888, 1474, 1475, 1510, 1509, 1369, 1370, 1405, 1404
 889, 1475, 1476, 1511, 1510, 1370, 1371, 1406, 1405
 890, 1476, 1477, 1512, 1511, 1371, 1372, 1407, 1406
 891, 1477, 1478, 1513, 1512, 1372, 1373, 1408, 1407
 892, 1478, 1479, 1514, 1513, 1373, 1374, 1409, 1408
 893, 1479, 1480, 1515, 1514, 1374, 1375, 1410, 1409
 894, 1480, 1481, 1516, 1515, 1375, 1376, 1411, 1410
 895, 1481, 1482, 1517, 1516, 1376, 1377, 1412, 1411
 896, 1482, 1483, 1518, 1517, 1377, 1378, 1413, 1412
 897, 1483, 1484, 1519, 1518, 1378, 1379, 1414, 1413
 898, 1484, 1485, 1520, 1519, 1379, 1380, 1415, 1414
 899, 1485, 1486, 1521, 1520, 1380, 1381, 1416, 1415
 900, 1486, 1487, 1522, 1521, 1381, 1382, 1417, 1416
 901, 1487, 1488, 1523, 1522, 1382, 1383, 1418, 1417
 902, 1488, 1489, 1524, 1523, 1383, 1384, 1419, 1418
 903, 1489, 1490, 1525, 1524, 1384, 1385, 1420, 1419
 904, 1490, 1491, 1526, 1525, 1385, 1386, 1421, 1420
 905, 1491, 1492, 1527, 1526, 1386, 1387, 1422, 1421
 906, 1492, 1493, 1528, 1527, 1387, 1388, 1423, 1422
 907, 1493, 1494, 1529, 1528, 1388, 1389, 1424, 1423
 908, 1494, 1495, 1530, 1529, 1389, 1390, 1425, 1424
 909, 1495, 1496, 1531, 1530, 1390, 1391, 1426, 1425
 910, 1496, 1497, 1532, 1531, 1391, 1392, 1427, 1426
 911, 1497, 1498, 1533, 1532, 1392, 1393, 1428, 1427
 912, 1498, 1499, 1534, 1533, 1393, 1394, 1429, 1428
 913, 1499, 1500, 1535, 1534, 1394, 1395, 1430, 1429
 914, 1500, 1501, 1536, 1535, 1395, 1396, 1431, 1430
 915, 1501, 1502, 1537, 1536, 1396, 1397, 1432, 1431
 916, 1502, 1503, 1538, 1537, 1397, 1398, 1433, 1432
 917, 1503, 1504, 1539, 1538, 1398, 1399, 1434, 1433
 918, 1504, 1505, 1540, 1539, 1399, 1400, 1435, 1434
 919, 1506, 1507, 1542, 1541, 1401, 1402, 1437, 1436
 920, 1507, 1508, 1543, 1542, 1402, 1403, 1438, 1437
 921, 1508, 1509, 1544, 1543, 1403, 1404, 1439, 1438
 922, 1509, 1510, 1545, 1544, 1404, 1405, 1440, 1439
 923, 1510, 1511, 1546, 1545, 1405, 1406, 1441, 1440
 924, 1511, 1512, 1547, 1546, 1406, 1407, 1442, 1441
 925, 1512, 1513, 1548, 1547, 1407, 1408, 1443, 1442
 926, 1513, 1514, 1549, 1548, 1408, 1409, 1444, 1443
 927, 1514, 1515, 1550, 1549, 1409, 1410, 1445, 1444
 928, 1515, 1516, 1551, 1550, 1410, 1411, 1446, 1445
 929, 1516, 1517, 1552, 1551, 1411, 1412, 1447, 1446
 930, 1517, 1518, 1553, 1552, 1412, 1413, 1448, 1447
 931, 1518, 1519, 1554, 1553, 1413, 1414, 1449, 1448
 932, 1519, 1520, 1555, 1554, 1414, 1415, 1450, 1449
 933, 1520, 1521, 1556, 1555, 1415, 1416, 1451, 1450
 934, 1521, 1522, 1557, 1556, 1416, 1417, 1452, 1451
 935, 1522, 1523, 1558, 1557, 1417, 1418, 1453, 1452
 936, 1523, 1524, 1559, 1558, 1418, 1419, 1454, 1453
 937, 1524, 1525, 1560, 1559, 1419, 1420, 1455, 1454
 938, 1525, 1526, 1561, 1560, 1420, 1421, 1456, 1455
 939, 1526, 1527, 1562, 1561, 1421, 1422, 1457, 1456
 940, 1527, 1528, 1563, 1562, 1422, 1423, 1458, 1457
 941, 1528, 1529, 1564, 1563, 1423, 1424, 1459, 1458
 942, 1529, 1530, 1565, 1564, 1424, 1425, 1460, 1459
 943, 1530, 1531, 1566, 1565, 1425, 1426, 1461, 1460
 944, 1531, 1532, 1567, 1566, 1426, 1427, 1462, 1461
 945, 1532, 1533, 1568, 1567, 1427, 1428, 1463, 1462
 946, 1533, 1534, 1569, 1568, 1428, 1429, 1464, 1463
 947, 1534, 1535, 1570, 1569, 1429, 1430, 1465, 1464
 948, 1535, 1536, 1571, 1570, 1430, 1431, 1466, 1465
 949, 1536, 1537, 1572, 1571, 1431, 1432, 1467, 1466
 950, 1537, 1538, 1573, 1572, 1432, 1433, 1468, 1467
 951, 1538, 1539, 1574, 1573, 1433, 1434, 1469, 1468
 952, 1539, 1540, 1575, 1574, 1434, 1435, 1470, 1469
 953, 1576, 1577, 1612, 1611, 1471, 1472, 1507, 1506
 954, 1577, 1578, 1613, 1612, 1472, 1473, 1508, 1507
 955, 1578, 1579, 1614, 1613, 1473, 1474, 1509, 1508
 956, 1579, 1580, 1615, 1614, 1474, 1475, 1510, 1509
 957, 1580, 1581, 1616, 1615, 1475, 1476, 1511, 1510
 958, 1581, 1582, 1617, 1616, 1476, 1477, 1512, 1511
 959, 1582, 1583, 1618, 1617, 1477, 1478, 1513, 1512
 960, 1583, 1584, 1619, 1618, 1478, 1479, 1514, 1513
 961, 1584, 1585, 1620, 1619, 1479, 1480, 1515, 1514
 962, 1585, 1586, 1621, 1620, 1480, 1481, 1516, 1515
 963, 1586, 1587, 1622, 1621, 1481, 1482, 1517, 1516
 964, 1587, 1588, 1623, 1622, 1482, 1483, 1518, 1517
 965, 1588, 1589, 1624, 1623, 1483, 1484, 1519, 1518
 966, 1589, 1590, 1625, 1624, 1484, 1485, 1520, 1519
 967, 1590, 1591, 1626, 1625, 1485, 1486, 1521, 1520
 968, 1591, 1592, 1627, 1626, 1486, 1487, 1522, 1521
 969, 1592, 1593, 1628, 1627, 1487, 1488, 1523, 1522
 970, 1593, 1594, 1629, 1628, 1488, 1489, 1524, 1523
 971, 1594, 1595, 1630, 1629, 1489, 1490, 1525, 1524
 972, 1595, 1596, 1631, 1630, 1490, 1491, 1526, 1525
 973, 1596, 1597, 1632, 1631, 1491, 1492, 1527, 1526
 974, 1597, 1598, 1633, 1632, 1492, 1493, 1528, 1527
 975, 1598, 1599, 1634, 1633, 1493, 1494, 1529, 1528
 976, 1599, 1600, 1635, 1634, 1494, 1495, 1530, 1529
 977, 1600, 1601, 1636, 1635, 1495, 1496, 1531, 1530
 978, 1601, 1602, 1637, 1636, 1496, 1497, 1532, 1531
 979, 1602, 1603, 1638, 1637, 1497, 1498, 1533, 1532
 980, 1603, 1604, 1639, 1638, 1498, 1499, 1534, 1533
 981, 1604, 1605, 1640, 1639, 1499, 1500, 1535, 1534
 982, 1605, 1606, 1641, 1640, 1500, 1501, 1536, 1535
 983, 1606, 1607, 1642, 1641, 1501, 1502, 1537, 1536
 984, 1607, 1608, 1643, 1642, 1502, 1503, 1538, 1537
 985, 1608, 1609, 1644, 1643, 1503, 1504, 1539, 1538
 986, 1609, 1610, 1645, 1644, 1504, 1505, 1540, 1539
 987, 1611, 1612, 1647, 1646, 1506, 1507, 1542, 1541
 988, 1612, 1613, 1648, 1647, 1507, 1508, 1543, 1542
 989, 1613, 1614, 1649, 1648, 1508, 1509, 1544, 1543
 990, 1614, 1615, 1650, 1649, 1509, 1510, 1545, 1544
 991, 1615, 1616, 1651, 1650, 1510, 1511, 1546, 1545
 992, 1616, 1617, 1652, 1651, 1511, 1512, 1547, 1546
 993, 1617, 1618, 1653, 1652, 1512, 1513, 1548, 1547
 994, 1618, 1619, 1654, 1653, 1513, 1514, 1549, 1548
 995, 1619, 1620, 1655, 1654, 1514, 1515, 1550, 1549
 996, 1620, 1621, 1656, 1655, 1515, 1516, 1551, 1550
 997, 1621, 1622, 1657, 1656, 1516, 1517, 1552, 1551
 998, 1622, 1623, 1658, 1657, 1517, 1518, 1553, 1552
 999, 1623, 1624, 1659, 1658, 1518, 1519, 1554, 1553
1000, 1624, 1625, 1660, 1659, 1519, 1520, 1555, 1554
1001, 1625, 1626, 1661, 1660, 1520, 1521, 1556, 1555
1002, 1626, 1627, 1662, 1661, 1521, 1522, 1557, 1556
1003, 1627, 1628, 1663, 1662, 1522, 1523, 1558, 1557
1004, 1628, 1629, 1664, 1663, 1523, 1524, 1559, 1558
1005, 1629, 1630, 1665, 1664, 1524, 1525, 1560, 1559
1006, 1630, 1631, 1666, 1665, 1525, 1526, 1561, 1560
1007, 1631, 1632, 1667, 1666, 1526, 1527, 1562, 1561
1008, 1632, 1633, 1668, 1667, 1527, 1528, 1563, 1562
1009, 1633, 1634, 1669, 1668, 1528, 1529, 1564, 1563
1010, 1634, 1635, 1670, 1669, 1529, 1530, 1565, 1564
1011, 1635, 1636, 1671, 1670, 1530, 1531, 1566, 1565
1012, 1636, 1637, 1672, 1671, 1531, 1532, 1567, 1566
1013, 1637, 1638, 1673, 1672, 1532, 1533, 1568, 1567
1014, 1638, 1639, 1674, 1673, 1533, 1534, 1569, 1568
1015, 1639, 1640, 1675, 1674, 1534, 1535, 1570, 1569
1016, 1640, 1641, 1676, 1675, 1535, 1536, 1571, 1570
1017, 1641, 1642, 1677, 1676, 1536, 1537, 1572, 1571
1018, 1642, 1643, 1678, 1677, 1537, 1538, 1573, 1572
1019, 1643, 1644, 1679, 1678, 1538, 1539, 1574, 1573
1020, 1644, 1645, 1680, 1679, 1539, 1540, 1575, 1574
1021, 1681, 1682, 1717, 1716, 1576, 1577, 1612, 1611
1022, 1682, 1683, 1718, 1717, 1577, 1578, 1613, 1612
1023, 1683, 1684, 1719, 1718, 1578, 1579, 1614, 1613
1024, 1684, 1685, 1720, 1719, 1579, 1580, 1615, 1614
1025, 1685, 1686, 1721, 1720, 1580, 1581, 1616, 1615
1026, 1686, 1687, 1722, 1721, 1581, 1582, 1617, 1616
1027, 1687, 1688, 1723, 1722, 1582, 1583, 1618, 1617
1028, 1688, 1689, 1724, 1723, 1583, 1584, 1619, 1618
1029, 1689, 1690, 1725, 1724, 1584, 1585, 1620, 1619
1030, 1690, 1691, 1726, 1725, 1585, 1586, 1621, 1620
1031, 1691, 1692, 1727, 1726, 1586, 1587, 1622, 1621
1032, 1692, 1693, 1728, 1727, 1587, 1588, 1623, 1622
1033, 1693, 1694, 1729, 1728, 1588, 1589, 1624, 1623
1034, 1694, 1695, 1730, 1729, 1589, 1590, 1625, 1624
1035, 1695, 1696, 1731, 1730, 1590, 1591, 1626, 1625
1036, 1696, 1697, 1732, 1731, 1591, 1592, 1627, 1626
1037, 1697, 1698, 1733, 1732, 1592, 1593, 1628, 1627
1038, 1698, 1699, 1734, 1733, 1593, 1594, 1629, 1628
1039, 1699, 1700, 1735, 1734, 1594, 1595, 1630, 1629
1040, 1700, 1701, 1736, 1735, 1595, 1596, 1631, 1630
1041, 1701, 1702, 1737, 1736, 1596, 1597, 1632, 1631
1042, 1702, 1703, 1738, 1737, 1597, 1598, 1633, 1632
1043, 1703, 1704, 1739, 1738, 1598, 1599, 1634, 1633
1044, 1704, 1705, 1740, 1739, 1599, 1600, 1635, 1634
1045, 1705, 1706, 1741, 1740, 1600, 1601, 1636, 1635
1046, 1706, 1707, 1742, 1741, 1601, 1602, 1637, 1636
1047, 1707, 1708, 1743, 1742, 1602, 1603, 1638, 1637
1048, 1708, 1709, 1744, 1743, 1603, 1604, 1639, 1638
1049, 1709, 1710, 1745, 1744, 1604, 1605, 1640, 1639
1050, 1710, 1711, 1746, 1745, 1605, 1606, 1641, 1640
1051, 1711, 1712, 1747, 1746, 1606, 1607, 1642, 1641
1052, 1712, 1713, 1748, 1747, 1607, 1608, 1643, 1642
1053, 1713, 1714, 1749, 1748, 1608, 1609, 1644, 1643
1054, 1714, 1715, 1750, 1749, 1609, 1610, 1645, 1644
1055, 1716, 1717, 1752, 1751, 1611, 1612, 1647, 1646
1056, 1717, 1718, 1753, 1752, 1612, 1613, 1648, 1647
1057, 1718, 1719, 1754, 1753, 1613, 1614, 1649, 1648
1058, 1719, 1720, 1755, 1754, 1614, 1615, 1650, 1649
1059, 1720, 1721, 1756, 1755, 1615, 1616, 1651, 1650
1060, 1721, 1722, 1757, 1756, 1616, 1617, 1652, 1651
1061, 1722, 1723, 1758, 1757, 1617, 1618, 1653, 1652
1062, 1723, 1724, 1759, 1758, 1618, 1619, 1654, 1653
1063, 1724, 1725, 1760, 1759, 1619, 1620, 1655, 1654
1064, 1725, 1726, 1761, 1760, 1620, 1621, 1656, 1655
1065, 1726, 1727, 1762, 1761, 1621, 1622, 1657, 1656
1066, 1727, 1728, 1763, 1762, 1622, 1623, 1658, 1657
1067, 1728, 1729, 1764, 1763, 1623, 1624, 1659, 1658
1068, 1729, 1730, 1765, 1764, 1624, 1625, 1660, 1659
1069, 1730, 1731, 1766, 1765, 1625, 1626, 1661, 1660
1070, 1731, 1732, 1767, 1766, 1626, 1627, 1662, 1661
1071, 1732, 1733, 1768, 1767, 1627, 1628, 1663, 1662
1072, 1733, 1734, 1769, 1768, 1628, 1629, 1664, 1663
1073, 1734, 1735, 1770, 1769, 1629, 1630, 1665, 1664
1074, 1735, 1736, 1771, 1770, 1630, 1631, 1666, 1665
1075, 1736, 1737, 1772, 1771, 1631, 1632, 1667, 1666
1076, 1737, 1738, 1773, 1772, 1632, 1633, 1668, 1667
1077, 1738, 1739, 1774, 1773, 1633, 1634, 1669, 1668
1078, 1739, 1740, 1775, 1774, 1634, 1635, 1670, 1669
1079, 1740, 1741, 1776, 1775, 1635, 1636, 1671, 1670
1080, 1741, 1742, 1777, 1776, 1636, 1637, 1672, 1671
1081, 1742, 1743, 1778, 1777, 1637, 1638, 1673, 1672
1082, 1743, 1744, 1779, 1778, 1638, 1639, 1674, 1673
1083, 1744, 1745, 1780, 1779, 1639, 1640, 1675, 1674
1084, 1745, 1746, 1781, 1780, 1640, 1641, 1676, 1675
1085, 1746, 1747, 1782, 1781, 1641, 1642, 1677, 1676
1086, 1747, 1748, 1783, 1782, 1642, 1643, 1678, 1677
1087, 1748, 1749, 1784, 1783, 1643, 1644, 1679, 1678
1088, 1749, 1750, 1785, 1784, 1644, 1645, 1680, 1679
1089, 1786, 1787, 1822, 1821, 1681, 1682, 1717, 1716
1090, 1787, 1788, 1823, 1822, 1682, 1683, 1718, 1717
1091, 1788, 1789, 1824, 1823, 1683, 1684, 1719, 1718
1092, 1789, 1790, 1825, 1824, 1684, 1685, 1720, 1719
1093, 1790, 1791, 1826, 1825, 1685, 1686, 1721, 1720
1094, 1791, 1792, 1827, 1826, 1686, 1687, 1722, 1721
1095, 1792, 1793, 1828, 1827, 1687, 1688, 1723, 1722
1096, 1793, 1794, 1829, 1828, 1688, 1689, 1724, 1723
1097, 1794, 1795, 1830, 1829, 1689, 1690, 1725, 1724
1098, 1795, 1796, 1831, 1830, 1690, 1691, 1726, 1725
1099, 1796, 1797, 1832, 1831, 1691, 1692, 1727, 1726
1100, 1797, 1798, 1833, 1832, 1692, 1693, 1728, 1727
1101, 1798, 1799, 1834, 1833, 1693, 1694, 1729, 1728
1102, 1799, 1800, 1835, 1834, 1694, 1695, 1730, 1729
1103, 1800, 1801, 1836, 1835, 1695, 1696, 1731, 1730
1104, 1801, 1802, 1837, 1836, 1696, 1697, 1732, 1731
1105, 1802, 1803, 1838, 1837, 1697, 1698, 1733, 1732
1106, 1803, 1804, 1839, 1838, 1698, 1699, 1734, 1733
1107, 1804, 1805, 1840, 1839, 1699, 1700, 1735, 1734
1108, 1805, 1806, 1841, 1840, 1700, 1701, 1736, 1735
1109, 1806, 1807, 1842, 1841, 1701, 1702, 1737, 1736
1110, 1807, 1808, 1843, 1842, 1702, 1703, 1738, 1737
1111, 1808, 1809, 1844, 1843, 1703, 1704, 1739, 1738
1112, 1809, 1810, 1845, 1844, 1704, 1705, 1740, 1739
1113, 1810, 1811, 1846, 1845, 1705, 1706, 1741, 1740
1114, 1811, 1812, 1847, 1846, 1706, 1707, 1742, 1741
1115, 1812, 1813, 1848, 1847, 1707, 1708, 1743, 1742
1116, 1813, 1814, 1849, 1848, 1708, 1709, 1744, 1743
1117, 1814, 1815, 1850, 1849, 1709, 1710, 1745, 1744
1118, 1815, 1816, 1851, 1850, 1710, 1711, 1746, 1745
1119, 1816, 1817, 1852, 1851, 1711, 1712, 1747, 1746
1120, 1817, 1818, 1853, 1852, 1712, 1713, 1748, 1747
1121, 1818, 1819, 1854, 1853, 1713, 1714, 1749, 1748
1122, 1819, 1820, 1855, 1854, 1714, 1715, 1750, 1749
1123, 1821, 1822, 1857, 1856, 1716, 1717, 1752, 1751
1124, 1822, 1823, 1858, 1857, 1717, 1718, 1753, 1752
1125, 1823, 1824, 1859, 1858, 1718, 1719, 1754, 1753
1126, 1824, 1825, 1860, 1859, 1719, 1720, 1755, 1754
1127, 1825, 1826, 1861, 1860, 1720, 1721, 1756, 1755
1128, 1826, 1827, 1862, 1861, 1721, 1722, 1757, 1756
1129, 1827, 1828, 1863, 1862, 1722, 1723, 1758, 1757
1130, 1828, 1829, 1864, 1863, 1723, 1724, 1759, 1758
1131, 1829, 1830, 1865, 1864, 1724, 1725, 1760, 1759
1132, 1830, 1831, 1866, 1865, 1725, 1726, 1761, 1760
1133, 1831, 1832, 1867, 1866, 1726, 1727, 1762, 1761
1134, 1832, 1833, 1868, 1867, 1727, 1728, 1763, 1762
1135, 1833, 1834, 1869, 1868, 1728, 1729, 1764, 1763
1136, 1834, 1835, 1870, 1869, 1729, 1730, 1765, 1764
1137, 1835, 1836, 1871, 1870, 1730, 1731, 1766, 1765
1138, 1836, 1837, 1872, 1871, 1731, 1732, 1767, 1766
1139, 1837, 1838, 1873, 1872, 1732, 1733, 1768, 1767
1140, 1838, 1839, 1874, 1873, 1733, 1734, 1769, 1768
1141, 1839, 1840, 1875, 1874, 1734, 1735, 1770, 1769
1142, 1840, 1841, 1876, 1875, 1735, 1736, 1771, 1770
1143, 1841, 1842, 1877, 1876, 1736, 1737, 1772, 1771
1144, 1842, 1843, 1878, 1877, 1737, 1738, 1773, 1772
1145, 1843, 1844, 1879, 1878, 1738, 1739, 1774, 1773
1146, 1844, 1845, 1880, 1879, 1739, 1740, 1775, 1774
1147, 1845, 1846, 1881, 1880, 1740, 1741, 1776, 1775
1148, 1846, 1847, 1882, 1881, 1741, 1742, 1777, 1776
1149, 1847, 1848, 1883, 1882, 1742, 1743, 1778, 1777
1150, 1848, 1849, 1884, 1883, 1743, 1744, 1779, 1778
1151, 1849, 1850, 1885, 1884, 1744, 1745, 1780, 1779
1152, 1850, 1851, 1886, 1885, 1745, 1746, 1781, 1780
1153, 1851, 1852, 1887, 1886, 1746, 1747, 1782, 1781
1154, 1852, 1853, 1888, 1887, 1747, 1748, 1783, 1782
1155, 1853, 1854, 1889, 1888, 1748, 1749, 1784, 1783
1156, 1854, 1855, 1890, 1889, 1749, 1750, 1785, 1784
1157, 1891, 1892, 1927, 1926, 1786, 1787, 1822, 1821
1158, 1892, 1893, 1928, 1927, 1787, 1788, 1823, 1822
1159, 1893, 1894, 1929, 1928, 1788, 1789, 1824, 1823
1160, 1894, 1895, 1930, 1929, 1789, 1790, 1825, 1824
1161, 1895, 1896, 1931, 1930, 1790, 1791, 1826, 1825
1162, 1896, 1897, 1932, 1931, 1791, 1792, 1827, 1826
1163, 1897, 1898, 1933, 1932, 1792, 1793, 1828, 1827
1164, 1898, 1899, 1934, 1933, 1793, 1794, 1829, 1828
1165, 1899, 1900, 1935, 1934, 1794, 1795, 1830, 1829
1166, 1900, 1901, 1936, 1935, 1795, 1796, 1831, 1830
1167, 1901, 1902, 1937, 1936, 1796, 1797, 1832, 1831
1168, 1902, 1903, 1938, 1937, 1797, 1798, 1833, 1832
1169, 1903, 1904, 1939, 1938, 1798, 1799, 1834, 1833
1170, 1904, 1905, 1940, 1939, 1799, 1800, 1835, 1834
1171, 1905, 1906, 1941, 1940, 1800, 1801, 1836, 1835
1172, 1906, 1907, 1942, 1941, 1801, 1802, 1837, 1836
1173, 1907, 1908, 1943, 1942, 1802, 1803, 1838, 1837
1174, 1908, 1909, 1944, 1943, 1803, 1804, 1839, 1838
1175, 1909, 1910, 1945, 1944, 1804, 1805, 1840, 1839
1176, 1910, 1911, 1946, 1945, 1805, 1806, 1841, 1840
1177, 1911, 1912, 1947, 1946, 1806, 1807, 1842, 1841
1178, 1912, 1913, 1948, 1947, 1807, 1808, 1843, 1842
1179, 1913, 1914, 1949, 1948, 1808, 1809, 1844, 1843
1180, 1914, 1915, 1950, 1949, 1809, 1810, 1845, 1844
1181, 1915, 1916, 1951, 1950, 1810, 1811, 1846, 1845
1182, 1916, 1917, 1952, 1951, 1811, 1812, 1847, 1846
1183, 1917, 1918, 1953, 1952, 1812, 1813, 1848, 1847
1184, 1918, 1919, 1954, 1953, 1813, 1814, 1849, 1848
1185, 1919, 1920, 1955, 1954, 1814, 1815, 1850, 1849
1186, 1920, 1921, 1956, 1955, 1815, 1816, 1851, 1850
1187, 1921, 1922, 1957, 1956, 1816, 1817, 1852, 1851
1188, 1922, 1923, 1958, 1957, 1817, 1818, 1853, 1852
1189, 1923, 1924, 1959, 1958, 1818, 1819, 1854, 1853
1190, 1924, 1925, 1960, 1959, 1819, 1820, 1855, 1854
1191, 1926, 1927, 1962, 1961, 1821, 1822, 1857, 1856
1192, 1927, 1928, 1963, 1962, 1822, 1823, 1858, 1857
1193, 1928, 1929, 1964, 1963, 1823, 1824, 1859, 1858
1194, 1929, 1930, 1965, 1964, 1824, 1825, 1860, 1859
1195, 1930, 1931, 1966, 1965, 1825, 1826, 1861, 1860
1196, 1931, 1932, 1967, 1966, 1826, 1827, 1862, 1861
1197, 1932, 1933, 1968, 1967, 1827, 1828, 1863, 1862
1198, 1933, 1934, 1969, 1968, 1828, 1829, 1864, 1863
1199, 1934, 1935, 1970, 1969, 1829, 1830, 1865, 1864
1200, 1935, 1936, 1971, 1970, 1830, 1831, 1866, 1865
1201, 1936, 1937, 1972, 1971, 1831, 1832, 1867, 1866
1202, 1937, 1938, 1973, 1972, 1832, 1833, 1868, 1867
1203, 1938, 1939, 1974, 1973, 1833, 1834, 1869, 1868
1204, 1939, 1940, 1975, 1974, 1834, 1835, 1870, 1869
1205, 1940, 1941, 1976, 1975, 1835, 1836, 1871, 1870
1206, 1941, 1942, 1977, 1976, 1836, 1837, 1872, 1871
1207, 1942, 1943, 1978, 1977, 1837, 1838, 1873, 1872
1208, 1943, 1944, 1979, 1978, 1838, 1839, 1874, 1873
1209, 1944, 1945, 1980, 1979, 1839, 1840, 1875, 1874
1210, 1945, 1946, 1981, 1980, 1840, 1841, 1876, 1875
1211, 1946, 1947, 1982, 1981, 1841, 1842, 1877, 1876
1212, 1947, 1948, 1983, 1982, 1842, 1843, 1878, 1877
1213, 1948, 1949, 1984, 1983, 1843, 1844, 1879, 1878
1214, 1949, 1950, 1985, 1984, 1844, 1845, 1880, 1879
1215, 1950, 1951, 1986, 1985, 1845, 1846, 1881, 1880
1216, 1951, 1952, 1987, 1986, 1846, 1847, 1882, 1881
1217, 1952, 1953, 1988, 1987, 1847, 1848, 1883, 1882
1218, 1953, 1954, 1989, 1988, 1848, 1849, 1884, 1883
1219, 1954, 1955, 1990, 1989, 1849, 1850, 1885, 1884
1220, 1955, 1956, 1991, 1990, 1850, 1851, 1886, 1885
1221, 1956, 1957, 1992, 1991, 1851, 1852, 1887, 1886
1222, 1957, 1958, 1993, 1992, 1852, 1853, 1888, 1887
1223, 1958, 1959, 1994, 1993, 1853, 1854, 1889, 1888
1224, 1959, 1960, 1995, 1994, 1854, 1855, 1890, 1889
1225, 1996, 1997, 2032, 2031, 1891, 1892, 1927, 1926
1226, 1997, 1998, 2033, 2032, 1892, 1893, 1928, 1927
1227, 1998, 1999, 2034, 2033, 1893, 1894, 1929, 1928
1228, 1999, 2000, 2035, 2034, 1894, 1895, 1930, 1929
1229, 2000, 2001, 2036, 2035, 1895, 1896, 1931, 1930
1230, 2001, 2002, 2037, 2036, 1896, 1897, 1932, 1931
1231, 2002, 2003, 2038, 2037, 1897, 1898, 1933, 1932
1232, 2003, 2004, 2039, 2038, 1898, 1899, 1934, 1933
1233, 2004, 2005, 2040, 2039, 1899, 1900, 1935, 1934
1234, 2005, 2006, 2041, 2040, 1900, 1901, 1936, 1935
1235, 2006, 2007, 2042, 2041, 1901, 1902, 1937, 1936
1236, 2007, 2008, 2043, 2042, 1902, 1903, 1938, 1937
1237, 2008, 2009, 2044, 2043, 1903, 1904, 1939, 1938
1238, 2009, 2010, 2045, 2044, 1904, 1905, 1940, 1939
1239, 2010, 2011, 2046, 2045, 1905, 1906, 1941, 1940
1240, 2011, 2012, 2047, 2046, 1906, 1907, 1942, 1941
1241, 2012, 2013, 2048, 2047, 1907, 1908, 1943, 1942
1242, 2013, 2014, 2049, 2048, 1908, 1909, 1944, 1943
1243, 2014, 2015, 2050, 2049, 1909, 1910, 1945, 1944
1244, 2015, 2016, 2051, 2050, 1910, 1911, 1946, 1945
1245, 2016, 2017, 2052, 2051, 1911, 1912, 1947, 1946
1246, 2017, 2018, 2053, 2052, 1912, 1913, 1948, 1947
1247, 2018, 2019, 2054, 2053, 1913, 1914, 1949, 1948
1248, 2019, 2020, 2055, 2054, 1914, 1915, 1950, 1949
1249, 2020, 2021, 2056, 2055, 1915, 1916, 1951, 1950
1250, 2021, 2022, 2057, 2056, 1916, 1917, 1952, 1951
1251, 2022, 2023, 2058, 2057, 1917, 1918, 1953, 1952
1252, 2023, 2024, 2059, 2058, 1918, 1919, 1954, 1953
1253, 2024, 2025, 2060, 2059, 1919, 1920, 1955, 1954
1254, 2025, 2026, 2061, 2060, 1920, 1921, 1956, 1955
1255, 2026, 2027, 2062, 2061, 1921, 1922, 1957, 1956
1256, 2027, 2028, 2063, 2062, 1922, 1923, 1958, 1957
1257, 2028, 2029, 2064, 2063, 1923, 1924, 1959, 1958
1258, 2029, 2030, 2065, 2064, 1924, 1925, 1960, 1959
1259, 2031, 2032, 2067, 2066, 1926, 1927, 1962, 1961
1260, 2032, 2033, 2068, 2067, 1927, 1928, 1963, 1962
1261, 2033, 2034, 2069, 2068, 1928, 1929, 1964, 1963
1262, 2034, 2035, 2070, 2069, 1929, 1930, 1965, 1964
1263, 2035, 2036, 2071, 2070, 1930, 1931, 1966, 1965
1264, 2036, 2037, 2072, 2071, 1931, 1932, 1967, 1966
1265, 2037, 2038, 2073, 2072, 1932, 1933, 1968, 1967
1266, 2038, 2039, 2074, 2073, 1933, 1934, 1969, 1968
1267, 2039, 2040, 2075, 2074, 1934, 1935, 1970, 1969
1268, 2040, 2041, 2076, 2075, 1935, 1936, 1971, 1970
1269, 2041, 2042, 2077, 2076, 1936, 1937, 1972, 1971
1270, 2042, 2043, 2078, 2077, 1937, 1938, 1973, 1972
1271, 2043, 2044, 2079, 2078, 1938, 1939, 1974, 1973
1272, 2044, 2045, 2080, 2079, 1939, 1940, 1975, 1974
1273, 2045, 2046, 2081, 2080, 1940, 1941, 1976, 1975
1274, 2046, 2047, 2082, 2081, 1941, 1942, 1977, 1976
1275, 2047, 2048, 2083, 2082, 1942, 1943, 1978, 1977
1276, 2048, 2049, 2084, 2083, 1943, 1944, 1979, 1978
1277, 2049, 2050, 2085, 2084, 1944, 1945, 1980, 1979
1278, 2050, 2051, 2086, 2085, 1945, 1946, 1981, 1980
1279, 2051, 2052, 2087, 2086, 1946, 1947, 1982, 1981
1280, 2052, 2053, 2088, 2087, 1947, 1948, 1983, 1982
1281, 2053, 2054, 2089, 2088, 1948, 1949, 1984, 1983
1282, 2054, 2055, 2090, 2089, 1949, 1950, 1985, 1984
1283, 2055, 2056, 2091, 2090, 1950, 1951, 1986, 1985
1284, 2056, 2057, 2092, 2091, 1951, 1952, 1987, 1986
1285, 2057, 2058, 2093, 2092, 1952, 1953, 1988, 1987
1286, 2058, 2059, 2094, 2093, 1953, 1954, 1989, 1988
1287, 2059, 2060, 2095, 2094, 1954, 1955, 1990, 1989
1288, 2060, 2061, 2096, 2095, 1955, 1956, 1991, 1990
1289, 2061, 2062, 2097, 2096, 1956, 1957, 1992, 1991
1290, 2062, 2063, 2098, 2097, 1957, 1958, 1993, 1992
1291, 2063, 2064, 2099, 2098, 1958, 1959, 1994, 1993
1292, 2064, 2065, 2100, 2099, 1959, 1960, 1995, 1994
1293, 2101, 2102, 2137, 2136, 1996, 1997, 2032, 2031
1294, 2102, 2103, 2138, 2137, 1997, 1998, 2033, 2032
1295, 2103, 2104, 2139, 2138, 1998, 1999, 2034, 2033
1296, 2104, 2105, 2140, 2139, 1999, 2000, 2035, 2034
1297, 2105, 2106, 2141, 2140, 2000, 2001, 2036, 2035
1298, 2106, 2107, 2142, 2141, 2001, 2002, 2037, 2036
1299, 2107, 2108, 2143, 2142, 2002, 2003, 2038, 2037
1300, 2108, 2109, 2144, 2143, 2003, 2004, 2039, 2038
1301, 2109, 2110, 2145, 2144, 2004, 2005, 2040, 2039
1302, 2110, 2111, 2146, 2145, 2005, 2006, 2041, 2040
1303, 2111, 2112, 2147, 2146, 2006, 2007, 2042, 2041
1304, 2112, 2113, 2148, 2147, 2007, 2008, 2043, 2042
1305, 2113, 2114, 2149, 2148, 2008, 2009, 2044, 2043
1306, 2114, 2115, 2150, 2149, 2009, 2010, 2045, 2044
1307, 2115, 2116, 2151, 2150, 2010, 2011, 2046, 2045
1308, 2116, 2117, 2152, 2151, 2011, 2012, 2047, 2046
1309, 2117, 2118, 2153, 2152, 2012, 2013, 2048, 2047
1310, 2118, 2119, 2154, 2153, 2013, 2014, 2049, 2048
1311, 2119, 2120, 2155, 2154, 2014, 2015, 2050, 2049
1312, 2120, 2121, 2156, 2155, 2015, 2016, 2051, 2050
1313, 2121, 2122, 2157, 2156, 2016, 2017, 2052, 2051
1314, 2122, 2123, 2158, 2157, 2017, 2018, 2053, 2052
1315, 2123, 2124, 2159, 2158, 2018, 2019, 2054, 2053
1316, 2124, 2125, 2160, 2159, 2019, 2020, 2055, 2054
1317, 2125, 2126, 2161, 2160, 2020, 2021, 2056, 2055
1318, 2126, 2127, 2162, 2161, 2021, 2022, 2057, 2056
1319, 2127, 2128, 2163, 2162, 2022, 2023, 2058, 2057
1320, 2128, 2129, 2164, 2163, 2023, 2024, 2059, 2058
1321, 2129, 2130, 2165, 2164, 2024, 2025, 2060, 2059
1322, 2130, 2131, 2166, 2165, 2025, 2026, 2061, 2060
1323, 2131, 2132, 2167, 2166, 2026, 2027, 2062, 2061
1324, 2132, 2133, 2168, 2167, 2027, 2028, 2063, 2062
1325, 2133, 2134, 2169, 2168, 2028, 2029, 2064, 2063
1326, 2134, 2135, 2170, 2169, 2029, 2030, 2065, 2064
1327, 2136, 2137, 2172, 2171, 2031, 2032, 2067, 2066
1328, 2137, 2138, 2173, 2172, 2032, 2033, 2068, 2067
1329, 2138, 2139, 2174, 2173, 2033, 2034, 2069, 2068
1330, 2139, 2140, 2175, 2174, 2034, 2035, 2070, 2069
1331, 2140, 2141, 2176, 2175, 2035, 2036, 2071, 2070
1332, 2141, 2142, 2177, 2176, 2036, 2037, 2072, 2071
1333, 2142, 2143, 2178, 2177, 2037, 2038, 2073, 2072
1334, 2143, 2144, 2179, 2178, 2038, 2039, 2074, 2073
1335, 2144, 2145, 2180, 2179, 2039, 2040, 2075, 2074
1336, 2145, 2146, 2181, 2180, 2040, 2041, 2076, 2075
1337, 2146, 2147, 2182, 2181, 2041, 2042, 2077, 2076
1338, 2147, 2148, 2183, 2182, 2042, 2043, 2078, 2077
1339, 2148, 2149, 2184, 2183, 2043, 2044, 2079, 2078
1340, 2149, 2150, 2185, 2184, 2044, 2045, 2080, 2079
1341, 2150, 2151, 2186, 2185, 2045, 2046, 2081, 2080
1342, 2151, 2152, 2187, 2186, 2046, 2047, 2082, 2081
1343, 2152, 2153, 2188, 2187, 2047, 2048, 2083, 2082
1344, 2153, 2154, 2189, 2188, 2048, 2049, 2084, 2083
1345, 2154, 2155, 2190, 2189, 2049, 2050, 2085, 2084
1346, 2155, 2156, 2191, 2190, 2050, 2051, 2086, 2085
1347, 2156, 2157, 2192, 2191, 2051, 2052, 2087, 2086
1348, 2157, 2158, 2193, 2192, 2052, 2053, 2088, 2087
1349, 2158, 2159, 2194, 2193, 2053, 2054, 2089, 2088
1350, 2159, 2160, 2195, 2194, 2054, 2055, 2090, 2089
1351, 2160, 2161, 2196, 2195, 2055, 2056, 2091, 2090
1352, 2161, 2162, 2197, 2196, 2056, 2057, 2092, 2091
1353, 2162, 2163, 2198, 2197, 2057, 2058, 2093, 2092
1354, 2163, 2164, 2199, 2198, 2058, 2059, 2094, 2093
1355, 2164, 2165, 2200, 2199, 2059, 2060, 2095, 2094
1356, 2165, 2166, 2201, 2200, 2060, 2061, 2096, 2095
1357, 2166, 2167, 2202, 2201, 2061, 2062, 2097, 2096
1358, 2167, 2168, 2203, 2202, 2062, 2063, 2098, 2097
1359, 2168, 2169, 2204, 2203, 2063, 2064, 2099, 2098
1360, 2169, 2170, 2205, 2204, 2064, 2065, 2100, 2099
1361, 2206, 2207, 2242, 2241, 2101, 2102, 2137, 2136
1362, 2207, 2208, 2243, 2242, 2102, 2103, 2138, 2137
1363, 2208, 2209, 2244, 2243, 2103, 2104, 2139, 2138
1364, 2209, 2210, 2245, 2244, 2104, 2105, 2140, 2139
1365, 2210, 2211, 2246, 2245, 2105, 2106, 2141, 2140
1366, 2211, 2212, 2247, 2246, 2106, 2107, 2142, 2141
1367, 2212, 2213, 2248, 2247, 2107, 2108, 2143, 2142
1368, 2213, 2214, 2249, 2248, 2108, 2109, 2144, 2143
1369, 2214, 2215, 2250, 2249, 2109, 2110, 2145, 2144
1370, 2215, 2216, 2251, 2250, 2110, 2111, 2146, 2145
1371, 2216, 2217, 2252, 2251, 2111, 2112, 2147, 2146
1372, 2217, 2218, 2253, 2252, 2112, 2113, 2148, 2147
1373, 2218, 2219, 2254, 2253, 2113, 2114, 2149, 2148
1374, 2219, 2220, 2255, 2254, 2114, 2115, 2150, 2149
1375, 2220, 2221, 2256, 2255, 2115, 2116, 2151, 2150
1376, 2221, 2222, 2257, 2256, 2116, 2117, 2152, 2151
1377, 2222, 2223, 2258, 2257, 2117, 2118, 2153, 2152
1378, 2223, 2224, 2259, 2258, 2118, 2119, 2154, 2153
1379, 2224, 2225, 2260, 2259, 2119, 2120, 2155, 2154
1380, 2225, 2226, 2261, 2260, 2120, 2121, 2156, 2155
1381, 2226, 2227, 2262, 2261, 2121, 2122, 2157, 2156
1382, 2227, 2228, 2263, 2262, 2122, 2123, 2158, 2157
1383, 2228, 2229, 2264, 2263, 2123, 2124, 2159, 2158
1384, 2229, 2230, 2265, 2264, 2124, 2125, 2160, 2159
1385, 2230, 2231, 2266, 2265, 2125, 2126, 2161, 2160
1386, 2231, 2232, 2267, 2266, 2126, 2127, 2162, 2161
1387, 2232, 2233, 2268, 2267, 2127, 2128, 2163, 2162
1388, 2233, 2234, 2269, 2268, 2128, 2129, 2164, 2163
1389, 2234, 2235, 2270, 2269, 2129, 2130, 2165, 2164
1390, 2235, 2236, 2271, 2270, 2130, 2131, 2166, 2165
1391, 2236, 2237, 2272, 2271, 2131, 2132, 2167, 2166
1392, 2237, 2238, 2273, 2272, 2132, 2133, 2168, 2167
1393, 2238, 2239, 2274, 2273, 2133, 2134, 2169, 2168
1394, 2239, 2240, 2275, 2274, 2134, 2135, 2170, 2169
1395, 2241, 2242, 2277, 2276, 2136, 2137, 2172, 2171
1396, 2242, 2243, 2278, 2277, 2137, 2138, 2173, 2172
1397, 2243, 2244, 2279, 2278, 2138, 2139, 2174, 2173
1398, 2244, 2245, 2280, 2279, 2139, 2140, 2175, 2174
1399, 2245, 2246, 2281, 2280, 2140, 2141, 2176, 2175
1400, 2246, 2247, 2282, 2281, 2141, 2142, 2177, 2176
1401, 2247, 2248, 2283, 2282, 2142, 2143, 2178, 2177
1402, 2248, 2249, 2284, 2283, 2143, 2144, 2179, 2178
1403, 2249, 2250, 2285, 2284, 2144, 2145, 2180, 2179
1404, 2250, 2251, 2286, 2285, 2145, 2146, 2181, 2180
1405, 2251, 2252, 2287, 2286, 2146, 2147, 2182, 2181
1406, 2252, 2253, 2288, 2287, 2147, 2148, 2183, 2182
1407, 2253, 2254, 2289, 2288, 2148, 2149, 2184, 2183
1408, 2254, 2255, 2290, 2289, 2149, 2150, 2185, 2184
1409, 2255, 2256, 2291, 2290, 2150, 2151, 2186, 2185
1410, 2256, 2257, 2292, 2291, 2151, 2152, 2187, 2186
1411, 2257, 2258, 2293, 2292, 2152, 2153, 2188, 2187
1412, 2258, 2259, 2294, 2293, 2153, 2154, 2189, 2188
1413, 2259, 2260, 2295, 2294, 2154, 2155, 2190, 2189
1414, 2260, 2261, 2296, 2295, 2155, 2156, 2191, 2190
1415, 2261, 2262, 2297, 2296, 2156, 2157, 2192, 2191
1416, 2262, 2263, 2298, 2297, 2157, 2158, 2193, 2192
1417, 2263, 2264, 2299, 2298, 2158, 2159, 2194, 2193
1418, 2264, 2265, 2300, 2299, 2159, 2160, 2195, 2194
1419, 2265, 2266, 2301, 2300, 2160, 2161, 2196, 2195
1420, 2266, 2267, 2302, 2301, 2161, 2162, 2197, 2196
1421, 2267, 2268, 2303, 2302, 2162, 2163, 2198, 2197
1422, 2268, 2269, 2304, 2303, 2163, 2164, 2199, 2198
1423, 2269, 2270, 2305, 2304, 2164, 2165, 2200, 2199
1424, 2270, 2271, 2306, 2305, 2165, 2166, 2201, 2200
1425, 2271, 2272, 2307, 2306, 2166, 2167, 2202, 2201
1426, 2272, 2273, 2308, 2307, 2167, 2168, 2203, 2202
1427, 2273, 2274, 2309, 2308, 2168, 2169, 2204, 2203
1428, 2274, 2275, 2310, 2309, 2169, 2170, 2205, 2204
1429, 2311, 2312, 2347, 2346, 2206, 2207, 2242, 2241
1430, 2312, 2313, 2348, 2347, 2207, 2208, 2243, 2242
1431, 2313, 2314, 2349, 2348, 2208, 2209, 2244, 2243
1432, 2314, 2315, 2350, 2349, 2209, 2210, 2245, 2244
1433, 2315, 2316, 2351, 2350, 2210, 2211, 2246, 2245
1434, 2316, 2317, 2352, 2351, 2211, 2212, 2247, 2246
1435, 2317, 2318, 2353, 2352, 2212, 2213, 2248, 2247
1436, 2318, 2319, 2354, 2353, 2213, 2214, 2249, 2248
1437, 2319, 2320, 2355, 2354, 2214, 2215, 2250, 2249
1438, 2320, 2321, 2356, 2355, 2215, 2216, 2251, 2250
1439, 2321, 2322, 2357, 2356, 2216, 2217, 2252, 2251
1440, 2322, 2323, 2358, 2357, 2217, 2218, 2253, 2252
1441, 2323, 2324, 2359, 2358, 2218, 2219, 2254, 2253
1442, 2324, 2325, 2360, 2359, 2219, 2220, 2255, 2254
1443, 2325, 2326, 2361, 2360, 2220, 2221, 2256, 2255
1444, 2326, 2327, 2362, 2361, 2221, 2222, 2257, 2256
1445, 2327, 2328, 2363, 2362, 2222, 2223, 2258, 2257
1446, 2328, 2329, 2364, 2363, 2223, 2224, 2259, 2258
1447, 2329, 2330, 2365, 2364, 2224, 2225, 2260, 2259
1448, 2330, 2331, 2366, 2365, 2225, 2226, 2261, 2260
1449, 2331, 2332, 2367, 2366, 2226, 2227, 2262, 2261
1450, 2332, 2333, 2368, 2367, 2227, 2228, 2263, 2262
1451, 2333, 2334, 2369, 2368, 2228, 2229, 2264, 2263
1452, 2334, 2335, 2370, 2369, 2229, 2230, 2265, 2264
1453, 2335, 2336, 2371, 2370, 2230, 2231, 2266, 2265
1454, 2336, 2337, 2372, 2371, 2231, 2232, 2267, 2266
1455, 2337, 2338, 2373, 2372, 2232, 2233, 2268, 2267
1456, 2338, 2339, 2374, 2373, 2233, 2234, 2269, 2268
1457, 2339, 2340, 2375, 2374, 2234, 2235, 2270, 2269
1458, 2340, 2341, 2376, 2375, 2235, 2236, 2271, 2270
1459, 2341, 2342, 2377, 2376, 2236, 2237, 2272, 2271
1460, 2342, 2343, 2378, 2377, 2237, 2238, 2273, 2272
1461, 2343, 2344, 2379, 2378, 2238, 2239, 2274, 2273
1462, 2344, 2345, 2380, 2379, 2239, 2240, 2275, 2274
1463, 2346, 2347, 2382, 2381, 2241, 2242, 2277, 2276
1464, 2347, 2348, 2383, 2382, 2242, 2243, 2278, 2277
1465, 2348, 2349, 2384, 2383, 2243, 2244, 2279, 2278
1466, 2349, 2350, 2385, 2384, 2244, 2245, 2280, 2279
1467, 2350, 2351, 2386, 2385, 2245, 2246, 2281, 2280
1468, 2351, 2352, 2387, 2386, 2246, 2247, 2282, 2281
1469, 2352, 2353, 2388, 2387, 2247, 2248, 2283, 2282
1470, 2353, 2354, 2389, 2388, 2248, 2249, 2284, 2283
1471, 2354, 2355, 2390, 2389, 2249, 2250, 2285, 2284
1472, 2355, 2356, 2391, 2390, 2250, 2251, 2286, 2285
1473, 2356, 2357, 2392, 2391, 2251, 2252, 2287, 2286
1474, 2357, 2358, 2393, 2392, 2252, 2253, 2288, 2287
1475, 2358, 2359, 2394, 2393, 2253, 2254, 2289, 2288
1476, 2359, 2360, 2395, 2394, 2254, 2255, 2290, 2289
1477, 2360, 2361, 2396, 2395, 2255, 2256, 2291, 2290
1478, 2361, 2362, 2397, 2396, 2256, 2257, 2292, 2291
1479, 2362, 2363, 2398, 2397, 2257, 2258, 2293, 2292
1480, 2363, 2364, 2399, 2398, 2258, 2259, 2294, 2293
1481, 2364, 2365, 2400, 2399, 2259, 2260, 2295, 2294
1482, 2365, 2366, 2401, 2400, 2260, 2261, 2296, 2295
1483, 2366, 2367, 2402, 2401, 2261, 2262, 2297, 2296
1484, 2367, 2368, 2403, 2402, 2262, 2263, 2298, 2297
1485, 2368, 2369, 2404, 2403, 2263, 2264, 2299, 2298
1486, 2369, 2370, 2405, 2404, 2264, 2265, 2300, 2299
1487, 2370, 2371, 2406, 2405, 2265, 2266, 2301, 2300
1488, 2371, 2372, 2407, 2406, 2266, 2267, 2302, 2301
1489, 2372, 2373, 2408, 2407, 2267, 2268, 2303, 2302
1490, 2373, 2374, 2409, 2408, 2268, 2269, 2304, 2303
1491, 2374, 2375, 2410, 2409, 2269, 2270, 2305, 2304
1492, 2375, 2376, 2411, 2410, 2270, 2271, 2306, 2305
1493, 2376, 2377, 2412, 2411, 2271, 2272, 2307, 2306
1494, 2377, 2378, 2413, 2412, 2272, 2273, 2308, 2307
1495, 2378, 2379, 2414, 2413, 2273, 2274, 2309, 2308
1496, 2379, 2380, 2415, 2414, 2274, 2275, 2310, 2309
1497, 2416, 2417, 2452, 2451, 2311, 2312, 2347, 2346
1498, 2417, 2418, 2453, 2452, 2312, 2313, 2348, 2347
1499, 2418, 2419, 2454, 2453, 2313, 2314, 2349, 2348
1500, 2419, 2420, 2455, 2454, 2314, 2315, 2350, 2349
1501, 2420, 2421, 2456, 2455, 2315, 2316, 2351, 2350
1502, 2421, 2422, 2457, 2456, 2316, 2317, 2352, 2351
1503, 2422, 2423, 2458, 2457, 2317, 2318, 2353, 2352
1504, 2423, 2424, 2459, 2458, 2318, 2319, 2354, 2353
1505, 2424, 2425, 2460, 2459, 2319, 2320, 2355, 2354
1506, 2425, 2426, 2461, 2460, 2320, 2321, 2356, 2355
1507, 2426, 2427, 2462, 2461, 2321, 2322, 2357, 2356
1508, 2427, 2428, 2463, 2462, 2322, 2323, 2358, 2357
1509, 2428, 2429, 2464, 2463, 2323, 2324, 2359, 2358
1510, 2429, 2430, 2465, 2464, 2324, 2325, 2360, 2359
1511, 2430, 2431, 2466, 2465, 2325, 2326, 2361, 2360
1512, 2431, 2432, 2467, 2466, 2326, 2327, 2362, 2361
1513, 2432, 2433, 2468, 2467, 2327, 2328, 2363, 2362
1514, 2433, 2434, 2469, 2468, 2328, 2329, 2364, 2363
1515, 2434, 2435, 2470, 2469, 2329, 2330, 2365, 2364
1516, 2435, 2436, 2471, 2470, 2330, 2331, 2366, 2365
1517, 2436, 2437, 2472, 2471, 2331, 2332, 2367, 2366
1518, 2437, 2438, 2473, 2472, 2332, 2333, 2368, 2367
1519, 2438, 2439, 2474, 2473, 2333, 2334, 2369, 2368
1520, 2439, 2440, 2475, 2474, 2334, 2335, 2370, 2369
1521, 2440, 2441, 2476, 2475, 2335, 2336, 2371, 2370
1522, 2441, 2442, 2477, 2476, 2336, 2337, 2372, 2371
1523, 2442, 2443, 2478, 2477, 2337, 2338, 2373, 2372
1524, 2443, 2444, 2479, 2478, 2338, 2339, 2374, 2373
1525, 2444, 2445, 2480, 2479, 2339, 2340, 2375, 2374
1526, 2445, 2446, 2481, 2480, 2340, 2341, 2376, 2375
1527, 2446, 2447, 2482, 2481, 2341, 2342, 2377, 2376
1528, 2447, 2448, 2483, 2482, 2342, 2343, 2378, 2377
1529, 2448, 2449, 2484, 2483, 2343, 2344, 2379, 2378
1530, 2449, 2450, 2485, 2484, 2344, 2345, 2380, 2379
1531, 2451, 2452, 2487, 2486, 2346, 2347, 2382, 2381
1532, 2452, 2453, 2488, 2487, 2347, 2348, 2383, 2382
1533, 2453, 2454, 2489, 2488, 2348, 2349, 2384, 2383
1534, 2454, 2455, 2490, 2489, 2349, 2350, 2385, 2384
1535, 2455, 2456, 2491, 2490, 2350, 2351, 2386, 2385
1536, 2456, 2457, 2492, 2491, 2351, 2352, 2387, 2386
1537, 2457, 2458, 2493, 2492, 2352, 2353, 2388, 2387
1538, 2458, 2459, 2494, 2493, 2353, 2354, 2389, 2388
1539, 2459, 2460, 2495, 2494, 2354, 2355, 2390, 2389
1540, 2460, 2461, 2496, 2495, 2355, 2356, 2391, 2390
1541, 2461, 2462, 2497, 2496, 2356, 2357, 2392, 2391
1542, 2462, 2463, 2498, 2497, 2357, 2358, 2393, 2392
1543, 2463, 2464, 2499, 2498, 2358, 2359, 2394, 2393
1544, 2464, 2465, 2500, 2499, 2359, 2360, 2395, 2394
1545, 2465, 2466, 2501, 2500, 2360, 2361, 2396, 2395
1546, 2466, 2467, 2502, 2501, 2361, 2362, 2397, 2396
1547, 2467, 2468, 2503, 2502, 2362, 2363, 2398, 2397
1548, 2468, 2469, 2504, 2503, 2363, 2364, 2399, 2398
1549, 2469, 2470, 2505, 2504, 2364, 2365, 2400, 2399
1550, 2470, 2471, 2506, 2505, 2365, 2366, 2401, 2400
1551, 2471, 2472, 2507, 2506, 2366, 2367, 2402, 2401
1552, 2472, 2473, 2508, 2507, 2367, 2368, 2403, 2402
1553, 2473, 2474, 2509, 2508, 2368, 2369, 2404, 2403
1554, 2474, 2475, 2510, 2509, 2369, 2370, 2405, 2404
1555, 2475, 2476, 2511, 2510, 2370, 2371, 2406, 2405
1556, 2476, 2477, 2512, 2511, 2371, 2372, 2407, 2406
1557, 2477, 2478, 2513, 2512, 2372, 2373, 2408, 2407
1558, 2478, 2479, 2514, 2513, 2373, 2374, 2409, 2408
1559, 2479, 2480, 2515, 2514, 2374, 2375, 2410, 2409
1560, 2480, 2481, 2516, 2515, 2375, 2376, 2411, 2410
1561, 2481, 2482, 2517, 2516, 2376, 2377, 2412, 2411
1562, 2482, 2483, 2518, 2517, 2377, 2378, 2413, 2412
1563, 2483, 2484, 2519, 2518, 2378, 2379, 2414, 2413
1564, 2484, 2485, 2520, 2519, 2379, 2380, 2415, 2414
1565, 2521, 2522, 2557, 2556, 2416, 2417, 2452, 2451
1566, 2522, 2523, 2558, 2557, 2417, 2418, 2453, 2452
1567, 2523, 2524, 2559, 2558, 2418, 2419, 2454, 2453
1568, 2524, 2525, 2560, 2559, 2419, 2420, 2455, 2454
1569, 2525, 2526, 2561, 2560, 2420, 2421, 2456, 2455
1570, 2526, 2527, 2562, 2561, 2421, 2422, 2457, 2456
1571, 2527, 2528, 2563, 2562, 2422, 2423, 2458, 2457
1572, 2528, 2529, 2564, 2563, 2423, 2424, 2459, 2458
1573, 2529, 2530, 2565, 2564, 2424, 2425, 2460, 2459
1574, 2530, 2531, 2566, 2565, 2425, 2426, 2461, 2460
1575, 2531, 2532, 2567, 2566, 2426, 2427, 2462, 2461
1576, 2532, 2533, 2568, 2567, 2427, 2428, 2463, 2462
1577, 2533, 2534, 2569, 2568, 2428, 2429, 2464, 2463
1578, 2534, 2535, 2570, 2569, 2429, 2430, 2465, 2464
1579, 2535, 2536, 2571, 2570, 2430, 2431, 2466, 2465
1580, 2536, 2537, 2572, 2571, 2431, 2432, 2467, 2466
1581, 2537, 2538, 2573, 2572, 2432, 2433, 2468, 2467
1582, 2538, 2539, 2574, 2573, 2433, 2434, 2469, 2468
1583, 2539, 2540, 2575, 2574, 2434, 2435, 2470, 2469
1584, 2540, 2541, 2576, 2575, 2435, 2436, 2471, 2470
1585, 2541, 2542, 2577, 2576, 2436, 2437, 2472, 2471
1586, 2542, 2543, 2578, 2577, 2437, 2438, 2473, 2472
1587, 2543, 2544, 2579, 2578, 2438, 2439, 2474, 2473
1588, 2544, 2545, 2580, 2579, 2439, 2440, 2475, 2474
1589, 2545, 2546, 2581, 2580, 2440, 2441, 2476, 2475
1590, 2546, 2547, 2582, 2581, 2441, 2442, 2477, 2476
1591, 2547, 2548, 2583, 2582, 2442, 2443, 2478, 2477
1592, 2548, 2549, 2584, 2583, 2443, 2444, 2479, 2478
1593, 2549, 2550, 2585, 2584, 2444, 2445, 2480, 2479
1594, 2550, 2551, 2586, 2585, 2445, 2446, 2481, 2480
1595, 2551, 2552, 2587, 2586, 2446, 2447, 2482, 2481
1596, 2552, 2553, 2588, 2587, 2447, 2448, 2483, 2482
1597, 2553, 2554, 2589, 2588, 2448, 2449, 2484, 2483
1598, 2554, 2555, 2590, 2589, 2449, 2450, 2485, 2484
1599, 2556, 2557, 2592, 2591, 2451, 2452, 2487, 2486
1600, 2557, 2558, 2593, 2592, 2452, 2453, 2488, 2487
1601, 2558, 2559, 2594, 2593, 2453, 2454, 2489, 2488
1602, 2559, 2560, 2595, 2594, 2454, 2455, 2490, 2489
1603, 2560, 2561, 2596, 2595, 2455, 2456, 2491, 2490
1604, 2561, 2562, 2597, 2596, 2456, 2457, 2492, 2491
1605, 2562, 2563, 2598, 2597, 2457, 2458, 2493, 2492
1606, 2563, 2564, 2599, 2598, 2458, 2459, 2494, 2493
1607, 2564, 2565, 2600, 2599, 2459, 2460, 2495, 2494
1608, 2565, 2566, 2601, 2600, 2460, 2461, 2496, 2495
1609, 2566, 2567, 2602, 2601, 2461, 2462, 2497, 2496
1610, 2567, 2568, 2603, 2602, 2462, 2463, 2498, 2497
1611, 2568, 2569, 2604, 2603, 2463, 2464, 2499, 2498
1612, 2569, 2570, 2605, 2604, 2464, 2465, 2500, 2499
1613, 2570, 2571, 2606, 2605, 2465, 2466, 2501, 2500
1614, 2571, 2572, 2607, 2606, 2466, 2467, 2502, 2501
1615, 2572, 2573, 2608, 2607, 2467, 2468, 2503, 2502
1616, 2573, 2574, 2609, 2608, 2468, 2469, 2504, 2503
1617, 2574, 2575, 2610, 2609, 2469, 2470, 2505, 2504
1618, 2575, 2576, 2611, 2610, 2470, 2471, 2506, 2505
1619, 2576, 2577, 2612, 2611, 2471, 2472, 2507, 2506
1620, 2577, 2578, 2613, 2612, 2472, 2473, 2508, 2507
1621, 2578, 2579, 2614, 2613, 2473, 2474, 2509, 2508
1622, 2579, 2580, 2615, 2614, 2474, 2475, 2510, 2509
1623, 2580, 2581, 2616, 2615, 2475, 2476, 2511, 2510
1624, 2581, 2582, 2617, 2616, 2476, 2477, 2512, 2511
1625, 2582, 2583, 2618, 2617, 2477, 2478, 2513, 2512
1626, 2583, 2584, 2619, 2618, 2478, 2479, 2514, 2513
1627, 2584, 2585, 2620, 2619, 2479, 2480, 2515, 2514
1628, 2585, 2586, 2621, 2620, 2480, 2481, 2516, 2515
1629, 2586, 2587, 2622, 2621, 2481, 2482, 2517, 2516
1630, 2587, 2588, 2623, 2622, 2482, 2483, 2518, 2517
1631, 2588, 2589, 2624, 2623, 2483, 2484, 2519, 2518
1632, 2589, 2590, 2625, 2624, 2484, 2485, 2520, 2519
1633, 2626, 2627, 2662, 2661, 2521, 2522, 2557, 2556
1634, 2627, 2628, 2663, 2662, 2522, 2523, 2558, 2557
1635, 2628, 2629, 2664, 2663, 2523, 2524, 2559, 2558
1636, 2629, 2630, 2665, 2664, 2524, 2525, 2560, 2559
1637, 2630, 2631, 2666, 2665, 2525, 2526, 2561, 2560
1638, 2631, 2632, 2667, 2666, 2526, 2527, 2562, 2561
1639, 2632, 2633, 2668, 2667, 2527, 2528, 2563, 2562
1640, 2633, 2634, 2669, 2668, 2528, 2529, 2564, 2563
1641, 2634, 2635, 2670, 2669, 2529, 2530, 2565, 2564
1642, 2635, 2636, 2671, 2670, 2530, 2531, 2566, 2565
1643, 2636, 2637, 2672, 2671, 2531, 2532, 2567, 2566
1644, 2637, 2638, 2673, 2672, 2532, 2533, 2568, 2567
1645, 2638, 2639, 2674, 2673, 2533, 2534, 2569, 2568
1646, 2639, 2640, 2675, 2674, 2534, 2535, 2570, 2569
1647, 2640, 2641, 2676, 2675, 2535, 2536, 2571, 2570
1648, 2641, 2642, 2677, 2676, 2536, 2537, 2572, 2571
1649, 2642, 2643, 2678, 2677, 2537, 2538, 2573, 2572
1650, 2643, 2644, 2679, 2678, 2538, 2539, 2574, 2573
1651, 2644, 2645, 2680, 2679, 2539, 2540, 2575, 2574
1652, 2645, 2646, 2681, 2680, 2540, 2541, 2576, 2575
1653, 2646, 2647, 2682, 2681, 2541, 2542, 2577, 2576
1654, 2647, 2648, 2683, 2682, 2542, 2543, 2578, 2577
1655, 2648, 2649, 2684, 2683, 2543, 2544, 2579, 2578
1656, 2649, 2650, 2685, 2684, 2544, 2545, 2580, 2579
1657, 2650, 2651, 2686, 2685, 2545, 2546, 2581, 2580
1658, 2651, 2652, 2687, 2686, 2546, 2547, 2582, 2581
1659, 2652, 2653, 2688, 2687, 2547, 2548, 2583, 2582
1660, 2653, 2654, 2689, 2688, 2548, 2549, 2584, 2583
1661, 2654, 2655, 2690, 2689, 2549, 2550, 2585, 2584
1662, 2655, 2656, 2691, 2690, 2550, 2551, 2586, 2585
1663, 2656, 2657, 2692, 2691, 2551, 2552, 2587, 2586
1664, 2657, 2658, 2693, 2692, 2552, 2553, 2588, 2587
1665, 2658, 2659, 2694, 2693, 2553, 2554, 2589, 2588
1666, 2659, 2660, 2695, 2694, 2554, 2555, 2590, 2589
1667, 2661, 2662, 2697, 2696, 2556, 2557, 2592, 2591
1668, 2662, 2663, 2698, 2697, 2557, 2558, 2593, 2592
1669, 2663, 2664, 2699, 2698, 2558, 2559, 2594, 2593
1670, 2664, 2665, 2700, 2699, 2559, 2560, 2595, 2594
1671, 2665, 2666, 2701, 2700, 2560, 2561, 2596, 2595
1672, 2666, 2667, 2702, 2701, 2561, 2562, 2597, 2596
1673, 2667, 2668, 2703, 2702, 2562, 2563, 2598, 2597
1674, 2668, 2669, 2704, 2703, 2563, 2564, 2599, 2598
1675, 2669, 2670, 2705, 2704, 2564, 2565, 2600, 2599
1676, 2670, 2671, 2706, 2705, 2565, 2566, 2601, 2600
1677, 2671, 2672, 2707, 2706, 2566, 2567, 2602, 2601
1678, 2672, 2673, 2708, 2707, 2567, 2568, 2603, 2602
1679, 2673, 2674, 2709, 2708, 2568, 2569, 2604, 2603
1680, 2674, 2675, 2710, 2709, 2569, 2570, 2605, 2604
1681, 2675, 2676, 2711, 2710, 2570, 2571, 2606, 2605
1682, 2676, 2677, 2712, 2711, 2571, 2572, 2607, 2606
1683, 2677, 2678, 2713, 2712, 2572, 2573, 2608, 2607
1684, 2678, 2679, 2714, 2713, 2573, 2574, 2609, 2608
1685, 2679, 2680, 2715, 2714, 2574, 2575, 2610, 2609
1686, 2680, 2681, 2716, 2715, 2575, 2576, 2611, 2610
1687, 2681, 2682, 2717, 2716, 2576, 2577, 2612, 2611
1688, 2682, 2683, 2718, 2717, 2577, 2578, 2613, 2612
1689, 2683, 2684, 2719, 2718, 2578, 2579, 2614, 2613
1690, 2684, 2685, 2720, 2719, 2579, 2580, 2615, 2614
1691, 2685, 2686, 2721, 2720, 2580, 2581, 2616, 2615
1692, 2686, 2687, 2722, 2721, 2581, 2582, 2617, 2616
1693, 2687, 2688, 2723, 2722, 2582, 2583, 2618, 2617
1694, 2688, 2689, 2724, 2723, 2583, 2584, 2619, 2618
1695, 2689, 2690, 2725, 2724, 2584, 2585, 2620, 2619
1696, 2690, 2691, 2726, 2725, 2585, 2586, 2621, 2620
1697, 2691, 2692, 2727, 2726, 2586, 2587, 2622, 2621
1698, 2692, 2693, 2728, 2727, 2587, 2588, 2623, 2622
1699, 2693, 2694, 2729, 2728, 2588, 2589, 2624, 2623
1700, 2694, 2695, 2730, 2729, 2589, 2590, 2625, 2624
1701, 2731, 2732, 2767, 2766, 2626, 2627, 2662, 2661
1702, 2732, 2733, 2768, 2767, 2627, 2628, 2663, 2662
1703, 2733, 2734, 2769, 2768, 2628, 2629, 2664, 2663
1704, 2734, 2735, 2770, 2769, 2629, 2630, 2665, 2664
1705, 2735, 2736, 2771, 2770, 2630, 2631, 2666, 2665
1706, 2736, 2737, 2772, 2771, 2631, 2632, 2667, 2666
1707, 2737, 2738, 2773, 2772, 2632, 2633, 2668, 2667
1708, 2738, 2739, 2774, 2773, 2633, 2634, 2669, 2668
1709, 2739, 2740, 2775, 2774, 2634, 2635, 2670, 2669
1710, 2740, 2741, 2776, 2775, 2635, 2636, 2671, 2670
1711, 2741, 2742, 2777, 2776, 2636, 2637, 2672, 2671
1712, 2742, 2743, 2778, 2777, 2637, 2638, 2673, 2672
1713, 2743, 2744, 2779, 2778, 2638, 2639, 2674, 2673
1714, 2744, 2745, 2780, 2779, 2639, 2640, 2675, 2674
1715, 2745, 2746, 2781, 2780, 2640, 2641, 2676, 2675
1716, 2746, 2747, 2782, 2781, 2641, 2642, 2677, 2676
1717, 2747, 2748, 2783, 2782, 2642, 2643, 2678, 2677
1718, 2748, 2749, 2784, 2783, 2643, 2644, 2679, 2678
1719, 2749, 2750, 2785, 2784, 2644, 2645, 2680, 2679
1720, 2750, 2751, 2786, 2785, 2645, 2646, 2681, 2680
1721, 2751, 2752, 2787, 2786, 2646, 2647, 2682, 2681
1722, 2752, 2753, 2788, 2787, 2647, 2648, 2683, 2682
1723, 2753, 2754, 2789, 2788, 2648, 2649, 2684, 2683
1724, 2754, 2755, 2790, 2789, 2649, 2650, 2685, 2684
1725, 2755, 2756, 2791, 2790, 2650, 2651, 2686, 2685
1726, 2756, 2757, 2792, 2791, 2651, 2652, 2687, 2686
1727, 2757, 2758, 2793, 2792, 2652, 2653, 2688, 2687
1728, 2758, 2759, 2794, 2793, 2653, 2654, 2689, 2688
1729, 2759, 2760, 2795, 2794, 2654, 2655, 2690, 2689
1730, 2760, 2761, 2796, 2795, 2655, 2656, 2691, 2690
1731, 2761, 2762, 2797, 2796, 2656, 2657, 2692, 2691
1732, 2762, 2763, 2798, 2797, 2657, 2658, 2693, 2692
1733, 2763, 2764, 2799, 2798, 2658, 2659, 2694, 2693
1734, 2764, 2765, 2800, 2799, 2659, 2660, 2695, 2694
1735, 2766, 2767, 2802, 2801, 2661, 2662, 2697, 2696
1736, 2767, 2768, 2803, 2802, 2662, 2663, 2698, 2697
1737, 2768, 2769, 2804, 2803, 2663, 2664, 2699, 2698
1738, 2769, 2770, 2805, 2804, 2664, 2665, 2700, 2699
1739, 2770, 2771, 2806, 2805, 2665, 2666, 2701, 2700
1740, 2771, 2772, 2807, 2806, 2666, 2667, 2702, 2701
1741, 2772, 2773, 2808, 2807, 2667, 2668, 2703, 2702
1742, 2773, 2774, 2809, 2808, 2668, 2669, 2704, 2703
1743, 2774, 2775, 2810, 2809, 2669, 2670, 2705, 2704
1744, 2775, 2776, 2811, 2810, 2670, 2671, 2706, 2705
1745, 2776, 2777, 2812, 2811, 2671, 2672, 2707, 2706
1746, 2777, 2778, 2813, 2812, 2672, 2673, 2708, 2707
1747, 2778, 2779, 2814, 2813, 2673, 2674, 2709, 2708
1748, 2779, 2780, 2815, 2814, 2674, 2675, 2710, 2709
1749, 2780, 2781, 2816, 2815, 2675, 2676, 2711, 2710
1750, 2781, 2782, 2817, 2816, 2676, 2677, 2712, 2711
1751, 2782, 2783, 2818, 2817, 2677, 2678, 2713, 2712
1752, 2783, 2784, 2819, 2818, 2678, 2679, 2714, 2713
1753, 2784, 2785, 2820, 2819, 2679, 2680, 2715, 2714
1754, 2785, 2786, 2821, 2820, 2680, 2681, 2716, 2715
1755, 2786, 2787, 2822, 2821, 2681, 2682, 2717, 2716
1756, 2787, 2788, 2823, 2822, 2682, 2683, 2718, 2717
1757, 2788, 2789, 2824, 2823, 2683, 2684, 2719, 2718
1758, 2789, 2790, 2825, 2824, 2684, 2685, 2720, 2719
1759, 2790, 2791, 2826, 2825, 2685, 2686, 2721, 2720
1760, 2791, 2792, 2827, 2826, 2686, 2687, 2722, 2721
1761, 2792, 2793, 2828, 2827, 2687, 2688, 2723, 2722
1762, 2793, 2794, 2829, 2828, 2688, 2689, 2724, 2723
1763, 2794, 2795, 2830, 2829, 2689, 2690, 2725, 2724
1764, 2795, 2796, 2831, 2830, 2690, 2691, 2726, 2725
1765, 2796, 2797, 2832, 2831, 2691, 2692, 2727, 2726
1766, 2797, 2798, 2833, 2832, 2692, 2693, 2728, 2727
1767, 2798, 2799, 2834, 2833, 2693, 2694, 2729, 2728
1768, 2799, 2800, 2835, 2834, 2694, 2695, 2730, 2729
1769, 2836, 2837, 2872, 2871, 2731, 2732, 2767, 2766
1770, 2837, 2838, 2873, 2872, 2732, 2733, 2768, 2767
1771, 2838, 2839, 2874, 2873, 2733, 2734, 2769, 2768
1772, 2839, 2840, 2875, 2874, 2734, 2735, 2770, 2769
1773, 2840, 2841, 2876, 2875, 2735, 2736, 2771, 2770
1774, 2841, 2842, 2877, 2876, 2736, 2737, 2772, 2771
1775, 2842, 2843, 2878, 2877, 2737, 2738, 2773, 2772
1776, 2843, 2844, 2879, 2878, 2738, 2739, 2774, 2773
1777, 2844, 2845, 2880, 2879, 2739, 2740, 2775, 2774
1778, 2845, 2846, 2881, 2880, 2740, 2741, 2776, 2775
1779, 2846, 2847, 2882, 2881, 2741, 2742, 2777, 2776
1780, 2847, 2848, 2883, 2882, 2742, 2743, 2778, 2777
1781, 2848, 2849, 2884, 2883, 2743, 2744, 2779, 2778
1782, 2849, 2850, 2885, 2884, 2744, 2745, 2780, 2779
1783, 2850, 2851, 2886, 2885, 2745, 2746, 2781, 2780
1784, 2851, 2852, 2887, 2886, 2746, 2747, 2782, 2781
1785, 2852, 2853, 2888, 2887, 2747, 2748, 2783, 2782
1786, 2853, 2854, 2889, 2888, 2748, 2749, 2784, 2783
1787, 2854, 2855, 2890, 2889, 2749, 2750, 2785, 2784
1788, 2855, 2856, 2891, 2890, 2750, 2751, 2786, 2785
1789, 2856, 2857, 2892, 2891, 2751, 2752, 2787, 2786
1790, 2857, 2858, 2893, 2892, 2752, 2753, 2788, 2787
1791, 2858, 2859, 2894, 2893, 2753, 2754, 2789, 2788
1792, 2859, 2860, 2895, 2894, 2754, 2755, 2790, 2789
1793, 2860, 2861, 2896, 2895, 2755, 2756, 2791, 2790
1794, 2861, 2862, 2897, 2896, 2756, 2757, 2792, 2791
1795, 2862, 2863, 2898, 2897, 2757, 2758, 2793, 2792
1796, 2863, 2864, 2899, 2898, 2758, 2759, 2794, 2793
1797, 2864, 2865, 2900, 2899, 2759, 2760, 2795, 2794
1798, 2865, 2866, 2901, 2900, 2760, 2761, 2796, 2795
1799, 2866, 2867, 2902, 2901, 2761, 2762, 2797, 2796
1800, 2867, 2868, 2903, 2902, 2762, 2763, 2798, 2797
1801, 2868, 2869, 2904, 2903, 2763, 2764, 2799, 2798
1802, 2869, 2870, 2905, 2904, 2764, 2765, 2800, 2799
1803, 2871, 2872, 2907, 2906, 2766, 2767, 2802, 2801
1804, 2872, 2873, 2908, 2907, 2767, 2768, 2803, 2802
1805, 2873, 2874, 2909, 2908, 2768, 2769, 2804, 2803
1806, 2874, 2875, 2910, 2909, 2769, 2770, 2805, 2804
1807, 2875, 2876, 2911, 2910, 2770, 2771, 2806, 2805
1808, 2876, 2877, 2912, 2911, 2771, 2772, 2807, 2806
1809, 2877, 2878, 2913, 2912, 2772, 2773, 2808, 2807
1810, 2878, 2879, 2914, 2913, 2773, 2774, 2809, 2808
1811, 2879, 2880, 2915, 2914, 2774, 2775, 2810, 2809
1812, 2880, 2881, 2916, 2915, 2775, 2776, 2811, 2810
1813, 2881, 2882, 2917, 2916, 2776, 2777, 2812, 2811
1814, 2882, 2883, 2918, 2917, 2777, 2778, 2813, 2812
1815, 2883, 2884, 2919, 2918, 2778, 2779, 2814, 2813
1816, 2884, 2885, 2920, 2919, 2779, 2780, 2815, 2814
1817, 2885, 2886, 2921, 2920, 2780, 2781, 2816, 2815
1818, 2886, 2887, 2922, 2921, 2781, 2782, 2817, 2816
1819, 2887, 2888, 2923, 2922, 2782, 2783, 2818, 2817
1820, 2888, 2889, 2924, 2923, 2783, 2784, 2819, 2818
1821, 2889, 2890, 2925, 2924, 2784, 2785, 2820, 2819
1822, 2890, 2891, 2926, 2925, 2785, 2786, 2821, 2820
1823, 2891, 2892, 2927, 2926, 2786, 2787, 2822, 2821
1824, 2892, 2893, 2928, 2927, 2787, 2788, 2823, 2822
1825, 2893, 2894, 2929, 2928, 2788, 2789, 2824, 2823
1826, 2894, 2895, 2930, 2929, 2789, 2790, 2825, 2824
1827, 2895, 2896, 2931, 2930, 2790, 2791, 2826, 2825
1828, 2896, 2897, 2932, 2931, 2791, 2792, 2827, 2826
1829, 2897, 2898, 2933, 2932, 2792, 2793, 2828, 2827
1830, 2898, 2899, 2934, 2933, 2793, 2794, 2829, 2828
1831, 2899, 2900, 2935, 2934, 2794, 2795, 2830, 2829
1832, 2900, 2901, 2936, 2935, 2795, 2796, 2831, 2830
1833, 2901, 2902, 2937, 2936, 2796, 2797, 2832, 2831
1834, 2902, 2903, 2938, 2937, 2797, 2798, 2833, 2832
1835, 2903, 2904, 2939, 2938, 2798, 2799, 2834, 2833
1836, 2904, 2905, 2940, 2939, 2799, 2800, 2835, 2834
1837, 2941, 2942, 2977, 2976, 2836, 2837, 2872, 2871
1838, 2942, 2943, 2978, 2977, 2837, 2838, 2873, 2872
1839, 2943, 2944, 2979, 2978, 2838, 2839, 2874, 2873
1840, 2944, 2945, 2980, 2979, 2839, 2840, 2875, 2874
1841, 2945, 2946, 2981, 2980, 2840, 2841, 2876, 2875
1842, 2946, 2947, 2982, 2981, 2841, 2842, 2877, 2876
1843, 2947, 2948, 2983, 2982, 2842, 2843, 2878, 2877
1844, 2948, 2949, 2984, 2983, 2843, 2844, 2879, 2878
1845, 2949, 2950, 2985, 2984, 2844, 2845, 2880, 2879
1846, 2950, 2951, 2986, 2985, 2845, 2846, 2881, 2880
1847, 2951, 2952, 2987, 2986, 2846, 2847, 2882, 2881
1848, 2952, 2953, 2988, 2987, 2847, 2848, 2883, 2882
1849, 2953, 2954, 2989, 2988, 2848, 2849, 2884, 2883
1850, 2954, 2955, 2990, 2989, 2849, 2850, 2885, 2884
1851, 2955, 2956, 2991, 2990, 2850, 2851, 2886, 2885
1852, 2956, 2957, 2992, 2991, 2851, 2852, 2887, 2886
1853, 2957, 2958, 2993, 2992, 2852, 2853, 2888, 2887
1854, 2958, 2959, 2994, 2993, 2853, 2854, 2889, 2888
1855, 2959, 2960, 2995, 2994, 2854, 2855, 2890, 2889
1856, 2960, 2961, 2996, 2995, 2855, 2856, 2891, 2890
1857, 2961, 2962, 2997, 2996, 2856, 2857, 2892, 2891
1858, 2962, 2963, 2998, 2997, 2857, 2858, 2893, 2892
1859, 2963, 2964, 2999, 2998, 2858, 2859, 2894, 2893
1860, 2964, 2965, 3000, 2999, 2859, 2860, 2895, 2894
1861, 2965, 2966, 3001, 3000, 2860, 2861, 2896, 2895
1862, 2966, 2967, 3002, 3001, 2861, 2862, 2897, 2896
1863, 2967, 2968, 3003, 3002, 2862, 2863, 2898, 2897
1864, 2968, 2969, 3004, 3003, 2863, 2864, 2899, 2898
1865, 2969, 2970, 3005, 3004, 2864, 2865, 2900, 2899
1866, 2970, 2971, 3006, 3005, 2865, 2866, 2901, 2900
1867, 2971, 2972, 3007, 3006, 2866, 2867, 2902, 2901
1868, 2972, 2973, 3008, 3007, 2867, 2868, 2903, 2902
1869, 2973, 2974, 3009, 3008, 2868, 2869, 2904, 2903
1870, 2974, 2975, 3010, 3009, 2869, 2870, 2905, 2904
1871, 2976, 2977, 3012, 3011, 2871, 2872, 2907, 2906
1872, 2977, 2978, 3013, 3012, 2872, 2873, 2908, 2907
1873, 2978, 2979, 3014, 3013, 2873, 2874, 2909, 2908
1874, 2979, 2980, 3015, 3014, 2874, 2875, 2910, 2909
1875, 2980, 2981, 3016, 3015, 2875, 2876, 2911, 2910
1876, 2981, 2982, 3017, 3016, 2876, 2877, 2912, 2911
1877, 2982, 2983, 3018, 3017, 2877, 2878, 2913, 2912
1878, 2983, 2984, 3019, 3018, 2878, 2879, 2914, 2913
1879, 2984, 2985, 3020, 3019, 2879, 2880, 2915, 2914
1880, 2985, 2986, 3021, 3020, 2880, 2881, 2916, 2915
1881, 2986, 2987, 3022, 3021, 2881, 2882, 2917, 2916
1882, 2987, 2988, 3023, 3022, 2882, 2883, 2918, 2917
1883, 2988, 2989, 3024, 3023, 2883, 2884, 2919, 2918
1884, 2989, 2990, 3025, 3024, 2884, 2885, 2920, 2919
1885, 2990, 2991, 3026, 3025, 2885, 2886, 2921, 2920
1886, 2991, 2992, 3027, 3026, 2886, 2887, 2922, 2921
1887, 2992, 2993, 3028, 3027, 2887, 2888, 2923, 2922
1888, 2993, 2994, 3029, 3028, 2888, 2889, 2924, 2923
1889, 2994, 2995, 3030, 3029, 2889, 2890, 2925, 2924
1890, 2995, 2996, 3031, 3030, 2890, 2891, 2926, 2925
1891, 2996, 2997, 3032, 3031, 2891, 2892, 2927, 2926
1892, 2997, 2998, 3033, 3032, 2892, 2893, 2928, 2927
1893, 2998, 2999, 3034, 3033, 2893, 2894, 2929, 2928
1894, 2999, 3000, 3035, 3034, 2894, 2895, 2930, 2929
1895, 3000, 3001, 3036, 3035, 2895, 2896, 2931, 2930
1896, 3001, 3002, 3037, 3036, 2896, 2897, 2932, 2931
1897, 3002, 3003, 3038, 3037, 2897, 2898, 2933, 2932
1898, 3003, 3004, 3039, 3038, 2898, 2899, 2934, 2933
1899, 3004, 3005, 3040, 3039, 2899, 2900, 2935, 2934
1900, 3005, 3006, 3041, 3040, 2900, 2901, 2936, 2935
1901, 3006, 3007, 3042, 3041, 2901, 2902, 2937, 2936
1902, 3007, 3008, 3043, 3042, 2902, 2903, 2938, 2937
1903, 3008, 3009, 3044, 3043, 2903, 2904, 2939, 2938
1904, 3009, 3010, 3045, 3044, 2904, 2905, 2940, 2939
1905, 3046, 3047, 3082, 3081, 2941, 2942, 2977, 2976
1906, 3047, 3048, 3083, 3082, 2942, 2943, 2978, 2977
1907, 3048, 3049, 3084, 3083, 2943, 2944, 2979, 2978
1908, 3049, 3050, 3085, 3084, 2944, 2945, 2980, 2979
1909, 3050, 3051, 3086, 3085, 2945, 2946, 2981, 2980
1910, 3051, 3052, 3087, 3086, 2946, 2947, 2982, 2981
1911, 3052, 3053, 3088, 3087, 2947, 2948, 2983, 2982
1912, 3053, 3054, 3089, 3088, 2948, 2949, 2984, 2983
1913, 3054, 3055, 3090, 3089, 2949, 2950, 2985, 2984
1914, 3055, 3056, 3091, 3090, 2950, 2951, 2986, 2985
1915, 3056, 3057, 3092, 3091, 2951, 2952, 2987, 2986
1916, 3057, 3058, 3093, 3092, 2952, 2953, 2988, 2987
1917, 3058, 3059, 3094, 3093, 2953, 2954, 2989, 2988
1918, 3059, 3060, 3095, 3094, 2954, 2955, 2990, 2989
1919, 3060, 3061, 3096, 3095, 2955, 2956, 2991, 2990
1920, 3061, 3062, 3097, 3096, 2956, 2957, 2992, 2991
1921, 3062, 3063, 3098, 3097, 2957, 2958, 2993, 2992
1922, 3063, 3064, 3099, 3098, 2958, 2959, 2994, 2993
1923, 3064, 3065, 3100, 3099, 2959, 2960, 2995, 2994
1924, 3065, 3066, 3101, 3100, 2960, 2961, 2996, 2995
1925, 3066, 3067, 3102, 3101, 2961, 2962, 2997, 2996
1926, 3067, 3068, 3103, 3102, 2962, 2963, 2998, 2997
1927, 3068, 3069, 3104, 3103, 2963, 2964, 2999, 2998
1928, 3069, 3070, 3105, 3104, 2964, 2965, 3000, 2999
1929, 3070, 3071, 3106, 3105, 2965, 2966, 3001, 3000
1930, 3071, 3072, 3107, 3106, 2966, 2967, 3002, 3001
1931, 3072, 3073, 3108, 3107, 2967, 2968, 3003, 3002
1932, 3073, 3074, 3109, 3108, 2968, 2969, 3004, 3003
1933, 3074, 3075, 3110, 3109, 2969, 2970, 3005, 3004
1934, 3075, 3076, 3111, 3110, 2970, 2971, 3006, 3005
1935, 3076, 3077, 3112, 3111, 2971, 2972, 3007, 3006
1936, 3077, 3078, 3113, 3112, 2972, 2973, 3008, 3007
1937, 3078, 3079, 3114, 3113, 2973, 2974, 3009, 3008
1938, 3079, 3080, 3115, 3114, 2974, 2975, 3010, 3009
1939, 3081, 3082, 3117, 3116, 2976, 2977, 3012, 3011
1940, 3082, 3083, 3118, 3117, 2977, 2978, 3013, 3012
1941, 3083, 3084, 3119, 3118, 2978, 2979, 3014, 3013
1942, 3084, 3085, 3120, 3119, 2979, 2980, 3015, 3014
1943, 3085, 3086, 3121, 3120, 2980, 2981, 3016, 3015
1944, 3086, 3087, 3122, 3121, 2981, 2982, 3017, 3016
1945, 3087, 3088, 3123, 3122, 2982, 2983, 3018, 3017
1946, 3088, 3089, 3124, 3123, 2983, 2984, 3019, 3018
1947, 3089, 3090, 3125, 3124, 2984, 2985, 3020, 3019
1948, 3090, 3091, 3126, 3125, 2985, 2986, 3021, 3020
1949, 3091, 3092, 3127, 3126, 2986, 2987, 3022, 3021
1950, 3092, 3093, 3128, 3127, 2987, 2988, 3023, 3022
1951, 3093, 3094, 3129, 3128, 2988, 2989, 3024, 3023
1952, 3094, 3095, 3130, 3129, 2989, 2990, 3025, 3024
1953, 3095, 3096, 3131, 3130, 2990, 2991, 3026, 3025
1954, 3096, 3097, 3132, 3131, 2991, 2992, 3027, 3026
1955, 3097, 3098, 3133, 3132, 2992, 2993, 3028, 3027
1956, 3098, 3099, 3134, 3133, 2993, 2994, 3029, 3028
1957, 3099, 3100, 3135, 3134, 2994, 2995, 3030, 3029
1958, 3100, 3101, 3136, 3135, 2995, 2996, 3031, 3030
1959, 3101, 3102, 3137, 3136, 2996, 2997, 3032, 3031
1960, 3102, 3103, 3138, 3137, 2997, 2998, 3033, 3032
1961, 3103, 3104, 3139, 3138, 2998, 2999, 3034, 3033
1962, 3104, 3105, 3140, 3139, 2999, 3000, 3035, 3034
1963, 3105, 3106, 3141, 3140, 3000, 3001, 3036, 3035
1964, 3106, 3107, 3142, 3141, 3001, 3002, 3037, 3036
1965, 3107, 3108, 3143, 3142, 3002, 3003, 3038, 3037
1966, 3108, 3109, 3144, 3143, 3003, 3004, 3039, 3038
1967, 3109, 3110, 3145, 3144, 3004, 3005, 3040, 3039
1968, 3110, 3111, 3146, 3145, 3005, 3006, 3041, 3040
1969, 3111, 3112, 3147, 3146, 3006, 3007, 3042, 3041
1970, 3112, 3113, 3148, 3147, 3007, 3008, 3043, 3042
1971, 3113, 3114, 3149, 3148, 3008, 3009, 3044, 3043
1972, 3114, 3115, 3150, 3149, 3009, 3010, 3045, 3044
1973, 3151, 3152, 3187, 3186, 3046, 3047, 3082, 3081
1974, 3152, 3153, 3188, 3187, 3047, 3048, 3083, 3082
1975, 3153, 3154, 3189, 3188, 3048, 3049, 3084, 3083
1976, 3154, 3155, 3190, 3189, 3049, 3050, 3085, 3084
1977, 3155, 3156, 3191, 3190, 3050, 3051, 3086, 3085
1978, 3156, 3157, 3192, 3191, 3051, 3052, 3087, 3086
1979, 3157, 3158, 3193, 3192, 3052, 3053, 3088, 3087
1980, 3158, 3159, 3194, 3193, 3053, 3054, 3089, 3088
1981, 3159, 3160, 3195, 3194, 3054, 3055, 3090, 3089
1982, 3160, 3161, 3196, 3195, 3055, 3056, 3091, 3090
1983, 3161, 3162, 3197, 3196, 3056, 3057, 3092, 3091
1984, 3162, 3163, 3198, 3197, 3057, 3058, 3093, 3092
1985, 3163, 3164, 3199, 3198, 3058, 3059, 3094, 3093
1986, 3164, 3165, 3200, 3199, 3059, 3060, 3095, 3094
1987, 3165, 3166, 3201, 3200, 3060, 3061, 3096, 3095
1988, 3166, 3167, 3202, 3201, 3061, 3062, 3097, 3096
1989, 3167, 3168, 3203, 3202, 3062, 3063, 3098, 3097
1990, 3168, 3169, 3204, 3203, 3063, 3064, 3099, 3098
1991, 3169, 3170, 3205, 3204, 3064, 3065, 3100, 3099
1992, 3170, 3171, 3206, 3205, 3065, 3066, 3101, 3100
1993, 3171, 3172, 3207, 3206, 3066, 3067, 3102, 3101
1994, 3172, 3173, 3208, 3207, 3067, 3068, 3103, 3102
1995, 3173, 3174, 3209, 3208, 3068, 3069, 3104, 3103
1996, 3174, 3175, 3210, 3209, 3069, 3070, 3105, 3104
1997, 3175, 3176, 3211, 3210, 3070, 3071, 3106, 3105
1998, 3176, 3177, 3212, 3211, 3071, 3072, 3107, 3106
1999, 3177, 3178, 3213, 3212, 3072, 3073, 3108, 3107
2000, 3178, 3179, 3214, 3213, 3073, 3074, 3109, 3108
2001, 3179, 3180, 3215, 3214, 3074, 3075, 3110, 3109
2002, 3180, 3181, 3216, 3215, 3075, 3076, 3111, 3110
2003, 3181, 3182, 3217, 3216, 3076, 3077, 3112, 3111
2004, 3182, 3183, 3218, 3217, 3077, 3078, 3113, 3112
2005, 3183, 3184, 3219, 3218, 3078, 3079, 3114, 3113
2006, 3184, 3185, 3220, 3219, 3079, 3080, 3115, 3114
2007, 3186, 3187, 3222, 3221, 3081, 3082, 3117, 3116
2008, 3187, 3188, 3223, 3222, 3082, 3083, 3118, 3117
2009, 3188, 3189, 3224, 3223, 3083, 3084, 3119, 3118
2010, 3189, 3190, 3225, 3224, 3084, 3085, 3120, 3119
2011, 3190, 3191, 3226, 3225, 3085, 3086, 3121, 3120
2012, 3191, 3192, 3227, 3226, 3086, 3087, 3122, 3121
2013, 3192, 3193, 3228, 3227, 3087, 3088, 3123, 3122
2014, 3193, 3194, 3229, 3228, 3088, 3089, 3124, 3123
2015, 3194, 3195, 3230, 3229, 3089, 3090, 3125, 3124
2016, 3195, 3196, 3231, 3230, 3090, 3091, 3126, 3125
2017, 3196, 3197, 3232, 3231, 3091, 3092, 3127, 3126
2018, 3197, 3198, 3233, 3232, 3092, 3093, 3128, 3127
2019, 3198, 3199, 3234, 3233, 3093, 3094, 3129, 3128
2020, 3199, 3200, 3235, 3234, 3094, 3095, 3130, 3129
2021, 3200, 3201, 3236, 3235, 3095, 3096, 3131, 3130
2022, 3201, 3202, 3237, 3236, 3096, 3097, 3132, 3131
2023, 3202, 3203, 3238, 3237, 3097, 3098, 3133, 3132
2024, 3203, 3204, 3239, 3238, 3098, 3099, 3134, 3133
2025, 3204, 3205, 3240, 3239, 3099, 3100, 3135, 3134
2026, 3205, 3206, 3241, 3240, 3100, 3101, 3136, 3135
2027, 3206, 3207, 3242, 3241, 3101, 3102, 3137, 3136
2028, 3207, 3208, 3243, 3242, 3102, 3103, 3138, 3137
2029, 3208, 3209, 3244, 3243, 3103, 3104, 3139, 3138
2030, 3209, 3210, 3245, 3244, 3104, 3105, 3140, 3139
2031, 3210, 3211, 3246, 3245, 3105, 3106, 3141, 3140
2032, 3211, 3212, 3247, 3246, 3106, 3107, 3142, 3141
2033, 3212, 3213, 3248, 3247, 3107, 3108, 3143, 3142
2034, 3213, 3214, 3249, 3248, 3108, 3109, 3144, 3143
2035, 3214, 3215, 3250, 3249, 3109, 3110, 3145, 3144
2036, 3215, 3216, 3251, 3250, 3110, 3111, 3146, 3145
2037, 3216, 3217, 3252, 3251, 3111, 3112, 3147, 3146
2038, 3217, 3218, 3253, 3252, 3112, 3113, 3148, 3147
2039, 3218, 3219, 3254, 3253, 3113, 3114, 3149, 3148
2040, 3219, 3220, 3255, 3254, 3114, 3115, 3150, 3149
2041, 3256, 3257, 3292, 3291, 3151, 3152, 3187, 3186
2042, 3257, 3258, 3293, 3292, 3152, 3153, 3188, 3187
2043, 3258, 3259, 3294, 3293, 3153, 3154, 3189, 3188
2044, 3259, 3260, 3295, 3294, 3154, 3155, 3190, 3189
2045, 3260, 3261, 3296, 3295, 3155, 3156, 3191, 3190
2046, 3261, 3262, 3297, 3296, 3156, 3157, 3192, 3191
2047, 3262, 3263, 3298, 3297, 3157, 3158, 3193, 3192
2048, 3263, 3264, 3299, 3298, 3158, 3159, 3194, 3193
2049, 3264, 3265, 3300, 3299, 3159, 3160, 3195, 3194
2050, 3265, 3266, 3301, 3300, 3160, 3161, 3196, 3195
2051, 3266, 3267, 3302, 3301, 3161, 3162, 3197, 3196
2052, 3267, 3268, 3303, 3302, 3162, 3163, 3198, 3197
2053, 3268, 3269, 3304, 3303, 3163, 3164, 3199, 3198
2054, 3269, 3270, 3305, 3304, 3164, 3165, 3200, 3199
2055, 3270, 3271, 3306, 3305, 3165, 3166, 3201, 3200
2056, 3271, 3272, 3307, 3306, 3166, 3167, 3202, 3201
2057, 3272, 3273, 3308, 3307, 3167, 3168, 3203, 3202
2058, 3273, 3274, 3309, 3308, 3168, 3169, 3204, 3203
2059, 3274, 3275, 3310, 3309, 3169, 3170, 3205, 3204
2060, 3275, 3276, 3311, 3310, 3170, 3171, 3206, 3205
2061, 3276, 3277, 3312, 3311, 3171, 3172, 3207, 3206
2062, 3277, 3278, 3313, 3312, 3172, 3173, 3208, 3207
2063, 3278, 3279, 3314, 3313, 3173, 3174, 3209, 3208
2064, 3279, 3280, 3315, 3314, 3174, 3175, 3210, 3209
2065, 3280, 3281, 3316, 3315, 3175, 3176, 3211, 3210
2066, 3281, 3282, 3317, 3316, 3176, 3177, 3212, 3211
2067, 3282, 3283, 3318, 3317, 3177, 3178, 3213, 3212
2068, 3283, 3284, 3319, 3318, 3178, 3179, 3214, 3213
2069, 3284, 3285, 3320, 3319, 3179, 3180, 3215, 3214
2070, 3285, 3286, 3321, 3320, 3180, 3181, 3216, 3215
2071, 3286, 3287, 3322, 3321, 3181, 3182, 3217, 3216
2072, 3287, 3288, 3323, 3322, 3182, 3183, 3218, 3217
2073, 3288, 3289, 3324, 3323, 3183, 3184, 3219, 3218
2074, 3289, 3290, 3325, 3324, 3184, 3185, 3220, 3219
2075, 3291, 3292, 3327, 3326, 3186, 3187, 3222, 3221
2076, 3292, 3293, 3328, 3327, 3187, 3188, 3223, 3222
2077, 3293, 3294, 3329, 3328, 3188, 3189, 3224, 3223
2078, 3294, 3295, 3330, 3329, 3189, 3190, 3225, 3224
2079, 3295, 3296, 3331, 3330, 3190, 3191, 3226, 3225
2080, 3296, 3297, 3332, 3331, 3191, 3192, 3227, 3226
2081, 3297, 3298, 3333, 3332, 3192, 3193, 3228, 3227
2082, 3298, 3299, 3334, 3333, 3193, 3194, 3229, 3228
2083, 3299, 3300, 3335, 3334, 3194, 3195, 3230, 3229
2084, 3300, 3301, 3336, 3335, 3195, 3196, 3231, 3230
2085, 3301, 3302, 3337, 3336, 3196, 3197, 3232, 3231
2086, 3302, 3303, 3338, 3337, 3197, 3198, 3233, 3232
2087, 3303, 3304, 3339, 3338, 3198, 3199, 3234, 3233
2088, 3304, 3305, 3340, 3339, 3199, 3200, 3235, 3234
2089, 3305, 3306, 3341, 3340, 3200, 3201, 3236, 3235
2090, 3306, 3307, 3342, 3341, 3201, 3202, 3237, 3236
2091, 3307, 3308, 3343, 3342, 3202, 3203, 3238, 3237
2092, 3308, 3309, 3344, 3343, 3203, 3204, 3239, 3238
2093, 3309, 3310, 3345, 3344, 3204, 3205, 3240, 3239
2094, 3310, 3311, 3346, 3345, 3205, 3206, 3241, 3240
2095, 3311, 3312, 3347, 3346, 3206, 3207, 3242, 3241
2096, 3312, 3313, 3348, 3347, 3207, 3208, 3243, 3242
2097, 3313, 3314, 3349, 3348, 3208, 3209, 3244, 3243
2098, 3314, 3315, 3350, 3349, 3209, 3210, 3245, 3244
2099, 3315, 3316, 3351, 3350, 3210, 3211, 3246, 3245
2100, 3316, 3317, 3352, 3351, 3211, 3212, 3247, 3246
2101, 3317, 3318, 3353, 3352, 3212, 3213, 3248, 3247
2102, 3318, 3319, 3354, 3353, 3213, 3214, 3249, 3248
2103, 3319, 3320, 3355, 3354, 3214, 3215, 3250, 3249
2104, 3320, 3321, 3356, 3355, 3215, 3216, 3251, 3250
2105, 3321, 3322, 3357, 3356, 3216, 3217, 3252, 3251
2106, 3322, 3323, 3358, 3357, 3217, 3218, 3253, 3252
2107, 3323, 3324, 3359, 3358, 3218, 3219, 3254, 3253
2108, 3324, 3325, 3360, 3359, 3219, 3220, 3255, 3254
2109, 3361, 3362, 3397, 3396, 3256, 3257, 3292, 3291
2110, 3362, 3363, 3398, 3397, 3257, 3258, 3293, 3292
2111, 3363, 3364, 3399, 3398, 3258, 3259, 3294, 3293
2112, 3364, 3365, 3400, 3399, 3259, 3260, 3295, 3294
2113, 3365, 3366, 3401, 3400, 3260, 3261, 3296, 3295
2114, 3366, 3367, 3402, 3401, 3261, 3262, 3297, 3296
2115, 3367, 3368, 3403, 3402, 3262, 3263, 3298, 3297
2116, 3368, 3369, 3404, 3403, 3263, 3264, 3299, 3298
2117, 3369, 3370, 3405, 3404, 3264, 3265, 3300, 3299
2118, 3370, 3371, 3406, 3405, 3265, 3266, 3301, 3300
2119, 3371, 3372, 3407, 3406, 3266, 3267, 3302, 3301
2120, 3372, 3373, 3408, 3407, 3267, 3268, 3303, 3302
2121, 3373, 3374, 3409, 3408, 3268, 3269, 3304, 3303
2122, 3374, 3375, 3410, 3409, 3269, 3270, 3305, 3304
2123, 3375, 3376, 3411, 3410, 3270, 3271, 3306, 3305
2124, 3376, 3377, 3412, 3411, 3271, 3272, 3307, 3306
2125, 3377, 3378, 3413, 3412, 3272, 3273, 3308, 3307
2126, 3378, 3379, 3414, 3413, 3273, 3274, 3309, 3308
2127, 3379, 3380, 3415, 3414, 3274, 3275, 3310, 3309
2128, 3380, 3381, 3416, 3415, 3275, 3276, 3311, 3310
2129, 3381, 3382, 3417, 3416, 3276, 3277, 3312, 3311
2130, 3382, 3383, 3418, 3417, 3277, 3278, 3313, 3312
2131, 3383, 3384, 3419, 3418, 3278, 3279, 3314, 3313
2132, 3384, 3385, 3420, 3419, 3279, 3280, 3315, 3314
2133, 3385, 3386, 3421, 3420, 3280, 3281, 3316, 3315
2134, 3386, 3387, 3422, 3421, 3281, 3282, 3317, 3316
2135, 3387, 3388, 3423, 3422, 3282, 3283, 3318, 3317
2136, 3388, 3389, 3424, 3423, 3283, 3284, 3319, 3318
2137, 3389, 3390, 3425, 3424, 3284, 3285, 3320, 3319
2138, 3390, 3391, 3426, 3425, 3285, 3286, 3321, 3320
2139, 3391, 3392, 3427, 3426, 3286, 3287, 3322, 3321
2140, 3392, 3393, 3428, 3427, 3287, 3288, 3323, 3322
2141, 3393, 3394, 3429, 3428, 3288, 3289, 3324, 3323
2142, 3394, 3395, 3430, 3429, 3289, 3290, 3325, 3324
2143, 3396, 3397, 3432, 3431, 3291, 3292, 3327, 3326
2144, 3397, 3398, 3433, 3432, 3292, 3293, 3328, 3327
2145, 3398, 3399, 3434, 3433, 3293, 3294, 3329, 3328
2146, 3399, 3400, 3435, 3434, 3294, 3295, 3330, 3329
2147, 3400, 3401, 3436, 3435, 3295, 3296, 3331, 3330
2148, 3401, 3402, 3437, 3436, 3296, 3297, 3332, 3331
2149, 3402, 3403, 3438, 3437, 3297, 3298, 3333, 3332
2150, 3403, 3404, 3439, 3438, 3298, 3299, 3334, 3333
2151, 3404, 3405, 3440, 3439, 3299, 3300, 3335, 3334
2152, 3405, 3406, 3441, 3440, 3300, 3301, 3336, 3335
2153, 3406, 3407, 3442, 3441, 3301, 3302, 3337, 3336
2154, 3407, 3408, 3443, 3442, 3302, 3303, 3338, 3337
2155, 3408, 3409, 3444, 3443, 3303, 3304, 3339, 3338
2156, 3409, 3410, 3445, 3444, 3304, 3305, 3340, 3339
2157, 3410, 3411, 3446, 3445, 3305, 3306, 3341, 3340
2158, 3411, 3412, 3447, 3446, 3306, 3307, 3342, 3341
2159, 3412, 3413, 3448, 3447, 3307, 3308, 3343, 3342
2160, 3413, 3414, 3449, 3448, 3308, 3309, 3344, 3343
2161, 3414, 3415, 3450, 3449, 3309, 3310, 3345, 3344
2162, 3415, 3416, 3451, 3450, 3310, 3311, 3346, 3345
2163, 3416, 3417, 3452, 3451, 3311, 3312, 3347, 3346
2164, 3417, 3418, 3453, 3452, 3312, 3313, 3348, 3347
2165, 3418, 3419, 3454, 3453, 3313, 3314, 3349, 3348
2166, 3419, 3420, 3455, 3454, 3314, 3315, 3350, 3349
2167, 3420, 3421, 3456, 3455, 3315, 3316, 3351, 3350
2168, 3421, 3422, 3457, 3456, 3316, 3317, 3352, 3351
2169, 3422, 3423, 3458, 3457, 3317, 3318, 3353, 3352
2170, 3423, 3424, 3459, 3458, 3318, 3319, 3354, 3353
2171, 3424, 3425, 3460, 3459, 3319, 3320, 3355, 3354
2172, 3425, 3426, 3461, 3460, 3320, 3321, 3356, 3355
2173, 3426, 3427, 3462, 3461, 3321, 3322, 3357, 3356
2174, 3427, 3428, 3463, 3462, 3322, 3323, 3358, 3357
2175, 3428, 3429, 3464, 3463, 3323, 3324, 3359, 3358
2176, 3429, 3430, 3465, 3464, 3324, 3325, 3360, 3359
2177, 3466, 3467, 3502, 3501, 3361, 3362, 3397, 3396
2178, 3467, 3468, 3503, 3502, 3362, 3363, 3398, 3397
2179, 3468, 3469, 3504, 3503, 3363, 3364, 3399, 3398
2180, 3469, 3470, 3505, 3504, 3364, 3365, 3400, 3399
2181, 3470, 3471, 3506, 3505, 3365, 3366, 3401, 3400
2182, 3471, 3472, 3507, 3506, 3366, 3367, 3402, 3401
2183, 3472, 3473, 3508, 3507, 3367, 3368, 3403, 3402
2184, 3473, 3474, 3509, 3508, 3368, 3369, 3404, 3403
2185, 3474, 3475, 3510, 3509, 3369, 3370, 3405, 3404
2186, 3475, 3476, 3511, 3510, 3370, 3371, 3406, 3405
2187, 3476, 3477, 3512, 3511, 3371, 3372, 3407, 3406
2188, 3477, 3478, 3513, 3512, 3372, 3373, 3408, 3407
2189, 3478, 3479, 3514, 3513, 3373, 3374, 3409, 3408
2190, 3479, 3480, 3515, 3514, 3374, 3375, 3410, 3409
2191, 3480, 3481, 3516, 3515, 3375, 3376, 3411, 3410
2192, 3481, 3482, 3517, 3516, 3376, 3377, 3412, 3411
2193, 3482, 3483, 3518, 3517, 3377, 3378, 3413, 3412
2194, 3483, 3484, 3519, 3518, 3378, 3379, 3414, 3413
2195, 3484, 3485, 3520, 3519, 3379, 3380, 3415, 3414
2196, 3485, 3486, 3521, 3520, 3380, 3381, 3416, 3415
2197, 3486, 3487, 3522, 3521, 3381, 3382, 3417, 3416
2198, 3487, 3488, 3523, 3522, 3382, 3383, 3418, 3417
2199, 3488, 3489, 3524, 3523, 3383, 3384, 3419, 3418
2200, 3489, 3490, 3525, 3524, 3384, 3385, 3420, 3419
2201, 3490, 3491, 3526, 3525, 3385, 3386, 3421, 3420
2202, 3491, 3492, 3527, 3526, 3386, 3387, 3422, 3421
2203, 3492, 3493, 3528, 3527, 3387, 3388, 3423, 3422
2204, 3493, 3494, 3529, 3528, 3388, 3389, 3424, 3423
2205, 3494, 3495, 3530, 3529, 3389, 3390, 3425, 3424
2206, 3495, 3496, 3531, 3530, 3390, 3391, 3426, 3425
2207, 3496, 3497, 3532, 3531, 3391, 3392, 3427, 3426
2208, 3497, 3498, 3533, 3532, 3392, 3393, 3428, 3427
2209, 3498, 3499, 3534, 3533, 3393, 3394, 3429, 3428
2210, 3499, 3500, 3535, 3534, 3394, 3395, 3430, 3429
2211, 3501, 3502, 3537, 3536, 3396, 3397, 3432, 3431
2212, 3502, 3503, 3538, 3537, 3397, 3398, 3433, 3432
2213, 3503, 3504, 3539, 3538, 3398, 3399, 3434, 3433
2214, 3504, 3505, 3540, 3539, 3399, 3400, 3435, 3434
2215, 3505, 3506, 3541, 3540, 3400, 3401, 3436, 3435
2216, 3506, 3507, 3542, 3541, 3401, 3402, 3437, 3436
2217, 3507, 3508, 3543, 3542, 3402, 3403, 3438, 3437
2218, 3508, 3509, 3544, 3543, 3403, 3404, 3439, 3438
2219, 3509, 3510, 3545, 3544, 3404, 3405, 3440, 3439
2220, 3510, 3511, 3546, 3545, 3405, 3406, 3441, 3440
2221, 3511, 3512, 3547, 3546, 3406, 3407, 3442, 3441
2222, 3512, 3513, 3548, 3547, 3407, 3408, 3443, 3442
2223, 3513, 3514, 3549, 3548, 3408, 3409, 3444, 3443
2224, 3514, 3515, 3550, 3549, 3409, 3410, 3445, 3444
2225, 3515, 3516, 3551, 3550, 3410, 3411, 3446, 3445
2226, 3516, 3517, 3552, 3551, 3411, 3412, 3447, 3446
2227, 3517, 3518, 3553, 3552, 3412, 3413, 3448, 3447
2228, 3518, 3519, 3554, 3553, 3413, 3414, 3449, 3448
2229, 3519, 3520, 3555, 3554, 3414, 3415, 3450, 3449
2230, 3520, 3521, 3556, 3555, 3415, 3416, 3451, 3450
2231, 3521, 3522, 3557, 3556, 3416, 3417, 3452, 3451
2232, 3522, 3523, 3558, 3557, 3417, 3418, 3453, 3452
2233, 3523, 3524, 3559, 3558, 3418, 3419, 3454, 3453
2234, 3524, 3525, 3560, 3559, 3419, 3420, 3455, 3454
2235, 3525, 3526, 3561, 3560, 3420, 3421, 3456, 3455
2236, 3526, 3527, 3562, 3561, 3421, 3422, 3457, 3456
2237, 3527, 3528, 3563, 3562, 3422, 3423, 3458, 3457
2238, 3528, 3529, 3564, 3563, 3423, 3424, 3459, 3458
2239, 3529, 3530, 3565, 3564, 3424, 3425, 3460, 3459
2240, 3530, 3531, 3566, 3565, 3425, 3426, 3461, 3460
2241, 3531, 3532, 3567, 3566, 3426, 3427, 3462, 3461
2242, 3532, 3533, 3568, 3567, 3427, 3428, 3463, 3462
2243, 3533, 3534, 3569, 3568, 3428, 3429, 3464, 3463
2244, 3534, 3535, 3570, 3569, 3429, 3430, 3465, 3464
2245, 3571, 3572, 3607, 3606, 3466, 3467, 3502, 3501
2246, 3572, 3573, 3608, 3607, 3467, 3468, 3503, 3502
2247, 3573, 3574, 3609, 3608, 3468, 3469, 3504, 3503
2248, 3574, 3575, 3610, 3609, 3469, 3470, 3505, 3504
2249, 3575, 3576, 3611, 3610, 3470, 3471, 3506, 3505
2250, 3576, 3577, 3612, 3611, 3471, 3472, 3507, 3506
2251, 3577, 3578, 3613, 3612, 3472, 3473, 3508, 3507
2252, 3578, 3579, 3614, 3613, 3473, 3474, 3509, 3508
2253, 3579, 3580, 3615, 3614, 3474, 3475, 3510, 3509
2254, 3580, 3581, 3616, 3615, 3475, 3476, 3511, 3510
2255, 3581, 3582, 3617, 3616, 3476, 3477, 3512, 3511
2256, 3582, 3583, 3618, 3617, 3477, 3478, 3513, 3512
2257, 3583, 3584, 3619, 3618, 3478, 3479, 3514, 3513
2258, 3584, 3585, 3620, 3619, 3479, 3480, 3515, 3514
2259, 3585, 3586, 3621, 3620, 3480, 3481, 3516, 3515
2260, 3586, 3587, 3622, 3621, 3481, 3482, 3517, 3516
2261, 3587, 3588, 3623, 3622, 3482, 3483, 3518, 3517
2262, 3588, 3589, 3624, 3623, 3483, 3484, 3519, 3518
2263, 3589, 3590, 3625, 3624, 3484, 3485, 3520, 3519
2264, 3590, 3591, 3626, 3625, 3485, 3486, 3521, 3520
2265, 3591, 3592, 3627, 3626, 3486, 3487, 3522, 3521
2266, 3592, 3593, 3628, 3627, 3487, 3488, 3523, 3522
2267, 3593, 3594, 3629, 3628, 3488, 3489, 3524, 3523
2268, 3594, 3595, 3630, 3629, 3489, 3490, 3525, 3524
2269, 3595, 3596, 3631, 3630, 3490, 3491, 3526, 3525
2270, 3596, 3597, 3632, 3631, 3491, 3492, 3527, 3526
2271, 3597, 3598, 3633, 3632, 3492, 3493, 3528, 3527
2272, 3598, 3599, 3634, 3633, 3493, 3494, 3529, 3528
2273, 3599, 3600, 3635, 3634, 3494, 3495, 3530, 3529
2274, 3600, 3601, 3636, 3635, 3495, 3496, 3531, 3530
2275, 3601, 3602, 3637, 3636, 3496, 3497, 3532, 3531
2276, 3602, 3603, 3638, 3637, 3497, 3498, 3533, 3532
2277, 3603, 3604, 3639, 3638, 3498, 3499, 3534, 3533
2278, 3604, 3605, 3640, 3639, 3499, 3500, 3535, 3534
2279, 3606, 3607, 3642, 3641, 3501, 3502, 3537, 3536
2280, 3607, 3608, 3643, 3642, 3502, 3503, 3538, 3537
2281, 3608, 3609, 3644, 3643, 3503, 3504, 3539, 3538
2282, 3609, 3610, 3645, 3644, 3504, 3505, 3540, 3539
2283, 3610, 3611, 3646, 3645, 3505, 3506, 3541, 3540
2284, 3611, 3612, 3647, 3646, 3506, 3507, 3542, 3541
2285, 3612, 3613, 3648, 3647, 3507, 3508, 3543, 3542
2286, 3613, 3614, 3649, 3648, 3508, 3509, 3544, 3543
2287, 3614, 3615, 3650, 3649, 3509, 3510, 3545, 3544
2288, 3615, 3616, 3651, 3650, 3510, 3511, 3546, 3545
2289, 3616, 3617, 3652, 3651, 3511, 3512, 3547, 3546
2290, 3617, 3618, 3653, 3652, 3512, 3513, 3548, 3547
2291, 3618, 3619, 3654, 3653, 3513, 3514, 3549, 3548
2292, 3619, 3620, 3655, 3654, 3514, 3515, 3550, 3549
2293, 3620, 3621, 3656, 3655, 3515, 3516, 3551, 3550
2294, 3621, 3622, 3657, 3656, 3516, 3517, 3552, 3551
2295, 3622, 3623, 3658, 3657, 3517, 3518, 3553, 3552
2296, 3623, 3624, 3659, 3658, 3518, 3519, 3554, 3553
2297, 3624, 3625, 3660, 3659, 3519, 3520, 3555, 3554
2298, 3625, 3626, 3661, 3660, 3520, 3521, 3556, 3555
2299, 3626, 3627, 3662, 3661, 3521, 3522, 3557, 3556
2300, 3627, 3628, 3663, 3662, 3522, 3523, 3558, 3557
2301, 3628, 3629, 3664, 3663, 3523, 3524, 3559, 3558
2302, 3629, 3630, 3665, 3664, 3524, 3525, 3560, 3559
2303, 3630, 3631, 3666, 3665, 3525, 3526, 3561, 3560
2304, 3631, 3632, 3667, 3666, 3526, 3527, 3562, 3561
2305, 3632, 3633, 3668, 3667, 3527, 3528, 3563, 3562
2306, 3633, 3634, 3669, 3668, 3528, 3529, 3564, 3563
2307, 3634, 3635, 3670, 3669, 3529, 3530, 3565, 3564
2308, 3635, 3636, 3671, 3670, 3530, 3531, 3566, 3565
2309, 3636, 3637, 3672, 3671, 3531, 3532, 3567, 3566
2310, 3637, 3638, 3673, 3672, 3532, 3533, 3568, 3567
2311, 3638, 3639, 3674, 3673, 3533, 3534, 3569, 3568
2312, 3639, 3640, 3675, 3674, 3534, 3535, 3570, 3569
2313, 3676, 3677, 3712, 3711, 3571, 3572, 3607, 3606
2314, 3677, 3678, 3713, 3712, 3572, 3573, 3608, 3607
2315, 3678, 3679, 3714, 3713, 3573, 3574, 3609, 3608
2316, 3679, 3680, 3715, 3714, 3574, 3575, 3610, 3609
2317, 3680, 3681, 3716, 3715, 3575, 3576, 3611, 3610
2318, 3681, 3682, 3717, 3716, 3576, 3577, 3612, 3611
2319, 3682, 3683, 3718, 3717, 3577, 3578, 3613, 3612
2320, 3683, 3684, 3719, 3718, 3578, 3579, 3614, 3613
2321, 3684, 3685, 3720, 3719, 3579, 3580, 3615, 3614
2322, 3685, 3686, 3721, 3720, 3580, 3581, 3616, 3615
2323, 3686, 3687, 3722, 3721, 3581, 3582, 3617, 3616
2324, 3687, 3688, 3723, 3722, 3582, 3583, 3618, 3617
2325, 3688, 3689, 3724, 3723, 3583, 3584, 3619, 3618
2326, 3689, 3690, 3725, 3724, 3584, 3585, 3620, 3619
2327, 3690, 3691, 3726, 3725, 3585, 3586, 3621, 3620
2328, 3691, 3692, 3727, 3726, 3586, 3587, 3622, 3621
2329, 3692, 3693, 3728, 3727, 3587, 3588, 3623, 3622
2330, 3693, 3694, 3729, 3728, 3588, 3589, 3624, 3623
2331, 3694, 3695, 3730, 3729, 3589, 3590, 3625, 3624
2332, 3695, 3696, 3731, 3730, 3590, 3591, 3626, 3625
2333, 3696, 3697, 3732, 3731, 3591, 3592, 3627, 3626
2334, 3697, 3698, 3733, 3732, 3592, 3593, 3628, 3627
2335, 3698, 3699, 3734, 3733, 3593, 3594, 3629, 3628
2336, 3699, 3700, 3735, 3734, 3594, 3595, 3630, 3629
2337, 3700, 3701, 3736, 3735, 3595, 3596, 3631, 3630
2338, 3701, 3702, 3737, 3736, 3596, 3597, 3632, 3631
2339, 3702, 3703, 3738, 3737, 3597, 3598, 3633, 3632
2340, 3703, 3704, 3739, 3738, 3598, 3599, 3634, 3633
2341, 3704, 3705, 3740, 3739, 3599, 3600, 3635, 3634
2342, 3705, 3706, 3741, 3740, 3600, 3601, 3636, 3635
2343, 3706, 3707, 3742, 3741, 3601, 3602, 3637, 3636
2344, 3707, 3708, 3743, 3742, 3602, 3603, 3638, 3637
2345, 3708, 3709, 3744, 3743, 3603, 3604, 3639, 3638
2346, 3709, 3710, 3745, 3744, 3604, 3605, 3640, 3639
2347, 3711, 3712, 3747, 3746, 3606, 3607, 3642, 3641
2348, 3712, 3713, 3748, 3747, 3607, 3608, 3643, 3642
2349, 3713, 3714, 3749, 3748, 3608, 3609, 3644, 3643
2350, 3714, 3715, 3750, 3749, 3609, 3610, 3645, 3644
2351, 3715, 3716, 3751, 3750, 3610, 3611, 3646, 3645
2352, 3716, 3717, 3752, 3751, 3611, 3612, 3647, 3646
2353, 3717, 3718, 3753, 3752, 3612, 3613, 3648, 3647
2354, 3718, 3719, 3754, 3753, 3613, 3614, 3649, 3648
2355, 3719, 3720, 3755, 3754, 3614, 3615, 3650, 3649
2356, 3720, 3721, 3756, 3755, 3615, 3616, 3651, 3650
2357, 3721, 3722, 3757, 3756, 3616, 3617, 3652, 3651
2358, 3722, 3723, 3758, 3757, 3617, 3618, 3653, 3652
2359, 3723, 3724, 3759, 3758, 3618, 3619, 3654, 3653
2360, 3724, 3725, 3760, 3759, 3619, 3620, 3655, 3654
2361, 3725, 3726, 3761, 3760, 3620, 3621, 3656, 3655
2362, 3726, 3727, 3762, 3761, 3621, 3622, 3657, 3656
2363, 3727, 3728, 3763, 3762, 3622, 3623, 3658, 3657
2364, 3728, 3729, 3764, 3763, 3623, 3624, 3659, 3658
2365, 3729, 3730, 3765, 3764, 3624, 3625, 3660, 3659
2366, 3730, 3731, 3766, 3765, 3625, 3626, 3661, 3660
2367, 3731, 3732, 3767, 3766, 3626, 3627, 3662, 3661
2368, 3732, 3733, 3768, 3767, 3627, 3628, 3663, 3662
2369, 3733, 3734, 3769, 3768, 3628, 3629, 3664, 3663
2370, 3734, 3735, 3770, 3769, 3629, 3630, 3665, 3664
2371, 3735, 3736, 3771, 3770, 3630, 3631, 3666, 3665
2372, 3736, 3737, 3772, 3771, 3631, 3632, 3667, 3666
2373, 3737, 3738, 3773, 3772, 3632, 3633, 3668, 3667
2374, 3738, 3739, 3774, 3773, 3633, 3634, 3669, 3668
2375, 3739, 3740, 3775, 3774, 3634, 3635, 3670, 3669
2376, 3740, 3741, 3776, 3775, 3635, 3636, 3671, 3670
2377, 3741, 3742, 3777, 3776, 3636, 3637, 3672, 3671
2378, 3742, 3743, 3778, 3777, 3637, 3638, 3673, 3672
2379, 3743, 3744, 3779, 3778, 3638, 3639, 3674, 3673
2380, 3744, 3745, 3780, 3779, 3639, 3640, 3675, 3674
*End Part
**  
**
** ASSEMBLY
**
*Assembly, name=Assembly
**  
*Instance, name=Part-1-1, part=Part-1
*End Instance
**  
*End Assembly
