*Heading
** Job name: Plate_T16 Model name: Model-1
** Generated by: Abaqus/CAE 2020
*Preprint, echo=NO, model=NO, history=NO, contact=NO
**
** PARTS
**
*Part, name=Part-1
*Node
      1,          -1.,          -1.,  0.100000001
      2,          -1., -0.941176474,  0.100000001
      3,          -1., -0.882352948,  0.100000001
      4,          -1., -0.823529422,  0.100000001
      5,          -1., -0.764705896,  0.100000001
      6,          -1.,  -0.70588237,  0.100000001
      7,          -1., -0.647058845,  0.100000001
      8,          -1., -0.588235319,  0.100000001
      9,          -1., -0.529411793,  0.100000001
     10,          -1., -0.470588237,  0.100000001
     11,          -1., -0.411764711,  0.100000001
     12,          -1., -0.352941185,  0.100000001
     13,          -1., -0.294117659,  0.100000001
     14,          -1., -0.235294119,  0.100000001
     15,          -1., -0.176470593,  0.100000001
     16,          -1., -0.117647059,  0.100000001
     17,          -1., -0.0588235296,  0.100000001
     18,          -1.,           0.,  0.100000001
     19,          -1., 0.0588235296,  0.100000001
     20,          -1.,  0.117647059,  0.100000001
     21,          -1.,  0.176470593,  0.100000001
     22,          -1.,  0.235294119,  0.100000001
     23,          -1.,  0.294117659,  0.100000001
     24,          -1.,  0.352941185,  0.100000001
     25,          -1.,  0.411764711,  0.100000001
     26,          -1.,  0.470588237,  0.100000001
     27,          -1.,  0.529411793,  0.100000001
     28,          -1.,  0.588235319,  0.100000001
     29,          -1.,  0.647058845,  0.100000001
     30,          -1.,   0.70588237,  0.100000001
     31,          -1.,  0.764705896,  0.100000001
     32,          -1.,  0.823529422,  0.100000001
     33,          -1.,  0.882352948,  0.100000001
     34,          -1.,  0.941176474,  0.100000001
     35,          -1.,           1.,  0.100000001
     36,          -1.,          -1.,  0.075000003
     37,          -1., -0.941176474,  0.075000003
     38,          -1., -0.882352948,  0.075000003
     39,          -1., -0.823529422,  0.075000003
     40,          -1., -0.764705896,  0.075000003
     41,          -1.,  -0.70588237,  0.075000003
     42,          -1., -0.647058845,  0.075000003
     43,          -1., -0.588235319,  0.075000003
     44,          -1., -0.529411793,  0.075000003
     45,          -1., -0.470588237,  0.075000003
     46,          -1., -0.411764711,  0.075000003
     47,          -1., -0.352941185,  0.075000003
     48,          -1., -0.294117659,  0.075000003
     49,          -1., -0.235294119,  0.075000003
     50,          -1., -0.176470593,  0.075000003
     51,          -1., -0.117647059,  0.075000003
     52,          -1., -0.0588235296,  0.075000003
     53,          -1.,           0.,  0.075000003
     54,          -1., 0.0588235296,  0.075000003
     55,          -1.,  0.117647059,  0.075000003
     56,          -1.,  0.176470593,  0.075000003
     57,          -1.,  0.235294119,  0.075000003
     58,          -1.,  0.294117659,  0.075000003
     59,          -1.,  0.352941185,  0.075000003
     60,          -1.,  0.411764711,  0.075000003
     61,          -1.,  0.470588237,  0.075000003
     62,          -1.,  0.529411793,  0.075000003
     63,          -1.,  0.588235319,  0.075000003
     64,          -1.,  0.647058845,  0.075000003
     65,          -1.,   0.70588237,  0.075000003
     66,          -1.,  0.764705896,  0.075000003
     67,          -1.,  0.823529422,  0.075000003
     68,          -1.,  0.882352948,  0.075000003
     69,          -1.,  0.941176474,  0.075000003
     70,          -1.,           1.,  0.075000003
     71,          -1.,          -1., 0.0500000007
     72,          -1., -0.941176474, 0.0500000007
     73,          -1., -0.882352948, 0.0500000007
     74,          -1., -0.823529422, 0.0500000007
     75,          -1., -0.764705896, 0.0500000007
     76,          -1.,  -0.70588237, 0.0500000007
     77,          -1., -0.647058845, 0.0500000007
     78,          -1., -0.588235319, 0.0500000007
     79,          -1., -0.529411793, 0.0500000007
     80,          -1., -0.470588237, 0.0500000007
     81,          -1., -0.411764711, 0.0500000007
     82,          -1., -0.352941185, 0.0500000007
     83,          -1., -0.294117659, 0.0500000007
     84,          -1., -0.235294119, 0.0500000007
     85,          -1., -0.176470593, 0.0500000007
     86,          -1., -0.117647059, 0.0500000007
     87,          -1., -0.0588235296, 0.0500000007
     88,          -1.,           0., 0.0500000007
     89,          -1., 0.0588235296, 0.0500000007
     90,          -1.,  0.117647059, 0.0500000007
     91,          -1.,  0.176470593, 0.0500000007
     92,          -1.,  0.235294119, 0.0500000007
     93,          -1.,  0.294117659, 0.0500000007
     94,          -1.,  0.352941185, 0.0500000007
     95,          -1.,  0.411764711, 0.0500000007
     96,          -1.,  0.470588237, 0.0500000007
     97,          -1.,  0.529411793, 0.0500000007
     98,          -1.,  0.588235319, 0.0500000007
     99,          -1.,  0.647058845, 0.0500000007
    100,          -1.,   0.70588237, 0.0500000007
    101,          -1.,  0.764705896, 0.0500000007
    102,          -1.,  0.823529422, 0.0500000007
    103,          -1.,  0.882352948, 0.0500000007
    104,          -1.,  0.941176474, 0.0500000007
    105,          -1.,           1., 0.0500000007
    106,          -1.,          -1., 0.0250000004
    107,          -1., -0.941176474, 0.0250000004
    108,          -1., -0.882352948, 0.0250000004
    109,          -1., -0.823529422, 0.0250000004
    110,          -1., -0.764705896, 0.0250000004
    111,          -1.,  -0.70588237, 0.0250000004
    112,          -1., -0.647058845, 0.0250000004
    113,          -1., -0.588235319, 0.0250000004
    114,          -1., -0.529411793, 0.0250000004
    115,          -1., -0.470588237, 0.0250000004
    116,          -1., -0.411764711, 0.0250000004
    117,          -1., -0.352941185, 0.0250000004
    118,          -1., -0.294117659, 0.0250000004
    119,          -1., -0.235294119, 0.0250000004
    120,          -1., -0.176470593, 0.0250000004
    121,          -1., -0.117647059, 0.0250000004
    122,          -1., -0.0588235296, 0.0250000004
    123,          -1.,           0., 0.0250000004
    124,          -1., 0.0588235296, 0.0250000004
    125,          -1.,  0.117647059, 0.0250000004
    126,          -1.,  0.176470593, 0.0250000004
    127,          -1.,  0.235294119, 0.0250000004
    128,          -1.,  0.294117659, 0.0250000004
    129,          -1.,  0.352941185, 0.0250000004
    130,          -1.,  0.411764711, 0.0250000004
    131,          -1.,  0.470588237, 0.0250000004
    132,          -1.,  0.529411793, 0.0250000004
    133,          -1.,  0.588235319, 0.0250000004
    134,          -1.,  0.647058845, 0.0250000004
    135,          -1.,   0.70588237, 0.0250000004
    136,          -1.,  0.764705896, 0.0250000004
    137,          -1.,  0.823529422, 0.0250000004
    138,          -1.,  0.882352948, 0.0250000004
    139,          -1.,  0.941176474, 0.0250000004
    140,          -1.,           1., 0.0250000004
    141,          -1.,          -1.,           0.
    142,          -1., -0.941176474,           0.
    143,          -1., -0.882352948,           0.
    144,          -1., -0.823529422,           0.
    145,          -1., -0.764705896,           0.
    146,          -1.,  -0.70588237,           0.
    147,          -1., -0.647058845,           0.
    148,          -1., -0.588235319,           0.
    149,          -1., -0.529411793,           0.
    150,          -1., -0.470588237,           0.
    151,          -1., -0.411764711,           0.
    152,          -1., -0.352941185,           0.
    153,          -1., -0.294117659,           0.
    154,          -1., -0.235294119,           0.
    155,          -1., -0.176470593,           0.
    156,          -1., -0.117647059,           0.
    157,          -1., -0.0588235296,           0.
    158,          -1.,           0.,           0.
    159,          -1., 0.0588235296,           0.
    160,          -1.,  0.117647059,           0.
    161,          -1.,  0.176470593,           0.
    162,          -1.,  0.235294119,           0.
    163,          -1.,  0.294117659,           0.
    164,          -1.,  0.352941185,           0.
    165,          -1.,  0.411764711,           0.
    166,          -1.,  0.470588237,           0.
    167,          -1.,  0.529411793,           0.
    168,          -1.,  0.588235319,           0.
    169,          -1.,  0.647058845,           0.
    170,          -1.,   0.70588237,           0.
    171,          -1.,  0.764705896,           0.
    172,          -1.,  0.823529422,           0.
    173,          -1.,  0.882352948,           0.
    174,          -1.,  0.941176474,           0.
    175,          -1.,           1.,           0.
    176, -0.942857146,          -1.,  0.100000001
    177, -0.942857146, -0.941176474,  0.100000001
    178, -0.942857146, -0.882352948,  0.100000001
    179, -0.942857146, -0.823529422,  0.100000001
    180, -0.942857146, -0.764705896,  0.100000001
    181, -0.942857146,  -0.70588237,  0.100000001
    182, -0.942857146, -0.647058845,  0.100000001
    183, -0.942857146, -0.588235319,  0.100000001
    184, -0.942857146, -0.529411793,  0.100000001
    185, -0.942857146, -0.470588237,  0.100000001
    186, -0.942857146, -0.411764711,  0.100000001
    187, -0.942857146, -0.352941185,  0.100000001
    188, -0.942857146, -0.294117659,  0.100000001
    189, -0.942857146, -0.235294119,  0.100000001
    190, -0.942857146, -0.176470593,  0.100000001
    191, -0.942857146, -0.117647059,  0.100000001
    192, -0.942857146, -0.0588235296,  0.100000001
    193, -0.942857146,           0.,  0.100000001
    194, -0.942857146, 0.0588235296,  0.100000001
    195, -0.942857146,  0.117647059,  0.100000001
    196, -0.942857146,  0.176470593,  0.100000001
    197, -0.942857146,  0.235294119,  0.100000001
    198, -0.942857146,  0.294117659,  0.100000001
    199, -0.942857146,  0.352941185,  0.100000001
    200, -0.942857146,  0.411764711,  0.100000001
    201, -0.942857146,  0.470588237,  0.100000001
    202, -0.942857146,  0.529411793,  0.100000001
    203, -0.942857146,  0.588235319,  0.100000001
    204, -0.942857146,  0.647058845,  0.100000001
    205, -0.942857146,   0.70588237,  0.100000001
    206, -0.942857146,  0.764705896,  0.100000001
    207, -0.942857146,  0.823529422,  0.100000001
    208, -0.942857146,  0.882352948,  0.100000001
    209, -0.942857146,  0.941176474,  0.100000001
    210, -0.942857146,           1.,  0.100000001
    211, -0.942857146,          -1.,  0.075000003
    212, -0.942857146, -0.941176474,  0.075000003
    213, -0.942857146, -0.882352948,  0.075000003
    214, -0.942857146, -0.823529422,  0.075000003
    215, -0.942857146, -0.764705896,  0.075000003
    216, -0.942857146,  -0.70588237,  0.075000003
    217, -0.942857146, -0.647058845,  0.075000003
    218, -0.942857146, -0.588235319,  0.075000003
    219, -0.942857146, -0.529411793,  0.075000003
    220, -0.942857146, -0.470588237,  0.075000003
    221, -0.942857146, -0.411764711,  0.075000003
    222, -0.942857146, -0.352941185,  0.075000003
    223, -0.942857146, -0.294117659,  0.075000003
    224, -0.942857146, -0.235294119,  0.075000003
    225, -0.942857146, -0.176470593,  0.075000003
    226, -0.942857146, -0.117647059,  0.075000003
    227, -0.942857146, -0.0588235296,  0.075000003
    228, -0.942857146,           0.,  0.075000003
    229, -0.942857146, 0.0588235296,  0.075000003
    230, -0.942857146,  0.117647059,  0.075000003
    231, -0.942857146,  0.176470593,  0.075000003
    232, -0.942857146,  0.235294119,  0.075000003
    233, -0.942857146,  0.294117659,  0.075000003
    234, -0.942857146,  0.352941185,  0.075000003
    235, -0.942857146,  0.411764711,  0.075000003
    236, -0.942857146,  0.470588237,  0.075000003
    237, -0.942857146,  0.529411793,  0.075000003
    238, -0.942857146,  0.588235319,  0.075000003
    239, -0.942857146,  0.647058845,  0.075000003
    240, -0.942857146,   0.70588237,  0.075000003
    241, -0.942857146,  0.764705896,  0.075000003
    242, -0.942857146,  0.823529422,  0.075000003
    243, -0.942857146,  0.882352948,  0.075000003
    244, -0.942857146,  0.941176474,  0.075000003
    245, -0.942857146,           1.,  0.075000003
    246, -0.942857146,          -1., 0.0500000007
    247, -0.942857146, -0.941176474, 0.0500000007
    248, -0.942857146, -0.882352948, 0.0500000007
    249, -0.942857146, -0.823529422, 0.0500000007
    250, -0.942857146, -0.764705896, 0.0500000007
    251, -0.942857146,  -0.70588237, 0.0500000007
    252, -0.942857146, -0.647058845, 0.0500000007
    253, -0.942857146, -0.588235319, 0.0500000007
    254, -0.942857146, -0.529411793, 0.0500000007
    255, -0.942857146, -0.470588237, 0.0500000007
    256, -0.942857146, -0.411764711, 0.0500000007
    257, -0.942857146, -0.352941185, 0.0500000007
    258, -0.942857146, -0.294117659, 0.0500000007
    259, -0.942857146, -0.235294119, 0.0500000007
    260, -0.942857146, -0.176470593, 0.0500000007
    261, -0.942857146, -0.117647059, 0.0500000007
    262, -0.942857146, -0.0588235296, 0.0500000007
    263, -0.942857146,           0., 0.0500000007
    264, -0.942857146, 0.0588235296, 0.0500000007
    265, -0.942857146,  0.117647059, 0.0500000007
    266, -0.942857146,  0.176470593, 0.0500000007
    267, -0.942857146,  0.235294119, 0.0500000007
    268, -0.942857146,  0.294117659, 0.0500000007
    269, -0.942857146,  0.352941185, 0.0500000007
    270, -0.942857146,  0.411764711, 0.0500000007
    271, -0.942857146,  0.470588237, 0.0500000007
    272, -0.942857146,  0.529411793, 0.0500000007
    273, -0.942857146,  0.588235319, 0.0500000007
    274, -0.942857146,  0.647058845, 0.0500000007
    275, -0.942857146,   0.70588237, 0.0500000007
    276, -0.942857146,  0.764705896, 0.0500000007
    277, -0.942857146,  0.823529422, 0.0500000007
    278, -0.942857146,  0.882352948, 0.0500000007
    279, -0.942857146,  0.941176474, 0.0500000007
    280, -0.942857146,           1., 0.0500000007
    281, -0.942857146,          -1., 0.0250000004
    282, -0.942857146, -0.941176474, 0.0250000004
    283, -0.942857146, -0.882352948, 0.0250000004
    284, -0.942857146, -0.823529422, 0.0250000004
    285, -0.942857146, -0.764705896, 0.0250000004
    286, -0.942857146,  -0.70588237, 0.0250000004
    287, -0.942857146, -0.647058845, 0.0250000004
    288, -0.942857146, -0.588235319, 0.0250000004
    289, -0.942857146, -0.529411793, 0.0250000004
    290, -0.942857146, -0.470588237, 0.0250000004
    291, -0.942857146, -0.411764711, 0.0250000004
    292, -0.942857146, -0.352941185, 0.0250000004
    293, -0.942857146, -0.294117659, 0.0250000004
    294, -0.942857146, -0.235294119, 0.0250000004
    295, -0.942857146, -0.176470593, 0.0250000004
    296, -0.942857146, -0.117647059, 0.0250000004
    297, -0.942857146, -0.0588235296, 0.0250000004
    298, -0.942857146,           0., 0.0250000004
    299, -0.942857146, 0.0588235296, 0.0250000004
    300, -0.942857146,  0.117647059, 0.0250000004
    301, -0.942857146,  0.176470593, 0.0250000004
    302, -0.942857146,  0.235294119, 0.0250000004
    303, -0.942857146,  0.294117659, 0.0250000004
    304, -0.942857146,  0.352941185, 0.0250000004
    305, -0.942857146,  0.411764711, 0.0250000004
    306, -0.942857146,  0.470588237, 0.0250000004
    307, -0.942857146,  0.529411793, 0.0250000004
    308, -0.942857146,  0.588235319, 0.0250000004
    309, -0.942857146,  0.647058845, 0.0250000004
    310, -0.942857146,   0.70588237, 0.0250000004
    311, -0.942857146,  0.764705896, 0.0250000004
    312, -0.942857146,  0.823529422, 0.0250000004
    313, -0.942857146,  0.882352948, 0.0250000004
    314, -0.942857146,  0.941176474, 0.0250000004
    315, -0.942857146,           1., 0.0250000004
    316, -0.942857146,          -1.,           0.
    317, -0.942857146, -0.941176474,           0.
    318, -0.942857146, -0.882352948,           0.
    319, -0.942857146, -0.823529422,           0.
    320, -0.942857146, -0.764705896,           0.
    321, -0.942857146,  -0.70588237,           0.
    322, -0.942857146, -0.647058845,           0.
    323, -0.942857146, -0.588235319,           0.
    324, -0.942857146, -0.529411793,           0.
    325, -0.942857146, -0.470588237,           0.
    326, -0.942857146, -0.411764711,           0.
    327, -0.942857146, -0.352941185,           0.
    328, -0.942857146, -0.294117659,           0.
    329, -0.942857146, -0.235294119,           0.
    330, -0.942857146, -0.176470593,           0.
    331, -0.942857146, -0.117647059,           0.
    332, -0.942857146, -0.0588235296,           0.
    333, -0.942857146,           0.,           0.
    334, -0.942857146, 0.0588235296,           0.
    335, -0.942857146,  0.117647059,           0.
    336, -0.942857146,  0.176470593,           0.
    337, -0.942857146,  0.235294119,           0.
    338, -0.942857146,  0.294117659,           0.
    339, -0.942857146,  0.352941185,           0.
    340, -0.942857146,  0.411764711,           0.
    341, -0.942857146,  0.470588237,           0.
    342, -0.942857146,  0.529411793,           0.
    343, -0.942857146,  0.588235319,           0.
    344, -0.942857146,  0.647058845,           0.
    345, -0.942857146,   0.70588237,           0.
    346, -0.942857146,  0.764705896,           0.
    347, -0.942857146,  0.823529422,           0.
    348, -0.942857146,  0.882352948,           0.
    349, -0.942857146,  0.941176474,           0.
    350, -0.942857146,           1.,           0.
    351, -0.885714293,          -1.,  0.100000001
    352, -0.885714293, -0.941176474,  0.100000001
    353, -0.885714293, -0.882352948,  0.100000001
    354, -0.885714293, -0.823529422,  0.100000001
    355, -0.885714293, -0.764705896,  0.100000001
    356, -0.885714293,  -0.70588237,  0.100000001
    357, -0.885714293, -0.647058845,  0.100000001
    358, -0.885714293, -0.588235319,  0.100000001
    359, -0.885714293, -0.529411793,  0.100000001
    360, -0.885714293, -0.470588237,  0.100000001
    361, -0.885714293, -0.411764711,  0.100000001
    362, -0.885714293, -0.352941185,  0.100000001
    363, -0.885714293, -0.294117659,  0.100000001
    364, -0.885714293, -0.235294119,  0.100000001
    365, -0.885714293, -0.176470593,  0.100000001
    366, -0.885714293, -0.117647059,  0.100000001
    367, -0.885714293, -0.0588235296,  0.100000001
    368, -0.885714293,           0.,  0.100000001
    369, -0.885714293, 0.0588235296,  0.100000001
    370, -0.885714293,  0.117647059,  0.100000001
    371, -0.885714293,  0.176470593,  0.100000001
    372, -0.885714293,  0.235294119,  0.100000001
    373, -0.885714293,  0.294117659,  0.100000001
    374, -0.885714293,  0.352941185,  0.100000001
    375, -0.885714293,  0.411764711,  0.100000001
    376, -0.885714293,  0.470588237,  0.100000001
    377, -0.885714293,  0.529411793,  0.100000001
    378, -0.885714293,  0.588235319,  0.100000001
    379, -0.885714293,  0.647058845,  0.100000001
    380, -0.885714293,   0.70588237,  0.100000001
    381, -0.885714293,  0.764705896,  0.100000001
    382, -0.885714293,  0.823529422,  0.100000001
    383, -0.885714293,  0.882352948,  0.100000001
    384, -0.885714293,  0.941176474,  0.100000001
    385, -0.885714293,           1.,  0.100000001
    386, -0.885714293,          -1.,  0.075000003
    387, -0.885714293, -0.941176474,  0.075000003
    388, -0.885714293, -0.882352948,  0.075000003
    389, -0.885714293, -0.823529422,  0.075000003
    390, -0.885714293, -0.764705896,  0.075000003
    391, -0.885714293,  -0.70588237,  0.075000003
    392, -0.885714293, -0.647058845,  0.075000003
    393, -0.885714293, -0.588235319,  0.075000003
    394, -0.885714293, -0.529411793,  0.075000003
    395, -0.885714293, -0.470588237,  0.075000003
    396, -0.885714293, -0.411764711,  0.075000003
    397, -0.885714293, -0.352941185,  0.075000003
    398, -0.885714293, -0.294117659,  0.075000003
    399, -0.885714293, -0.235294119,  0.075000003
    400, -0.885714293, -0.176470593,  0.075000003
    401, -0.885714293, -0.117647059,  0.075000003
    402, -0.885714293, -0.0588235296,  0.075000003
    403, -0.885714293,           0.,  0.075000003
    404, -0.885714293, 0.0588235296,  0.075000003
    405, -0.885714293,  0.117647059,  0.075000003
    406, -0.885714293,  0.176470593,  0.075000003
    407, -0.885714293,  0.235294119,  0.075000003
    408, -0.885714293,  0.294117659,  0.075000003
    409, -0.885714293,  0.352941185,  0.075000003
    410, -0.885714293,  0.411764711,  0.075000003
    411, -0.885714293,  0.470588237,  0.075000003
    412, -0.885714293,  0.529411793,  0.075000003
    413, -0.885714293,  0.588235319,  0.075000003
    414, -0.885714293,  0.647058845,  0.075000003
    415, -0.885714293,   0.70588237,  0.075000003
    416, -0.885714293,  0.764705896,  0.075000003
    417, -0.885714293,  0.823529422,  0.075000003
    418, -0.885714293,  0.882352948,  0.075000003
    419, -0.885714293,  0.941176474,  0.075000003
    420, -0.885714293,           1.,  0.075000003
    421, -0.885714293,          -1., 0.0500000007
    422, -0.885714293, -0.941176474, 0.0500000007
    423, -0.885714293, -0.882352948, 0.0500000007
    424, -0.885714293, -0.823529422, 0.0500000007
    425, -0.885714293, -0.764705896, 0.0500000007
    426, -0.885714293,  -0.70588237, 0.0500000007
    427, -0.885714293, -0.647058845, 0.0500000007
    428, -0.885714293, -0.588235319, 0.0500000007
    429, -0.885714293, -0.529411793, 0.0500000007
    430, -0.885714293, -0.470588237, 0.0500000007
    431, -0.885714293, -0.411764711, 0.0500000007
    432, -0.885714293, -0.352941185, 0.0500000007
    433, -0.885714293, -0.294117659, 0.0500000007
    434, -0.885714293, -0.235294119, 0.0500000007
    435, -0.885714293, -0.176470593, 0.0500000007
    436, -0.885714293, -0.117647059, 0.0500000007
    437, -0.885714293, -0.0588235296, 0.0500000007
    438, -0.885714293,           0., 0.0500000007
    439, -0.885714293, 0.0588235296, 0.0500000007
    440, -0.885714293,  0.117647059, 0.0500000007
    441, -0.885714293,  0.176470593, 0.0500000007
    442, -0.885714293,  0.235294119, 0.0500000007
    443, -0.885714293,  0.294117659, 0.0500000007
    444, -0.885714293,  0.352941185, 0.0500000007
    445, -0.885714293,  0.411764711, 0.0500000007
    446, -0.885714293,  0.470588237, 0.0500000007
    447, -0.885714293,  0.529411793, 0.0500000007
    448, -0.885714293,  0.588235319, 0.0500000007
    449, -0.885714293,  0.647058845, 0.0500000007
    450, -0.885714293,   0.70588237, 0.0500000007
    451, -0.885714293,  0.764705896, 0.0500000007
    452, -0.885714293,  0.823529422, 0.0500000007
    453, -0.885714293,  0.882352948, 0.0500000007
    454, -0.885714293,  0.941176474, 0.0500000007
    455, -0.885714293,           1., 0.0500000007
    456, -0.885714293,          -1., 0.0250000004
    457, -0.885714293, -0.941176474, 0.0250000004
    458, -0.885714293, -0.882352948, 0.0250000004
    459, -0.885714293, -0.823529422, 0.0250000004
    460, -0.885714293, -0.764705896, 0.0250000004
    461, -0.885714293,  -0.70588237, 0.0250000004
    462, -0.885714293, -0.647058845, 0.0250000004
    463, -0.885714293, -0.588235319, 0.0250000004
    464, -0.885714293, -0.529411793, 0.0250000004
    465, -0.885714293, -0.470588237, 0.0250000004
    466, -0.885714293, -0.411764711, 0.0250000004
    467, -0.885714293, -0.352941185, 0.0250000004
    468, -0.885714293, -0.294117659, 0.0250000004
    469, -0.885714293, -0.235294119, 0.0250000004
    470, -0.885714293, -0.176470593, 0.0250000004
    471, -0.885714293, -0.117647059, 0.0250000004
    472, -0.885714293, -0.0588235296, 0.0250000004
    473, -0.885714293,           0., 0.0250000004
    474, -0.885714293, 0.0588235296, 0.0250000004
    475, -0.885714293,  0.117647059, 0.0250000004
    476, -0.885714293,  0.176470593, 0.0250000004
    477, -0.885714293,  0.235294119, 0.0250000004
    478, -0.885714293,  0.294117659, 0.0250000004
    479, -0.885714293,  0.352941185, 0.0250000004
    480, -0.885714293,  0.411764711, 0.0250000004
    481, -0.885714293,  0.470588237, 0.0250000004
    482, -0.885714293,  0.529411793, 0.0250000004
    483, -0.885714293,  0.588235319, 0.0250000004
    484, -0.885714293,  0.647058845, 0.0250000004
    485, -0.885714293,   0.70588237, 0.0250000004
    486, -0.885714293,  0.764705896, 0.0250000004
    487, -0.885714293,  0.823529422, 0.0250000004
    488, -0.885714293,  0.882352948, 0.0250000004
    489, -0.885714293,  0.941176474, 0.0250000004
    490, -0.885714293,           1., 0.0250000004
    491, -0.885714293,          -1.,           0.
    492, -0.885714293, -0.941176474,           0.
    493, -0.885714293, -0.882352948,           0.
    494, -0.885714293, -0.823529422,           0.
    495, -0.885714293, -0.764705896,           0.
    496, -0.885714293,  -0.70588237,           0.
    497, -0.885714293, -0.647058845,           0.
    498, -0.885714293, -0.588235319,           0.
    499, -0.885714293, -0.529411793,           0.
    500, -0.885714293, -0.470588237,           0.
    501, -0.885714293, -0.411764711,           0.
    502, -0.885714293, -0.352941185,           0.
    503, -0.885714293, -0.294117659,           0.
    504, -0.885714293, -0.235294119,           0.
    505, -0.885714293, -0.176470593,           0.
    506, -0.885714293, -0.117647059,           0.
    507, -0.885714293, -0.0588235296,           0.
    508, -0.885714293,           0.,           0.
    509, -0.885714293, 0.0588235296,           0.
    510, -0.885714293,  0.117647059,           0.
    511, -0.885714293,  0.176470593,           0.
    512, -0.885714293,  0.235294119,           0.
    513, -0.885714293,  0.294117659,           0.
    514, -0.885714293,  0.352941185,           0.
    515, -0.885714293,  0.411764711,           0.
    516, -0.885714293,  0.470588237,           0.
    517, -0.885714293,  0.529411793,           0.
    518, -0.885714293,  0.588235319,           0.
    519, -0.885714293,  0.647058845,           0.
    520, -0.885714293,   0.70588237,           0.
    521, -0.885714293,  0.764705896,           0.
    522, -0.885714293,  0.823529422,           0.
    523, -0.885714293,  0.882352948,           0.
    524, -0.885714293,  0.941176474,           0.
    525, -0.885714293,           1.,           0.
    526, -0.828571439,          -1.,  0.100000001
    527, -0.828571439, -0.941176474,  0.100000001
    528, -0.828571439, -0.882352948,  0.100000001
    529, -0.828571439, -0.823529422,  0.100000001
    530, -0.828571439, -0.764705896,  0.100000001
    531, -0.828571439,  -0.70588237,  0.100000001
    532, -0.828571439, -0.647058845,  0.100000001
    533, -0.828571439, -0.588235319,  0.100000001
    534, -0.828571439, -0.529411793,  0.100000001
    535, -0.828571439, -0.470588237,  0.100000001
    536, -0.828571439, -0.411764711,  0.100000001
    537, -0.828571439, -0.352941185,  0.100000001
    538, -0.828571439, -0.294117659,  0.100000001
    539, -0.828571439, -0.235294119,  0.100000001
    540, -0.828571439, -0.176470593,  0.100000001
    541, -0.828571439, -0.117647059,  0.100000001
    542, -0.828571439, -0.0588235296,  0.100000001
    543, -0.828571439,           0.,  0.100000001
    544, -0.828571439, 0.0588235296,  0.100000001
    545, -0.828571439,  0.117647059,  0.100000001
    546, -0.828571439,  0.176470593,  0.100000001
    547, -0.828571439,  0.235294119,  0.100000001
    548, -0.828571439,  0.294117659,  0.100000001
    549, -0.828571439,  0.352941185,  0.100000001
    550, -0.828571439,  0.411764711,  0.100000001
    551, -0.828571439,  0.470588237,  0.100000001
    552, -0.828571439,  0.529411793,  0.100000001
    553, -0.828571439,  0.588235319,  0.100000001
    554, -0.828571439,  0.647058845,  0.100000001
    555, -0.828571439,   0.70588237,  0.100000001
    556, -0.828571439,  0.764705896,  0.100000001
    557, -0.828571439,  0.823529422,  0.100000001
    558, -0.828571439,  0.882352948,  0.100000001
    559, -0.828571439,  0.941176474,  0.100000001
    560, -0.828571439,           1.,  0.100000001
    561, -0.828571439,          -1.,  0.075000003
    562, -0.828571439, -0.941176474,  0.075000003
    563, -0.828571439, -0.882352948,  0.075000003
    564, -0.828571439, -0.823529422,  0.075000003
    565, -0.828571439, -0.764705896,  0.075000003
    566, -0.828571439,  -0.70588237,  0.075000003
    567, -0.828571439, -0.647058845,  0.075000003
    568, -0.828571439, -0.588235319,  0.075000003
    569, -0.828571439, -0.529411793,  0.075000003
    570, -0.828571439, -0.470588237,  0.075000003
    571, -0.828571439, -0.411764711,  0.075000003
    572, -0.828571439, -0.352941185,  0.075000003
    573, -0.828571439, -0.294117659,  0.075000003
    574, -0.828571439, -0.235294119,  0.075000003
    575, -0.828571439, -0.176470593,  0.075000003
    576, -0.828571439, -0.117647059,  0.075000003
    577, -0.828571439, -0.0588235296,  0.075000003
    578, -0.828571439,           0.,  0.075000003
    579, -0.828571439, 0.0588235296,  0.075000003
    580, -0.828571439,  0.117647059,  0.075000003
    581, -0.828571439,  0.176470593,  0.075000003
    582, -0.828571439,  0.235294119,  0.075000003
    583, -0.828571439,  0.294117659,  0.075000003
    584, -0.828571439,  0.352941185,  0.075000003
    585, -0.828571439,  0.411764711,  0.075000003
    586, -0.828571439,  0.470588237,  0.075000003
    587, -0.828571439,  0.529411793,  0.075000003
    588, -0.828571439,  0.588235319,  0.075000003
    589, -0.828571439,  0.647058845,  0.075000003
    590, -0.828571439,   0.70588237,  0.075000003
    591, -0.828571439,  0.764705896,  0.075000003
    592, -0.828571439,  0.823529422,  0.075000003
    593, -0.828571439,  0.882352948,  0.075000003
    594, -0.828571439,  0.941176474,  0.075000003
    595, -0.828571439,           1.,  0.075000003
    596, -0.828571439,          -1., 0.0500000007
    597, -0.828571439, -0.941176474, 0.0500000007
    598, -0.828571439, -0.882352948, 0.0500000007
    599, -0.828571439, -0.823529422, 0.0500000007
    600, -0.828571439, -0.764705896, 0.0500000007
    601, -0.828571439,  -0.70588237, 0.0500000007
    602, -0.828571439, -0.647058845, 0.0500000007
    603, -0.828571439, -0.588235319, 0.0500000007
    604, -0.828571439, -0.529411793, 0.0500000007
    605, -0.828571439, -0.470588237, 0.0500000007
    606, -0.828571439, -0.411764711, 0.0500000007
    607, -0.828571439, -0.352941185, 0.0500000007
    608, -0.828571439, -0.294117659, 0.0500000007
    609, -0.828571439, -0.235294119, 0.0500000007
    610, -0.828571439, -0.176470593, 0.0500000007
    611, -0.828571439, -0.117647059, 0.0500000007
    612, -0.828571439, -0.0588235296, 0.0500000007
    613, -0.828571439,           0., 0.0500000007
    614, -0.828571439, 0.0588235296, 0.0500000007
    615, -0.828571439,  0.117647059, 0.0500000007
    616, -0.828571439,  0.176470593, 0.0500000007
    617, -0.828571439,  0.235294119, 0.0500000007
    618, -0.828571439,  0.294117659, 0.0500000007
    619, -0.828571439,  0.352941185, 0.0500000007
    620, -0.828571439,  0.411764711, 0.0500000007
    621, -0.828571439,  0.470588237, 0.0500000007
    622, -0.828571439,  0.529411793, 0.0500000007
    623, -0.828571439,  0.588235319, 0.0500000007
    624, -0.828571439,  0.647058845, 0.0500000007
    625, -0.828571439,   0.70588237, 0.0500000007
    626, -0.828571439,  0.764705896, 0.0500000007
    627, -0.828571439,  0.823529422, 0.0500000007
    628, -0.828571439,  0.882352948, 0.0500000007
    629, -0.828571439,  0.941176474, 0.0500000007
    630, -0.828571439,           1., 0.0500000007
    631, -0.828571439,          -1., 0.0250000004
    632, -0.828571439, -0.941176474, 0.0250000004
    633, -0.828571439, -0.882352948, 0.0250000004
    634, -0.828571439, -0.823529422, 0.0250000004
    635, -0.828571439, -0.764705896, 0.0250000004
    636, -0.828571439,  -0.70588237, 0.0250000004
    637, -0.828571439, -0.647058845, 0.0250000004
    638, -0.828571439, -0.588235319, 0.0250000004
    639, -0.828571439, -0.529411793, 0.0250000004
    640, -0.828571439, -0.470588237, 0.0250000004
    641, -0.828571439, -0.411764711, 0.0250000004
    642, -0.828571439, -0.352941185, 0.0250000004
    643, -0.828571439, -0.294117659, 0.0250000004
    644, -0.828571439, -0.235294119, 0.0250000004
    645, -0.828571439, -0.176470593, 0.0250000004
    646, -0.828571439, -0.117647059, 0.0250000004
    647, -0.828571439, -0.0588235296, 0.0250000004
    648, -0.828571439,           0., 0.0250000004
    649, -0.828571439, 0.0588235296, 0.0250000004
    650, -0.828571439,  0.117647059, 0.0250000004
    651, -0.828571439,  0.176470593, 0.0250000004
    652, -0.828571439,  0.235294119, 0.0250000004
    653, -0.828571439,  0.294117659, 0.0250000004
    654, -0.828571439,  0.352941185, 0.0250000004
    655, -0.828571439,  0.411764711, 0.0250000004
    656, -0.828571439,  0.470588237, 0.0250000004
    657, -0.828571439,  0.529411793, 0.0250000004
    658, -0.828571439,  0.588235319, 0.0250000004
    659, -0.828571439,  0.647058845, 0.0250000004
    660, -0.828571439,   0.70588237, 0.0250000004
    661, -0.828571439,  0.764705896, 0.0250000004
    662, -0.828571439,  0.823529422, 0.0250000004
    663, -0.828571439,  0.882352948, 0.0250000004
    664, -0.828571439,  0.941176474, 0.0250000004
    665, -0.828571439,           1., 0.0250000004
    666, -0.828571439,          -1.,           0.
    667, -0.828571439, -0.941176474,           0.
    668, -0.828571439, -0.882352948,           0.
    669, -0.828571439, -0.823529422,           0.
    670, -0.828571439, -0.764705896,           0.
    671, -0.828571439,  -0.70588237,           0.
    672, -0.828571439, -0.647058845,           0.
    673, -0.828571439, -0.588235319,           0.
    674, -0.828571439, -0.529411793,           0.
    675, -0.828571439, -0.470588237,           0.
    676, -0.828571439, -0.411764711,           0.
    677, -0.828571439, -0.352941185,           0.
    678, -0.828571439, -0.294117659,           0.
    679, -0.828571439, -0.235294119,           0.
    680, -0.828571439, -0.176470593,           0.
    681, -0.828571439, -0.117647059,           0.
    682, -0.828571439, -0.0588235296,           0.
    683, -0.828571439,           0.,           0.
    684, -0.828571439, 0.0588235296,           0.
    685, -0.828571439,  0.117647059,           0.
    686, -0.828571439,  0.176470593,           0.
    687, -0.828571439,  0.235294119,           0.
    688, -0.828571439,  0.294117659,           0.
    689, -0.828571439,  0.352941185,           0.
    690, -0.828571439,  0.411764711,           0.
    691, -0.828571439,  0.470588237,           0.
    692, -0.828571439,  0.529411793,           0.
    693, -0.828571439,  0.588235319,           0.
    694, -0.828571439,  0.647058845,           0.
    695, -0.828571439,   0.70588237,           0.
    696, -0.828571439,  0.764705896,           0.
    697, -0.828571439,  0.823529422,           0.
    698, -0.828571439,  0.882352948,           0.
    699, -0.828571439,  0.941176474,           0.
    700, -0.828571439,           1.,           0.
    701, -0.771428585,          -1.,  0.100000001
    702, -0.771428585, -0.941176474,  0.100000001
    703, -0.771428585, -0.882352948,  0.100000001
    704, -0.771428585, -0.823529422,  0.100000001
    705, -0.771428585, -0.764705896,  0.100000001
    706, -0.771428585,  -0.70588237,  0.100000001
    707, -0.771428585, -0.647058845,  0.100000001
    708, -0.771428585, -0.588235319,  0.100000001
    709, -0.771428585, -0.529411793,  0.100000001
    710, -0.771428585, -0.470588237,  0.100000001
    711, -0.771428585, -0.411764711,  0.100000001
    712, -0.771428585, -0.352941185,  0.100000001
    713, -0.771428585, -0.294117659,  0.100000001
    714, -0.771428585, -0.235294119,  0.100000001
    715, -0.771428585, -0.176470593,  0.100000001
    716, -0.771428585, -0.117647059,  0.100000001
    717, -0.771428585, -0.0588235296,  0.100000001
    718, -0.771428585,           0.,  0.100000001
    719, -0.771428585, 0.0588235296,  0.100000001
    720, -0.771428585,  0.117647059,  0.100000001
    721, -0.771428585,  0.176470593,  0.100000001
    722, -0.771428585,  0.235294119,  0.100000001
    723, -0.771428585,  0.294117659,  0.100000001
    724, -0.771428585,  0.352941185,  0.100000001
    725, -0.771428585,  0.411764711,  0.100000001
    726, -0.771428585,  0.470588237,  0.100000001
    727, -0.771428585,  0.529411793,  0.100000001
    728, -0.771428585,  0.588235319,  0.100000001
    729, -0.771428585,  0.647058845,  0.100000001
    730, -0.771428585,   0.70588237,  0.100000001
    731, -0.771428585,  0.764705896,  0.100000001
    732, -0.771428585,  0.823529422,  0.100000001
    733, -0.771428585,  0.882352948,  0.100000001
    734, -0.771428585,  0.941176474,  0.100000001
    735, -0.771428585,           1.,  0.100000001
    736, -0.771428585,          -1.,  0.075000003
    737, -0.771428585, -0.941176474,  0.075000003
    738, -0.771428585, -0.882352948,  0.075000003
    739, -0.771428585, -0.823529422,  0.075000003
    740, -0.771428585, -0.764705896,  0.075000003
    741, -0.771428585,  -0.70588237,  0.075000003
    742, -0.771428585, -0.647058845,  0.075000003
    743, -0.771428585, -0.588235319,  0.075000003
    744, -0.771428585, -0.529411793,  0.075000003
    745, -0.771428585, -0.470588237,  0.075000003
    746, -0.771428585, -0.411764711,  0.075000003
    747, -0.771428585, -0.352941185,  0.075000003
    748, -0.771428585, -0.294117659,  0.075000003
    749, -0.771428585, -0.235294119,  0.075000003
    750, -0.771428585, -0.176470593,  0.075000003
    751, -0.771428585, -0.117647059,  0.075000003
    752, -0.771428585, -0.0588235296,  0.075000003
    753, -0.771428585,           0.,  0.075000003
    754, -0.771428585, 0.0588235296,  0.075000003
    755, -0.771428585,  0.117647059,  0.075000003
    756, -0.771428585,  0.176470593,  0.075000003
    757, -0.771428585,  0.235294119,  0.075000003
    758, -0.771428585,  0.294117659,  0.075000003
    759, -0.771428585,  0.352941185,  0.075000003
    760, -0.771428585,  0.411764711,  0.075000003
    761, -0.771428585,  0.470588237,  0.075000003
    762, -0.771428585,  0.529411793,  0.075000003
    763, -0.771428585,  0.588235319,  0.075000003
    764, -0.771428585,  0.647058845,  0.075000003
    765, -0.771428585,   0.70588237,  0.075000003
    766, -0.771428585,  0.764705896,  0.075000003
    767, -0.771428585,  0.823529422,  0.075000003
    768, -0.771428585,  0.882352948,  0.075000003
    769, -0.771428585,  0.941176474,  0.075000003
    770, -0.771428585,           1.,  0.075000003
    771, -0.771428585,          -1., 0.0500000007
    772, -0.771428585, -0.941176474, 0.0500000007
    773, -0.771428585, -0.882352948, 0.0500000007
    774, -0.771428585, -0.823529422, 0.0500000007
    775, -0.771428585, -0.764705896, 0.0500000007
    776, -0.771428585,  -0.70588237, 0.0500000007
    777, -0.771428585, -0.647058845, 0.0500000007
    778, -0.771428585, -0.588235319, 0.0500000007
    779, -0.771428585, -0.529411793, 0.0500000007
    780, -0.771428585, -0.470588237, 0.0500000007
    781, -0.771428585, -0.411764711, 0.0500000007
    782, -0.771428585, -0.352941185, 0.0500000007
    783, -0.771428585, -0.294117659, 0.0500000007
    784, -0.771428585, -0.235294119, 0.0500000007
    785, -0.771428585, -0.176470593, 0.0500000007
    786, -0.771428585, -0.117647059, 0.0500000007
    787, -0.771428585, -0.0588235296, 0.0500000007
    788, -0.771428585,           0., 0.0500000007
    789, -0.771428585, 0.0588235296, 0.0500000007
    790, -0.771428585,  0.117647059, 0.0500000007
    791, -0.771428585,  0.176470593, 0.0500000007
    792, -0.771428585,  0.235294119, 0.0500000007
    793, -0.771428585,  0.294117659, 0.0500000007
    794, -0.771428585,  0.352941185, 0.0500000007
    795, -0.771428585,  0.411764711, 0.0500000007
    796, -0.771428585,  0.470588237, 0.0500000007
    797, -0.771428585,  0.529411793, 0.0500000007
    798, -0.771428585,  0.588235319, 0.0500000007
    799, -0.771428585,  0.647058845, 0.0500000007
    800, -0.771428585,   0.70588237, 0.0500000007
    801, -0.771428585,  0.764705896, 0.0500000007
    802, -0.771428585,  0.823529422, 0.0500000007
    803, -0.771428585,  0.882352948, 0.0500000007
    804, -0.771428585,  0.941176474, 0.0500000007
    805, -0.771428585,           1., 0.0500000007
    806, -0.771428585,          -1., 0.0250000004
    807, -0.771428585, -0.941176474, 0.0250000004
    808, -0.771428585, -0.882352948, 0.0250000004
    809, -0.771428585, -0.823529422, 0.0250000004
    810, -0.771428585, -0.764705896, 0.0250000004
    811, -0.771428585,  -0.70588237, 0.0250000004
    812, -0.771428585, -0.647058845, 0.0250000004
    813, -0.771428585, -0.588235319, 0.0250000004
    814, -0.771428585, -0.529411793, 0.0250000004
    815, -0.771428585, -0.470588237, 0.0250000004
    816, -0.771428585, -0.411764711, 0.0250000004
    817, -0.771428585, -0.352941185, 0.0250000004
    818, -0.771428585, -0.294117659, 0.0250000004
    819, -0.771428585, -0.235294119, 0.0250000004
    820, -0.771428585, -0.176470593, 0.0250000004
    821, -0.771428585, -0.117647059, 0.0250000004
    822, -0.771428585, -0.0588235296, 0.0250000004
    823, -0.771428585,           0., 0.0250000004
    824, -0.771428585, 0.0588235296, 0.0250000004
    825, -0.771428585,  0.117647059, 0.0250000004
    826, -0.771428585,  0.176470593, 0.0250000004
    827, -0.771428585,  0.235294119, 0.0250000004
    828, -0.771428585,  0.294117659, 0.0250000004
    829, -0.771428585,  0.352941185, 0.0250000004
    830, -0.771428585,  0.411764711, 0.0250000004
    831, -0.771428585,  0.470588237, 0.0250000004
    832, -0.771428585,  0.529411793, 0.0250000004
    833, -0.771428585,  0.588235319, 0.0250000004
    834, -0.771428585,  0.647058845, 0.0250000004
    835, -0.771428585,   0.70588237, 0.0250000004
    836, -0.771428585,  0.764705896, 0.0250000004
    837, -0.771428585,  0.823529422, 0.0250000004
    838, -0.771428585,  0.882352948, 0.0250000004
    839, -0.771428585,  0.941176474, 0.0250000004
    840, -0.771428585,           1., 0.0250000004
    841, -0.771428585,          -1.,           0.
    842, -0.771428585, -0.941176474,           0.
    843, -0.771428585, -0.882352948,           0.
    844, -0.771428585, -0.823529422,           0.
    845, -0.771428585, -0.764705896,           0.
    846, -0.771428585,  -0.70588237,           0.
    847, -0.771428585, -0.647058845,           0.
    848, -0.771428585, -0.588235319,           0.
    849, -0.771428585, -0.529411793,           0.
    850, -0.771428585, -0.470588237,           0.
    851, -0.771428585, -0.411764711,           0.
    852, -0.771428585, -0.352941185,           0.
    853, -0.771428585, -0.294117659,           0.
    854, -0.771428585, -0.235294119,           0.
    855, -0.771428585, -0.176470593,           0.
    856, -0.771428585, -0.117647059,           0.
    857, -0.771428585, -0.0588235296,           0.
    858, -0.771428585,           0.,           0.
    859, -0.771428585, 0.0588235296,           0.
    860, -0.771428585,  0.117647059,           0.
    861, -0.771428585,  0.176470593,           0.
    862, -0.771428585,  0.235294119,           0.
    863, -0.771428585,  0.294117659,           0.
    864, -0.771428585,  0.352941185,           0.
    865, -0.771428585,  0.411764711,           0.
    866, -0.771428585,  0.470588237,           0.
    867, -0.771428585,  0.529411793,           0.
    868, -0.771428585,  0.588235319,           0.
    869, -0.771428585,  0.647058845,           0.
    870, -0.771428585,   0.70588237,           0.
    871, -0.771428585,  0.764705896,           0.
    872, -0.771428585,  0.823529422,           0.
    873, -0.771428585,  0.882352948,           0.
    874, -0.771428585,  0.941176474,           0.
    875, -0.771428585,           1.,           0.
    876, -0.714285731,          -1.,  0.100000001
    877, -0.714285731, -0.941176474,  0.100000001
    878, -0.714285731, -0.882352948,  0.100000001
    879, -0.714285731, -0.823529422,  0.100000001
    880, -0.714285731, -0.764705896,  0.100000001
    881, -0.714285731,  -0.70588237,  0.100000001
    882, -0.714285731, -0.647058845,  0.100000001
    883, -0.714285731, -0.588235319,  0.100000001
    884, -0.714285731, -0.529411793,  0.100000001
    885, -0.714285731, -0.470588237,  0.100000001
    886, -0.714285731, -0.411764711,  0.100000001
    887, -0.714285731, -0.352941185,  0.100000001
    888, -0.714285731, -0.294117659,  0.100000001
    889, -0.714285731, -0.235294119,  0.100000001
    890, -0.714285731, -0.176470593,  0.100000001
    891, -0.714285731, -0.117647059,  0.100000001
    892, -0.714285731, -0.0588235296,  0.100000001
    893, -0.714285731,           0.,  0.100000001
    894, -0.714285731, 0.0588235296,  0.100000001
    895, -0.714285731,  0.117647059,  0.100000001
    896, -0.714285731,  0.176470593,  0.100000001
    897, -0.714285731,  0.235294119,  0.100000001
    898, -0.714285731,  0.294117659,  0.100000001
    899, -0.714285731,  0.352941185,  0.100000001
    900, -0.714285731,  0.411764711,  0.100000001
    901, -0.714285731,  0.470588237,  0.100000001
    902, -0.714285731,  0.529411793,  0.100000001
    903, -0.714285731,  0.588235319,  0.100000001
    904, -0.714285731,  0.647058845,  0.100000001
    905, -0.714285731,   0.70588237,  0.100000001
    906, -0.714285731,  0.764705896,  0.100000001
    907, -0.714285731,  0.823529422,  0.100000001
    908, -0.714285731,  0.882352948,  0.100000001
    909, -0.714285731,  0.941176474,  0.100000001
    910, -0.714285731,           1.,  0.100000001
    911, -0.714285731,          -1.,  0.075000003
    912, -0.714285731, -0.941176474,  0.075000003
    913, -0.714285731, -0.882352948,  0.075000003
    914, -0.714285731, -0.823529422,  0.075000003
    915, -0.714285731, -0.764705896,  0.075000003
    916, -0.714285731,  -0.70588237,  0.075000003
    917, -0.714285731, -0.647058845,  0.075000003
    918, -0.714285731, -0.588235319,  0.075000003
    919, -0.714285731, -0.529411793,  0.075000003
    920, -0.714285731, -0.470588237,  0.075000003
    921, -0.714285731, -0.411764711,  0.075000003
    922, -0.714285731, -0.352941185,  0.075000003
    923, -0.714285731, -0.294117659,  0.075000003
    924, -0.714285731, -0.235294119,  0.075000003
    925, -0.714285731, -0.176470593,  0.075000003
    926, -0.714285731, -0.117647059,  0.075000003
    927, -0.714285731, -0.0588235296,  0.075000003
    928, -0.714285731,           0.,  0.075000003
    929, -0.714285731, 0.0588235296,  0.075000003
    930, -0.714285731,  0.117647059,  0.075000003
    931, -0.714285731,  0.176470593,  0.075000003
    932, -0.714285731,  0.235294119,  0.075000003
    933, -0.714285731,  0.294117659,  0.075000003
    934, -0.714285731,  0.352941185,  0.075000003
    935, -0.714285731,  0.411764711,  0.075000003
    936, -0.714285731,  0.470588237,  0.075000003
    937, -0.714285731,  0.529411793,  0.075000003
    938, -0.714285731,  0.588235319,  0.075000003
    939, -0.714285731,  0.647058845,  0.075000003
    940, -0.714285731,   0.70588237,  0.075000003
    941, -0.714285731,  0.764705896,  0.075000003
    942, -0.714285731,  0.823529422,  0.075000003
    943, -0.714285731,  0.882352948,  0.075000003
    944, -0.714285731,  0.941176474,  0.075000003
    945, -0.714285731,           1.,  0.075000003
    946, -0.714285731,          -1., 0.0500000007
    947, -0.714285731, -0.941176474, 0.0500000007
    948, -0.714285731, -0.882352948, 0.0500000007
    949, -0.714285731, -0.823529422, 0.0500000007
    950, -0.714285731, -0.764705896, 0.0500000007
    951, -0.714285731,  -0.70588237, 0.0500000007
    952, -0.714285731, -0.647058845, 0.0500000007
    953, -0.714285731, -0.588235319, 0.0500000007
    954, -0.714285731, -0.529411793, 0.0500000007
    955, -0.714285731, -0.470588237, 0.0500000007
    956, -0.714285731, -0.411764711, 0.0500000007
    957, -0.714285731, -0.352941185, 0.0500000007
    958, -0.714285731, -0.294117659, 0.0500000007
    959, -0.714285731, -0.235294119, 0.0500000007
    960, -0.714285731, -0.176470593, 0.0500000007
    961, -0.714285731, -0.117647059, 0.0500000007
    962, -0.714285731, -0.0588235296, 0.0500000007
    963, -0.714285731,           0., 0.0500000007
    964, -0.714285731, 0.0588235296, 0.0500000007
    965, -0.714285731,  0.117647059, 0.0500000007
    966, -0.714285731,  0.176470593, 0.0500000007
    967, -0.714285731,  0.235294119, 0.0500000007
    968, -0.714285731,  0.294117659, 0.0500000007
    969, -0.714285731,  0.352941185, 0.0500000007
    970, -0.714285731,  0.411764711, 0.0500000007
    971, -0.714285731,  0.470588237, 0.0500000007
    972, -0.714285731,  0.529411793, 0.0500000007
    973, -0.714285731,  0.588235319, 0.0500000007
    974, -0.714285731,  0.647058845, 0.0500000007
    975, -0.714285731,   0.70588237, 0.0500000007
    976, -0.714285731,  0.764705896, 0.0500000007
    977, -0.714285731,  0.823529422, 0.0500000007
    978, -0.714285731,  0.882352948, 0.0500000007
    979, -0.714285731,  0.941176474, 0.0500000007
    980, -0.714285731,           1., 0.0500000007
    981, -0.714285731,          -1., 0.0250000004
    982, -0.714285731, -0.941176474, 0.0250000004
    983, -0.714285731, -0.882352948, 0.0250000004
    984, -0.714285731, -0.823529422, 0.0250000004
    985, -0.714285731, -0.764705896, 0.0250000004
    986, -0.714285731,  -0.70588237, 0.0250000004
    987, -0.714285731, -0.647058845, 0.0250000004
    988, -0.714285731, -0.588235319, 0.0250000004
    989, -0.714285731, -0.529411793, 0.0250000004
    990, -0.714285731, -0.470588237, 0.0250000004
    991, -0.714285731, -0.411764711, 0.0250000004
    992, -0.714285731, -0.352941185, 0.0250000004
    993, -0.714285731, -0.294117659, 0.0250000004
    994, -0.714285731, -0.235294119, 0.0250000004
    995, -0.714285731, -0.176470593, 0.0250000004
    996, -0.714285731, -0.117647059, 0.0250000004
    997, -0.714285731, -0.0588235296, 0.0250000004
    998, -0.714285731,           0., 0.0250000004
    999, -0.714285731, 0.0588235296, 0.0250000004
   1000, -0.714285731,  0.117647059, 0.0250000004
   1001, -0.714285731,  0.176470593, 0.0250000004
   1002, -0.714285731,  0.235294119, 0.0250000004
   1003, -0.714285731,  0.294117659, 0.0250000004
   1004, -0.714285731,  0.352941185, 0.0250000004
   1005, -0.714285731,  0.411764711, 0.0250000004
   1006, -0.714285731,  0.470588237, 0.0250000004
   1007, -0.714285731,  0.529411793, 0.0250000004
   1008, -0.714285731,  0.588235319, 0.0250000004
   1009, -0.714285731,  0.647058845, 0.0250000004
   1010, -0.714285731,   0.70588237, 0.0250000004
   1011, -0.714285731,  0.764705896, 0.0250000004
   1012, -0.714285731,  0.823529422, 0.0250000004
   1013, -0.714285731,  0.882352948, 0.0250000004
   1014, -0.714285731,  0.941176474, 0.0250000004
   1015, -0.714285731,           1., 0.0250000004
   1016, -0.714285731,          -1.,           0.
   1017, -0.714285731, -0.941176474,           0.
   1018, -0.714285731, -0.882352948,           0.
   1019, -0.714285731, -0.823529422,           0.
   1020, -0.714285731, -0.764705896,           0.
   1021, -0.714285731,  -0.70588237,           0.
   1022, -0.714285731, -0.647058845,           0.
   1023, -0.714285731, -0.588235319,           0.
   1024, -0.714285731, -0.529411793,           0.
   1025, -0.714285731, -0.470588237,           0.
   1026, -0.714285731, -0.411764711,           0.
   1027, -0.714285731, -0.352941185,           0.
   1028, -0.714285731, -0.294117659,           0.
   1029, -0.714285731, -0.235294119,           0.
   1030, -0.714285731, -0.176470593,           0.
   1031, -0.714285731, -0.117647059,           0.
   1032, -0.714285731, -0.0588235296,           0.
   1033, -0.714285731,           0.,           0.
   1034, -0.714285731, 0.0588235296,           0.
   1035, -0.714285731,  0.117647059,           0.
   1036, -0.714285731,  0.176470593,           0.
   1037, -0.714285731,  0.235294119,           0.
   1038, -0.714285731,  0.294117659,           0.
   1039, -0.714285731,  0.352941185,           0.
   1040, -0.714285731,  0.411764711,           0.
   1041, -0.714285731,  0.470588237,           0.
   1042, -0.714285731,  0.529411793,           0.
   1043, -0.714285731,  0.588235319,           0.
   1044, -0.714285731,  0.647058845,           0.
   1045, -0.714285731,   0.70588237,           0.
   1046, -0.714285731,  0.764705896,           0.
   1047, -0.714285731,  0.823529422,           0.
   1048, -0.714285731,  0.882352948,           0.
   1049, -0.714285731,  0.941176474,           0.
   1050, -0.714285731,           1.,           0.
   1051, -0.657142878,          -1.,  0.100000001
   1052, -0.657142878, -0.941176474,  0.100000001
   1053, -0.657142878, -0.882352948,  0.100000001
   1054, -0.657142878, -0.823529422,  0.100000001
   1055, -0.657142878, -0.764705896,  0.100000001
   1056, -0.657142878,  -0.70588237,  0.100000001
   1057, -0.657142878, -0.647058845,  0.100000001
   1058, -0.657142878, -0.588235319,  0.100000001
   1059, -0.657142878, -0.529411793,  0.100000001
   1060, -0.657142878, -0.470588237,  0.100000001
   1061, -0.657142878, -0.411764711,  0.100000001
   1062, -0.657142878, -0.352941185,  0.100000001
   1063, -0.657142878, -0.294117659,  0.100000001
   1064, -0.657142878, -0.235294119,  0.100000001
   1065, -0.657142878, -0.176470593,  0.100000001
   1066, -0.657142878, -0.117647059,  0.100000001
   1067, -0.657142878, -0.0588235296,  0.100000001
   1068, -0.657142878,           0.,  0.100000001
   1069, -0.657142878, 0.0588235296,  0.100000001
   1070, -0.657142878,  0.117647059,  0.100000001
   1071, -0.657142878,  0.176470593,  0.100000001
   1072, -0.657142878,  0.235294119,  0.100000001
   1073, -0.657142878,  0.294117659,  0.100000001
   1074, -0.657142878,  0.352941185,  0.100000001
   1075, -0.657142878,  0.411764711,  0.100000001
   1076, -0.657142878,  0.470588237,  0.100000001
   1077, -0.657142878,  0.529411793,  0.100000001
   1078, -0.657142878,  0.588235319,  0.100000001
   1079, -0.657142878,  0.647058845,  0.100000001
   1080, -0.657142878,   0.70588237,  0.100000001
   1081, -0.657142878,  0.764705896,  0.100000001
   1082, -0.657142878,  0.823529422,  0.100000001
   1083, -0.657142878,  0.882352948,  0.100000001
   1084, -0.657142878,  0.941176474,  0.100000001
   1085, -0.657142878,           1.,  0.100000001
   1086, -0.657142878,          -1.,  0.075000003
   1087, -0.657142878, -0.941176474,  0.075000003
   1088, -0.657142878, -0.882352948,  0.075000003
   1089, -0.657142878, -0.823529422,  0.075000003
   1090, -0.657142878, -0.764705896,  0.075000003
   1091, -0.657142878,  -0.70588237,  0.075000003
   1092, -0.657142878, -0.647058845,  0.075000003
   1093, -0.657142878, -0.588235319,  0.075000003
   1094, -0.657142878, -0.529411793,  0.075000003
   1095, -0.657142878, -0.470588237,  0.075000003
   1096, -0.657142878, -0.411764711,  0.075000003
   1097, -0.657142878, -0.352941185,  0.075000003
   1098, -0.657142878, -0.294117659,  0.075000003
   1099, -0.657142878, -0.235294119,  0.075000003
   1100, -0.657142878, -0.176470593,  0.075000003
   1101, -0.657142878, -0.117647059,  0.075000003
   1102, -0.657142878, -0.0588235296,  0.075000003
   1103, -0.657142878,           0.,  0.075000003
   1104, -0.657142878, 0.0588235296,  0.075000003
   1105, -0.657142878,  0.117647059,  0.075000003
   1106, -0.657142878,  0.176470593,  0.075000003
   1107, -0.657142878,  0.235294119,  0.075000003
   1108, -0.657142878,  0.294117659,  0.075000003
   1109, -0.657142878,  0.352941185,  0.075000003
   1110, -0.657142878,  0.411764711,  0.075000003
   1111, -0.657142878,  0.470588237,  0.075000003
   1112, -0.657142878,  0.529411793,  0.075000003
   1113, -0.657142878,  0.588235319,  0.075000003
   1114, -0.657142878,  0.647058845,  0.075000003
   1115, -0.657142878,   0.70588237,  0.075000003
   1116, -0.657142878,  0.764705896,  0.075000003
   1117, -0.657142878,  0.823529422,  0.075000003
   1118, -0.657142878,  0.882352948,  0.075000003
   1119, -0.657142878,  0.941176474,  0.075000003
   1120, -0.657142878,           1.,  0.075000003
   1121, -0.657142878,          -1., 0.0500000007
   1122, -0.657142878, -0.941176474, 0.0500000007
   1123, -0.657142878, -0.882352948, 0.0500000007
   1124, -0.657142878, -0.823529422, 0.0500000007
   1125, -0.657142878, -0.764705896, 0.0500000007
   1126, -0.657142878,  -0.70588237, 0.0500000007
   1127, -0.657142878, -0.647058845, 0.0500000007
   1128, -0.657142878, -0.588235319, 0.0500000007
   1129, -0.657142878, -0.529411793, 0.0500000007
   1130, -0.657142878, -0.470588237, 0.0500000007
   1131, -0.657142878, -0.411764711, 0.0500000007
   1132, -0.657142878, -0.352941185, 0.0500000007
   1133, -0.657142878, -0.294117659, 0.0500000007
   1134, -0.657142878, -0.235294119, 0.0500000007
   1135, -0.657142878, -0.176470593, 0.0500000007
   1136, -0.657142878, -0.117647059, 0.0500000007
   1137, -0.657142878, -0.0588235296, 0.0500000007
   1138, -0.657142878,           0., 0.0500000007
   1139, -0.657142878, 0.0588235296, 0.0500000007
   1140, -0.657142878,  0.117647059, 0.0500000007
   1141, -0.657142878,  0.176470593, 0.0500000007
   1142, -0.657142878,  0.235294119, 0.0500000007
   1143, -0.657142878,  0.294117659, 0.0500000007
   1144, -0.657142878,  0.352941185, 0.0500000007
   1145, -0.657142878,  0.411764711, 0.0500000007
   1146, -0.657142878,  0.470588237, 0.0500000007
   1147, -0.657142878,  0.529411793, 0.0500000007
   1148, -0.657142878,  0.588235319, 0.0500000007
   1149, -0.657142878,  0.647058845, 0.0500000007
   1150, -0.657142878,   0.70588237, 0.0500000007
   1151, -0.657142878,  0.764705896, 0.0500000007
   1152, -0.657142878,  0.823529422, 0.0500000007
   1153, -0.657142878,  0.882352948, 0.0500000007
   1154, -0.657142878,  0.941176474, 0.0500000007
   1155, -0.657142878,           1., 0.0500000007
   1156, -0.657142878,          -1., 0.0250000004
   1157, -0.657142878, -0.941176474, 0.0250000004
   1158, -0.657142878, -0.882352948, 0.0250000004
   1159, -0.657142878, -0.823529422, 0.0250000004
   1160, -0.657142878, -0.764705896, 0.0250000004
   1161, -0.657142878,  -0.70588237, 0.0250000004
   1162, -0.657142878, -0.647058845, 0.0250000004
   1163, -0.657142878, -0.588235319, 0.0250000004
   1164, -0.657142878, -0.529411793, 0.0250000004
   1165, -0.657142878, -0.470588237, 0.0250000004
   1166, -0.657142878, -0.411764711, 0.0250000004
   1167, -0.657142878, -0.352941185, 0.0250000004
   1168, -0.657142878, -0.294117659, 0.0250000004
   1169, -0.657142878, -0.235294119, 0.0250000004
   1170, -0.657142878, -0.176470593, 0.0250000004
   1171, -0.657142878, -0.117647059, 0.0250000004
   1172, -0.657142878, -0.0588235296, 0.0250000004
   1173, -0.657142878,           0., 0.0250000004
   1174, -0.657142878, 0.0588235296, 0.0250000004
   1175, -0.657142878,  0.117647059, 0.0250000004
   1176, -0.657142878,  0.176470593, 0.0250000004
   1177, -0.657142878,  0.235294119, 0.0250000004
   1178, -0.657142878,  0.294117659, 0.0250000004
   1179, -0.657142878,  0.352941185, 0.0250000004
   1180, -0.657142878,  0.411764711, 0.0250000004
   1181, -0.657142878,  0.470588237, 0.0250000004
   1182, -0.657142878,  0.529411793, 0.0250000004
   1183, -0.657142878,  0.588235319, 0.0250000004
   1184, -0.657142878,  0.647058845, 0.0250000004
   1185, -0.657142878,   0.70588237, 0.0250000004
   1186, -0.657142878,  0.764705896, 0.0250000004
   1187, -0.657142878,  0.823529422, 0.0250000004
   1188, -0.657142878,  0.882352948, 0.0250000004
   1189, -0.657142878,  0.941176474, 0.0250000004
   1190, -0.657142878,           1., 0.0250000004
   1191, -0.657142878,          -1.,           0.
   1192, -0.657142878, -0.941176474,           0.
   1193, -0.657142878, -0.882352948,           0.
   1194, -0.657142878, -0.823529422,           0.
   1195, -0.657142878, -0.764705896,           0.
   1196, -0.657142878,  -0.70588237,           0.
   1197, -0.657142878, -0.647058845,           0.
   1198, -0.657142878, -0.588235319,           0.
   1199, -0.657142878, -0.529411793,           0.
   1200, -0.657142878, -0.470588237,           0.
   1201, -0.657142878, -0.411764711,           0.
   1202, -0.657142878, -0.352941185,           0.
   1203, -0.657142878, -0.294117659,           0.
   1204, -0.657142878, -0.235294119,           0.
   1205, -0.657142878, -0.176470593,           0.
   1206, -0.657142878, -0.117647059,           0.
   1207, -0.657142878, -0.0588235296,           0.
   1208, -0.657142878,           0.,           0.
   1209, -0.657142878, 0.0588235296,           0.
   1210, -0.657142878,  0.117647059,           0.
   1211, -0.657142878,  0.176470593,           0.
   1212, -0.657142878,  0.235294119,           0.
   1213, -0.657142878,  0.294117659,           0.
   1214, -0.657142878,  0.352941185,           0.
   1215, -0.657142878,  0.411764711,           0.
   1216, -0.657142878,  0.470588237,           0.
   1217, -0.657142878,  0.529411793,           0.
   1218, -0.657142878,  0.588235319,           0.
   1219, -0.657142878,  0.647058845,           0.
   1220, -0.657142878,   0.70588237,           0.
   1221, -0.657142878,  0.764705896,           0.
   1222, -0.657142878,  0.823529422,           0.
   1223, -0.657142878,  0.882352948,           0.
   1224, -0.657142878,  0.941176474,           0.
   1225, -0.657142878,           1.,           0.
   1226, -0.600000024,          -1.,  0.100000001
   1227, -0.600000024, -0.941176474,  0.100000001
   1228, -0.600000024, -0.882352948,  0.100000001
   1229, -0.600000024, -0.823529422,  0.100000001
   1230, -0.600000024, -0.764705896,  0.100000001
   1231, -0.600000024,  -0.70588237,  0.100000001
   1232, -0.600000024, -0.647058845,  0.100000001
   1233, -0.600000024, -0.588235319,  0.100000001
   1234, -0.600000024, -0.529411793,  0.100000001
   1235, -0.600000024, -0.470588237,  0.100000001
   1236, -0.600000024, -0.411764711,  0.100000001
   1237, -0.600000024, -0.352941185,  0.100000001
   1238, -0.600000024, -0.294117659,  0.100000001
   1239, -0.600000024, -0.235294119,  0.100000001
   1240, -0.600000024, -0.176470593,  0.100000001
   1241, -0.600000024, -0.117647059,  0.100000001
   1242, -0.600000024, -0.0588235296,  0.100000001
   1243, -0.600000024,           0.,  0.100000001
   1244, -0.600000024, 0.0588235296,  0.100000001
   1245, -0.600000024,  0.117647059,  0.100000001
   1246, -0.600000024,  0.176470593,  0.100000001
   1247, -0.600000024,  0.235294119,  0.100000001
   1248, -0.600000024,  0.294117659,  0.100000001
   1249, -0.600000024,  0.352941185,  0.100000001
   1250, -0.600000024,  0.411764711,  0.100000001
   1251, -0.600000024,  0.470588237,  0.100000001
   1252, -0.600000024,  0.529411793,  0.100000001
   1253, -0.600000024,  0.588235319,  0.100000001
   1254, -0.600000024,  0.647058845,  0.100000001
   1255, -0.600000024,   0.70588237,  0.100000001
   1256, -0.600000024,  0.764705896,  0.100000001
   1257, -0.600000024,  0.823529422,  0.100000001
   1258, -0.600000024,  0.882352948,  0.100000001
   1259, -0.600000024,  0.941176474,  0.100000001
   1260, -0.600000024,           1.,  0.100000001
   1261, -0.600000024,          -1.,  0.075000003
   1262, -0.600000024, -0.941176474,  0.075000003
   1263, -0.600000024, -0.882352948,  0.075000003
   1264, -0.600000024, -0.823529422,  0.075000003
   1265, -0.600000024, -0.764705896,  0.075000003
   1266, -0.600000024,  -0.70588237,  0.075000003
   1267, -0.600000024, -0.647058845,  0.075000003
   1268, -0.600000024, -0.588235319,  0.075000003
   1269, -0.600000024, -0.529411793,  0.075000003
   1270, -0.600000024, -0.470588237,  0.075000003
   1271, -0.600000024, -0.411764711,  0.075000003
   1272, -0.600000024, -0.352941185,  0.075000003
   1273, -0.600000024, -0.294117659,  0.075000003
   1274, -0.600000024, -0.235294119,  0.075000003
   1275, -0.600000024, -0.176470593,  0.075000003
   1276, -0.600000024, -0.117647059,  0.075000003
   1277, -0.600000024, -0.0588235296,  0.075000003
   1278, -0.600000024,           0.,  0.075000003
   1279, -0.600000024, 0.0588235296,  0.075000003
   1280, -0.600000024,  0.117647059,  0.075000003
   1281, -0.600000024,  0.176470593,  0.075000003
   1282, -0.600000024,  0.235294119,  0.075000003
   1283, -0.600000024,  0.294117659,  0.075000003
   1284, -0.600000024,  0.352941185,  0.075000003
   1285, -0.600000024,  0.411764711,  0.075000003
   1286, -0.600000024,  0.470588237,  0.075000003
   1287, -0.600000024,  0.529411793,  0.075000003
   1288, -0.600000024,  0.588235319,  0.075000003
   1289, -0.600000024,  0.647058845,  0.075000003
   1290, -0.600000024,   0.70588237,  0.075000003
   1291, -0.600000024,  0.764705896,  0.075000003
   1292, -0.600000024,  0.823529422,  0.075000003
   1293, -0.600000024,  0.882352948,  0.075000003
   1294, -0.600000024,  0.941176474,  0.075000003
   1295, -0.600000024,           1.,  0.075000003
   1296, -0.600000024,          -1., 0.0500000007
   1297, -0.600000024, -0.941176474, 0.0500000007
   1298, -0.600000024, -0.882352948, 0.0500000007
   1299, -0.600000024, -0.823529422, 0.0500000007
   1300, -0.600000024, -0.764705896, 0.0500000007
   1301, -0.600000024,  -0.70588237, 0.0500000007
   1302, -0.600000024, -0.647058845, 0.0500000007
   1303, -0.600000024, -0.588235319, 0.0500000007
   1304, -0.600000024, -0.529411793, 0.0500000007
   1305, -0.600000024, -0.470588237, 0.0500000007
   1306, -0.600000024, -0.411764711, 0.0500000007
   1307, -0.600000024, -0.352941185, 0.0500000007
   1308, -0.600000024, -0.294117659, 0.0500000007
   1309, -0.600000024, -0.235294119, 0.0500000007
   1310, -0.600000024, -0.176470593, 0.0500000007
   1311, -0.600000024, -0.117647059, 0.0500000007
   1312, -0.600000024, -0.0588235296, 0.0500000007
   1313, -0.600000024,           0., 0.0500000007
   1314, -0.600000024, 0.0588235296, 0.0500000007
   1315, -0.600000024,  0.117647059, 0.0500000007
   1316, -0.600000024,  0.176470593, 0.0500000007
   1317, -0.600000024,  0.235294119, 0.0500000007
   1318, -0.600000024,  0.294117659, 0.0500000007
   1319, -0.600000024,  0.352941185, 0.0500000007
   1320, -0.600000024,  0.411764711, 0.0500000007
   1321, -0.600000024,  0.470588237, 0.0500000007
   1322, -0.600000024,  0.529411793, 0.0500000007
   1323, -0.600000024,  0.588235319, 0.0500000007
   1324, -0.600000024,  0.647058845, 0.0500000007
   1325, -0.600000024,   0.70588237, 0.0500000007
   1326, -0.600000024,  0.764705896, 0.0500000007
   1327, -0.600000024,  0.823529422, 0.0500000007
   1328, -0.600000024,  0.882352948, 0.0500000007
   1329, -0.600000024,  0.941176474, 0.0500000007
   1330, -0.600000024,           1., 0.0500000007
   1331, -0.600000024,          -1., 0.0250000004
   1332, -0.600000024, -0.941176474, 0.0250000004
   1333, -0.600000024, -0.882352948, 0.0250000004
   1334, -0.600000024, -0.823529422, 0.0250000004
   1335, -0.600000024, -0.764705896, 0.0250000004
   1336, -0.600000024,  -0.70588237, 0.0250000004
   1337, -0.600000024, -0.647058845, 0.0250000004
   1338, -0.600000024, -0.588235319, 0.0250000004
   1339, -0.600000024, -0.529411793, 0.0250000004
   1340, -0.600000024, -0.470588237, 0.0250000004
   1341, -0.600000024, -0.411764711, 0.0250000004
   1342, -0.600000024, -0.352941185, 0.0250000004
   1343, -0.600000024, -0.294117659, 0.0250000004
   1344, -0.600000024, -0.235294119, 0.0250000004
   1345, -0.600000024, -0.176470593, 0.0250000004
   1346, -0.600000024, -0.117647059, 0.0250000004
   1347, -0.600000024, -0.0588235296, 0.0250000004
   1348, -0.600000024,           0., 0.0250000004
   1349, -0.600000024, 0.0588235296, 0.0250000004
   1350, -0.600000024,  0.117647059, 0.0250000004
   1351, -0.600000024,  0.176470593, 0.0250000004
   1352, -0.600000024,  0.235294119, 0.0250000004
   1353, -0.600000024,  0.294117659, 0.0250000004
   1354, -0.600000024,  0.352941185, 0.0250000004
   1355, -0.600000024,  0.411764711, 0.0250000004
   1356, -0.600000024,  0.470588237, 0.0250000004
   1357, -0.600000024,  0.529411793, 0.0250000004
   1358, -0.600000024,  0.588235319, 0.0250000004
   1359, -0.600000024,  0.647058845, 0.0250000004
   1360, -0.600000024,   0.70588237, 0.0250000004
   1361, -0.600000024,  0.764705896, 0.0250000004
   1362, -0.600000024,  0.823529422, 0.0250000004
   1363, -0.600000024,  0.882352948, 0.0250000004
   1364, -0.600000024,  0.941176474, 0.0250000004
   1365, -0.600000024,           1., 0.0250000004
   1366, -0.600000024,          -1.,           0.
   1367, -0.600000024, -0.941176474,           0.
   1368, -0.600000024, -0.882352948,           0.
   1369, -0.600000024, -0.823529422,           0.
   1370, -0.600000024, -0.764705896,           0.
   1371, -0.600000024,  -0.70588237,           0.
   1372, -0.600000024, -0.647058845,           0.
   1373, -0.600000024, -0.588235319,           0.
   1374, -0.600000024, -0.529411793,           0.
   1375, -0.600000024, -0.470588237,           0.
   1376, -0.600000024, -0.411764711,           0.
   1377, -0.600000024, -0.352941185,           0.
   1378, -0.600000024, -0.294117659,           0.
   1379, -0.600000024, -0.235294119,           0.
   1380, -0.600000024, -0.176470593,           0.
   1381, -0.600000024, -0.117647059,           0.
   1382, -0.600000024, -0.0588235296,           0.
   1383, -0.600000024,           0.,           0.
   1384, -0.600000024, 0.0588235296,           0.
   1385, -0.600000024,  0.117647059,           0.
   1386, -0.600000024,  0.176470593,           0.
   1387, -0.600000024,  0.235294119,           0.
   1388, -0.600000024,  0.294117659,           0.
   1389, -0.600000024,  0.352941185,           0.
   1390, -0.600000024,  0.411764711,           0.
   1391, -0.600000024,  0.470588237,           0.
   1392, -0.600000024,  0.529411793,           0.
   1393, -0.600000024,  0.588235319,           0.
   1394, -0.600000024,  0.647058845,           0.
   1395, -0.600000024,   0.70588237,           0.
   1396, -0.600000024,  0.764705896,           0.
   1397, -0.600000024,  0.823529422,           0.
   1398, -0.600000024,  0.882352948,           0.
   1399, -0.600000024,  0.941176474,           0.
   1400, -0.600000024,           1.,           0.
   1401,  -0.54285717,          -1.,  0.100000001
   1402,  -0.54285717, -0.941176474,  0.100000001
   1403,  -0.54285717, -0.882352948,  0.100000001
   1404,  -0.54285717, -0.823529422,  0.100000001
   1405,  -0.54285717, -0.764705896,  0.100000001
   1406,  -0.54285717,  -0.70588237,  0.100000001
   1407,  -0.54285717, -0.647058845,  0.100000001
   1408,  -0.54285717, -0.588235319,  0.100000001
   1409,  -0.54285717, -0.529411793,  0.100000001
   1410,  -0.54285717, -0.470588237,  0.100000001
   1411,  -0.54285717, -0.411764711,  0.100000001
   1412,  -0.54285717, -0.352941185,  0.100000001
   1413,  -0.54285717, -0.294117659,  0.100000001
   1414,  -0.54285717, -0.235294119,  0.100000001
   1415,  -0.54285717, -0.176470593,  0.100000001
   1416,  -0.54285717, -0.117647059,  0.100000001
   1417,  -0.54285717, -0.0588235296,  0.100000001
   1418,  -0.54285717,           0.,  0.100000001
   1419,  -0.54285717, 0.0588235296,  0.100000001
   1420,  -0.54285717,  0.117647059,  0.100000001
   1421,  -0.54285717,  0.176470593,  0.100000001
   1422,  -0.54285717,  0.235294119,  0.100000001
   1423,  -0.54285717,  0.294117659,  0.100000001
   1424,  -0.54285717,  0.352941185,  0.100000001
   1425,  -0.54285717,  0.411764711,  0.100000001
   1426,  -0.54285717,  0.470588237,  0.100000001
   1427,  -0.54285717,  0.529411793,  0.100000001
   1428,  -0.54285717,  0.588235319,  0.100000001
   1429,  -0.54285717,  0.647058845,  0.100000001
   1430,  -0.54285717,   0.70588237,  0.100000001
   1431,  -0.54285717,  0.764705896,  0.100000001
   1432,  -0.54285717,  0.823529422,  0.100000001
   1433,  -0.54285717,  0.882352948,  0.100000001
   1434,  -0.54285717,  0.941176474,  0.100000001
   1435,  -0.54285717,           1.,  0.100000001
   1436,  -0.54285717,          -1.,  0.075000003
   1437,  -0.54285717, -0.941176474,  0.075000003
   1438,  -0.54285717, -0.882352948,  0.075000003
   1439,  -0.54285717, -0.823529422,  0.075000003
   1440,  -0.54285717, -0.764705896,  0.075000003
   1441,  -0.54285717,  -0.70588237,  0.075000003
   1442,  -0.54285717, -0.647058845,  0.075000003
   1443,  -0.54285717, -0.588235319,  0.075000003
   1444,  -0.54285717, -0.529411793,  0.075000003
   1445,  -0.54285717, -0.470588237,  0.075000003
   1446,  -0.54285717, -0.411764711,  0.075000003
   1447,  -0.54285717, -0.352941185,  0.075000003
   1448,  -0.54285717, -0.294117659,  0.075000003
   1449,  -0.54285717, -0.235294119,  0.075000003
   1450,  -0.54285717, -0.176470593,  0.075000003
   1451,  -0.54285717, -0.117647059,  0.075000003
   1452,  -0.54285717, -0.0588235296,  0.075000003
   1453,  -0.54285717,           0.,  0.075000003
   1454,  -0.54285717, 0.0588235296,  0.075000003
   1455,  -0.54285717,  0.117647059,  0.075000003
   1456,  -0.54285717,  0.176470593,  0.075000003
   1457,  -0.54285717,  0.235294119,  0.075000003
   1458,  -0.54285717,  0.294117659,  0.075000003
   1459,  -0.54285717,  0.352941185,  0.075000003
   1460,  -0.54285717,  0.411764711,  0.075000003
   1461,  -0.54285717,  0.470588237,  0.075000003
   1462,  -0.54285717,  0.529411793,  0.075000003
   1463,  -0.54285717,  0.588235319,  0.075000003
   1464,  -0.54285717,  0.647058845,  0.075000003
   1465,  -0.54285717,   0.70588237,  0.075000003
   1466,  -0.54285717,  0.764705896,  0.075000003
   1467,  -0.54285717,  0.823529422,  0.075000003
   1468,  -0.54285717,  0.882352948,  0.075000003
   1469,  -0.54285717,  0.941176474,  0.075000003
   1470,  -0.54285717,           1.,  0.075000003
   1471,  -0.54285717,          -1., 0.0500000007
   1472,  -0.54285717, -0.941176474, 0.0500000007
   1473,  -0.54285717, -0.882352948, 0.0500000007
   1474,  -0.54285717, -0.823529422, 0.0500000007
   1475,  -0.54285717, -0.764705896, 0.0500000007
   1476,  -0.54285717,  -0.70588237, 0.0500000007
   1477,  -0.54285717, -0.647058845, 0.0500000007
   1478,  -0.54285717, -0.588235319, 0.0500000007
   1479,  -0.54285717, -0.529411793, 0.0500000007
   1480,  -0.54285717, -0.470588237, 0.0500000007
   1481,  -0.54285717, -0.411764711, 0.0500000007
   1482,  -0.54285717, -0.352941185, 0.0500000007
   1483,  -0.54285717, -0.294117659, 0.0500000007
   1484,  -0.54285717, -0.235294119, 0.0500000007
   1485,  -0.54285717, -0.176470593, 0.0500000007
   1486,  -0.54285717, -0.117647059, 0.0500000007
   1487,  -0.54285717, -0.0588235296, 0.0500000007
   1488,  -0.54285717,           0., 0.0500000007
   1489,  -0.54285717, 0.0588235296, 0.0500000007
   1490,  -0.54285717,  0.117647059, 0.0500000007
   1491,  -0.54285717,  0.176470593, 0.0500000007
   1492,  -0.54285717,  0.235294119, 0.0500000007
   1493,  -0.54285717,  0.294117659, 0.0500000007
   1494,  -0.54285717,  0.352941185, 0.0500000007
   1495,  -0.54285717,  0.411764711, 0.0500000007
   1496,  -0.54285717,  0.470588237, 0.0500000007
   1497,  -0.54285717,  0.529411793, 0.0500000007
   1498,  -0.54285717,  0.588235319, 0.0500000007
   1499,  -0.54285717,  0.647058845, 0.0500000007
   1500,  -0.54285717,   0.70588237, 0.0500000007
   1501,  -0.54285717,  0.764705896, 0.0500000007
   1502,  -0.54285717,  0.823529422, 0.0500000007
   1503,  -0.54285717,  0.882352948, 0.0500000007
   1504,  -0.54285717,  0.941176474, 0.0500000007
   1505,  -0.54285717,           1., 0.0500000007
   1506,  -0.54285717,          -1., 0.0250000004
   1507,  -0.54285717, -0.941176474, 0.0250000004
   1508,  -0.54285717, -0.882352948, 0.0250000004
   1509,  -0.54285717, -0.823529422, 0.0250000004
   1510,  -0.54285717, -0.764705896, 0.0250000004
   1511,  -0.54285717,  -0.70588237, 0.0250000004
   1512,  -0.54285717, -0.647058845, 0.0250000004
   1513,  -0.54285717, -0.588235319, 0.0250000004
   1514,  -0.54285717, -0.529411793, 0.0250000004
   1515,  -0.54285717, -0.470588237, 0.0250000004
   1516,  -0.54285717, -0.411764711, 0.0250000004
   1517,  -0.54285717, -0.352941185, 0.0250000004
   1518,  -0.54285717, -0.294117659, 0.0250000004
   1519,  -0.54285717, -0.235294119, 0.0250000004
   1520,  -0.54285717, -0.176470593, 0.0250000004
   1521,  -0.54285717, -0.117647059, 0.0250000004
   1522,  -0.54285717, -0.0588235296, 0.0250000004
   1523,  -0.54285717,           0., 0.0250000004
   1524,  -0.54285717, 0.0588235296, 0.0250000004
   1525,  -0.54285717,  0.117647059, 0.0250000004
   1526,  -0.54285717,  0.176470593, 0.0250000004
   1527,  -0.54285717,  0.235294119, 0.0250000004
   1528,  -0.54285717,  0.294117659, 0.0250000004
   1529,  -0.54285717,  0.352941185, 0.0250000004
   1530,  -0.54285717,  0.411764711, 0.0250000004
   1531,  -0.54285717,  0.470588237, 0.0250000004
   1532,  -0.54285717,  0.529411793, 0.0250000004
   1533,  -0.54285717,  0.588235319, 0.0250000004
   1534,  -0.54285717,  0.647058845, 0.0250000004
   1535,  -0.54285717,   0.70588237, 0.0250000004
   1536,  -0.54285717,  0.764705896, 0.0250000004
   1537,  -0.54285717,  0.823529422, 0.0250000004
   1538,  -0.54285717,  0.882352948, 0.0250000004
   1539,  -0.54285717,  0.941176474, 0.0250000004
   1540,  -0.54285717,           1., 0.0250000004
   1541,  -0.54285717,          -1.,           0.
   1542,  -0.54285717, -0.941176474,           0.
   1543,  -0.54285717, -0.882352948,           0.
   1544,  -0.54285717, -0.823529422,           0.
   1545,  -0.54285717, -0.764705896,           0.
   1546,  -0.54285717,  -0.70588237,           0.
   1547,  -0.54285717, -0.647058845,           0.
   1548,  -0.54285717, -0.588235319,           0.
   1549,  -0.54285717, -0.529411793,           0.
   1550,  -0.54285717, -0.470588237,           0.
   1551,  -0.54285717, -0.411764711,           0.
   1552,  -0.54285717, -0.352941185,           0.
   1553,  -0.54285717, -0.294117659,           0.
   1554,  -0.54285717, -0.235294119,           0.
   1555,  -0.54285717, -0.176470593,           0.
   1556,  -0.54285717, -0.117647059,           0.
   1557,  -0.54285717, -0.0588235296,           0.
   1558,  -0.54285717,           0.,           0.
   1559,  -0.54285717, 0.0588235296,           0.
   1560,  -0.54285717,  0.117647059,           0.
   1561,  -0.54285717,  0.176470593,           0.
   1562,  -0.54285717,  0.235294119,           0.
   1563,  -0.54285717,  0.294117659,           0.
   1564,  -0.54285717,  0.352941185,           0.
   1565,  -0.54285717,  0.411764711,           0.
   1566,  -0.54285717,  0.470588237,           0.
   1567,  -0.54285717,  0.529411793,           0.
   1568,  -0.54285717,  0.588235319,           0.
   1569,  -0.54285717,  0.647058845,           0.
   1570,  -0.54285717,   0.70588237,           0.
   1571,  -0.54285717,  0.764705896,           0.
   1572,  -0.54285717,  0.823529422,           0.
   1573,  -0.54285717,  0.882352948,           0.
   1574,  -0.54285717,  0.941176474,           0.
   1575,  -0.54285717,           1.,           0.
   1576, -0.485714287,          -1.,  0.100000001
   1577, -0.485714287, -0.941176474,  0.100000001
   1578, -0.485714287, -0.882352948,  0.100000001
   1579, -0.485714287, -0.823529422,  0.100000001
   1580, -0.485714287, -0.764705896,  0.100000001
   1581, -0.485714287,  -0.70588237,  0.100000001
   1582, -0.485714287, -0.647058845,  0.100000001
   1583, -0.485714287, -0.588235319,  0.100000001
   1584, -0.485714287, -0.529411793,  0.100000001
   1585, -0.485714287, -0.470588237,  0.100000001
   1586, -0.485714287, -0.411764711,  0.100000001
   1587, -0.485714287, -0.352941185,  0.100000001
   1588, -0.485714287, -0.294117659,  0.100000001
   1589, -0.485714287, -0.235294119,  0.100000001
   1590, -0.485714287, -0.176470593,  0.100000001
   1591, -0.485714287, -0.117647059,  0.100000001
   1592, -0.485714287, -0.0588235296,  0.100000001
   1593, -0.485714287,           0.,  0.100000001
   1594, -0.485714287, 0.0588235296,  0.100000001
   1595, -0.485714287,  0.117647059,  0.100000001
   1596, -0.485714287,  0.176470593,  0.100000001
   1597, -0.485714287,  0.235294119,  0.100000001
   1598, -0.485714287,  0.294117659,  0.100000001
   1599, -0.485714287,  0.352941185,  0.100000001
   1600, -0.485714287,  0.411764711,  0.100000001
   1601, -0.485714287,  0.470588237,  0.100000001
   1602, -0.485714287,  0.529411793,  0.100000001
   1603, -0.485714287,  0.588235319,  0.100000001
   1604, -0.485714287,  0.647058845,  0.100000001
   1605, -0.485714287,   0.70588237,  0.100000001
   1606, -0.485714287,  0.764705896,  0.100000001
   1607, -0.485714287,  0.823529422,  0.100000001
   1608, -0.485714287,  0.882352948,  0.100000001
   1609, -0.485714287,  0.941176474,  0.100000001
   1610, -0.485714287,           1.,  0.100000001
   1611, -0.485714287,          -1.,  0.075000003
   1612, -0.485714287, -0.941176474,  0.075000003
   1613, -0.485714287, -0.882352948,  0.075000003
   1614, -0.485714287, -0.823529422,  0.075000003
   1615, -0.485714287, -0.764705896,  0.075000003
   1616, -0.485714287,  -0.70588237,  0.075000003
   1617, -0.485714287, -0.647058845,  0.075000003
   1618, -0.485714287, -0.588235319,  0.075000003
   1619, -0.485714287, -0.529411793,  0.075000003
   1620, -0.485714287, -0.470588237,  0.075000003
   1621, -0.485714287, -0.411764711,  0.075000003
   1622, -0.485714287, -0.352941185,  0.075000003
   1623, -0.485714287, -0.294117659,  0.075000003
   1624, -0.485714287, -0.235294119,  0.075000003
   1625, -0.485714287, -0.176470593,  0.075000003
   1626, -0.485714287, -0.117647059,  0.075000003
   1627, -0.485714287, -0.0588235296,  0.075000003
   1628, -0.485714287,           0.,  0.075000003
   1629, -0.485714287, 0.0588235296,  0.075000003
   1630, -0.485714287,  0.117647059,  0.075000003
   1631, -0.485714287,  0.176470593,  0.075000003
   1632, -0.485714287,  0.235294119,  0.075000003
   1633, -0.485714287,  0.294117659,  0.075000003
   1634, -0.485714287,  0.352941185,  0.075000003
   1635, -0.485714287,  0.411764711,  0.075000003
   1636, -0.485714287,  0.470588237,  0.075000003
   1637, -0.485714287,  0.529411793,  0.075000003
   1638, -0.485714287,  0.588235319,  0.075000003
   1639, -0.485714287,  0.647058845,  0.075000003
   1640, -0.485714287,   0.70588237,  0.075000003
   1641, -0.485714287,  0.764705896,  0.075000003
   1642, -0.485714287,  0.823529422,  0.075000003
   1643, -0.485714287,  0.882352948,  0.075000003
   1644, -0.485714287,  0.941176474,  0.075000003
   1645, -0.485714287,           1.,  0.075000003
   1646, -0.485714287,          -1., 0.0500000007
   1647, -0.485714287, -0.941176474, 0.0500000007
   1648, -0.485714287, -0.882352948, 0.0500000007
   1649, -0.485714287, -0.823529422, 0.0500000007
   1650, -0.485714287, -0.764705896, 0.0500000007
   1651, -0.485714287,  -0.70588237, 0.0500000007
   1652, -0.485714287, -0.647058845, 0.0500000007
   1653, -0.485714287, -0.588235319, 0.0500000007
   1654, -0.485714287, -0.529411793, 0.0500000007
   1655, -0.485714287, -0.470588237, 0.0500000007
   1656, -0.485714287, -0.411764711, 0.0500000007
   1657, -0.485714287, -0.352941185, 0.0500000007
   1658, -0.485714287, -0.294117659, 0.0500000007
   1659, -0.485714287, -0.235294119, 0.0500000007
   1660, -0.485714287, -0.176470593, 0.0500000007
   1661, -0.485714287, -0.117647059, 0.0500000007
   1662, -0.485714287, -0.0588235296, 0.0500000007
   1663, -0.485714287,           0., 0.0500000007
   1664, -0.485714287, 0.0588235296, 0.0500000007
   1665, -0.485714287,  0.117647059, 0.0500000007
   1666, -0.485714287,  0.176470593, 0.0500000007
   1667, -0.485714287,  0.235294119, 0.0500000007
   1668, -0.485714287,  0.294117659, 0.0500000007
   1669, -0.485714287,  0.352941185, 0.0500000007
   1670, -0.485714287,  0.411764711, 0.0500000007
   1671, -0.485714287,  0.470588237, 0.0500000007
   1672, -0.485714287,  0.529411793, 0.0500000007
   1673, -0.485714287,  0.588235319, 0.0500000007
   1674, -0.485714287,  0.647058845, 0.0500000007
   1675, -0.485714287,   0.70588237, 0.0500000007
   1676, -0.485714287,  0.764705896, 0.0500000007
   1677, -0.485714287,  0.823529422, 0.0500000007
   1678, -0.485714287,  0.882352948, 0.0500000007
   1679, -0.485714287,  0.941176474, 0.0500000007
   1680, -0.485714287,           1., 0.0500000007
   1681, -0.485714287,          -1., 0.0250000004
   1682, -0.485714287, -0.941176474, 0.0250000004
   1683, -0.485714287, -0.882352948, 0.0250000004
   1684, -0.485714287, -0.823529422, 0.0250000004
   1685, -0.485714287, -0.764705896, 0.0250000004
   1686, -0.485714287,  -0.70588237, 0.0250000004
   1687, -0.485714287, -0.647058845, 0.0250000004
   1688, -0.485714287, -0.588235319, 0.0250000004
   1689, -0.485714287, -0.529411793, 0.0250000004
   1690, -0.485714287, -0.470588237, 0.0250000004
   1691, -0.485714287, -0.411764711, 0.0250000004
   1692, -0.485714287, -0.352941185, 0.0250000004
   1693, -0.485714287, -0.294117659, 0.0250000004
   1694, -0.485714287, -0.235294119, 0.0250000004
   1695, -0.485714287, -0.176470593, 0.0250000004
   1696, -0.485714287, -0.117647059, 0.0250000004
   1697, -0.485714287, -0.0588235296, 0.0250000004
   1698, -0.485714287,           0., 0.0250000004
   1699, -0.485714287, 0.0588235296, 0.0250000004
   1700, -0.485714287,  0.117647059, 0.0250000004
   1701, -0.485714287,  0.176470593, 0.0250000004
   1702, -0.485714287,  0.235294119, 0.0250000004
   1703, -0.485714287,  0.294117659, 0.0250000004
   1704, -0.485714287,  0.352941185, 0.0250000004
   1705, -0.485714287,  0.411764711, 0.0250000004
   1706, -0.485714287,  0.470588237, 0.0250000004
   1707, -0.485714287,  0.529411793, 0.0250000004
   1708, -0.485714287,  0.588235319, 0.0250000004
   1709, -0.485714287,  0.647058845, 0.0250000004
   1710, -0.485714287,   0.70588237, 0.0250000004
   1711, -0.485714287,  0.764705896, 0.0250000004
   1712, -0.485714287,  0.823529422, 0.0250000004
   1713, -0.485714287,  0.882352948, 0.0250000004
   1714, -0.485714287,  0.941176474, 0.0250000004
   1715, -0.485714287,           1., 0.0250000004
   1716, -0.485714287,          -1.,           0.
   1717, -0.485714287, -0.941176474,           0.
   1718, -0.485714287, -0.882352948,           0.
   1719, -0.485714287, -0.823529422,           0.
   1720, -0.485714287, -0.764705896,           0.
   1721, -0.485714287,  -0.70588237,           0.
   1722, -0.485714287, -0.647058845,           0.
   1723, -0.485714287, -0.588235319,           0.
   1724, -0.485714287, -0.529411793,           0.
   1725, -0.485714287, -0.470588237,           0.
   1726, -0.485714287, -0.411764711,           0.
   1727, -0.485714287, -0.352941185,           0.
   1728, -0.485714287, -0.294117659,           0.
   1729, -0.485714287, -0.235294119,           0.
   1730, -0.485714287, -0.176470593,           0.
   1731, -0.485714287, -0.117647059,           0.
   1732, -0.485714287, -0.0588235296,           0.
   1733, -0.485714287,           0.,           0.
   1734, -0.485714287, 0.0588235296,           0.
   1735, -0.485714287,  0.117647059,           0.
   1736, -0.485714287,  0.176470593,           0.
   1737, -0.485714287,  0.235294119,           0.
   1738, -0.485714287,  0.294117659,           0.
   1739, -0.485714287,  0.352941185,           0.
   1740, -0.485714287,  0.411764711,           0.
   1741, -0.485714287,  0.470588237,           0.
   1742, -0.485714287,  0.529411793,           0.
   1743, -0.485714287,  0.588235319,           0.
   1744, -0.485714287,  0.647058845,           0.
   1745, -0.485714287,   0.70588237,           0.
   1746, -0.485714287,  0.764705896,           0.
   1747, -0.485714287,  0.823529422,           0.
   1748, -0.485714287,  0.882352948,           0.
   1749, -0.485714287,  0.941176474,           0.
   1750, -0.485714287,           1.,           0.
   1751, -0.428571433,          -1.,  0.100000001
   1752, -0.428571433, -0.941176474,  0.100000001
   1753, -0.428571433, -0.882352948,  0.100000001
   1754, -0.428571433, -0.823529422,  0.100000001
   1755, -0.428571433, -0.764705896,  0.100000001
   1756, -0.428571433,  -0.70588237,  0.100000001
   1757, -0.428571433, -0.647058845,  0.100000001
   1758, -0.428571433, -0.588235319,  0.100000001
   1759, -0.428571433, -0.529411793,  0.100000001
   1760, -0.428571433, -0.470588237,  0.100000001
   1761, -0.428571433, -0.411764711,  0.100000001
   1762, -0.428571433, -0.352941185,  0.100000001
   1763, -0.428571433, -0.294117659,  0.100000001
   1764, -0.428571433, -0.235294119,  0.100000001
   1765, -0.428571433, -0.176470593,  0.100000001
   1766, -0.428571433, -0.117647059,  0.100000001
   1767, -0.428571433, -0.0588235296,  0.100000001
   1768, -0.428571433,           0.,  0.100000001
   1769, -0.428571433, 0.0588235296,  0.100000001
   1770, -0.428571433,  0.117647059,  0.100000001
   1771, -0.428571433,  0.176470593,  0.100000001
   1772, -0.428571433,  0.235294119,  0.100000001
   1773, -0.428571433,  0.294117659,  0.100000001
   1774, -0.428571433,  0.352941185,  0.100000001
   1775, -0.428571433,  0.411764711,  0.100000001
   1776, -0.428571433,  0.470588237,  0.100000001
   1777, -0.428571433,  0.529411793,  0.100000001
   1778, -0.428571433,  0.588235319,  0.100000001
   1779, -0.428571433,  0.647058845,  0.100000001
   1780, -0.428571433,   0.70588237,  0.100000001
   1781, -0.428571433,  0.764705896,  0.100000001
   1782, -0.428571433,  0.823529422,  0.100000001
   1783, -0.428571433,  0.882352948,  0.100000001
   1784, -0.428571433,  0.941176474,  0.100000001
   1785, -0.428571433,           1.,  0.100000001
   1786, -0.428571433,          -1.,  0.075000003
   1787, -0.428571433, -0.941176474,  0.075000003
   1788, -0.428571433, -0.882352948,  0.075000003
   1789, -0.428571433, -0.823529422,  0.075000003
   1790, -0.428571433, -0.764705896,  0.075000003
   1791, -0.428571433,  -0.70588237,  0.075000003
   1792, -0.428571433, -0.647058845,  0.075000003
   1793, -0.428571433, -0.588235319,  0.075000003
   1794, -0.428571433, -0.529411793,  0.075000003
   1795, -0.428571433, -0.470588237,  0.075000003
   1796, -0.428571433, -0.411764711,  0.075000003
   1797, -0.428571433, -0.352941185,  0.075000003
   1798, -0.428571433, -0.294117659,  0.075000003
   1799, -0.428571433, -0.235294119,  0.075000003
   1800, -0.428571433, -0.176470593,  0.075000003
   1801, -0.428571433, -0.117647059,  0.075000003
   1802, -0.428571433, -0.0588235296,  0.075000003
   1803, -0.428571433,           0.,  0.075000003
   1804, -0.428571433, 0.0588235296,  0.075000003
   1805, -0.428571433,  0.117647059,  0.075000003
   1806, -0.428571433,  0.176470593,  0.075000003
   1807, -0.428571433,  0.235294119,  0.075000003
   1808, -0.428571433,  0.294117659,  0.075000003
   1809, -0.428571433,  0.352941185,  0.075000003
   1810, -0.428571433,  0.411764711,  0.075000003
   1811, -0.428571433,  0.470588237,  0.075000003
   1812, -0.428571433,  0.529411793,  0.075000003
   1813, -0.428571433,  0.588235319,  0.075000003
   1814, -0.428571433,  0.647058845,  0.075000003
   1815, -0.428571433,   0.70588237,  0.075000003
   1816, -0.428571433,  0.764705896,  0.075000003
   1817, -0.428571433,  0.823529422,  0.075000003
   1818, -0.428571433,  0.882352948,  0.075000003
   1819, -0.428571433,  0.941176474,  0.075000003
   1820, -0.428571433,           1.,  0.075000003
   1821, -0.428571433,          -1., 0.0500000007
   1822, -0.428571433, -0.941176474, 0.0500000007
   1823, -0.428571433, -0.882352948, 0.0500000007
   1824, -0.428571433, -0.823529422, 0.0500000007
   1825, -0.428571433, -0.764705896, 0.0500000007
   1826, -0.428571433,  -0.70588237, 0.0500000007
   1827, -0.428571433, -0.647058845, 0.0500000007
   1828, -0.428571433, -0.588235319, 0.0500000007
   1829, -0.428571433, -0.529411793, 0.0500000007
   1830, -0.428571433, -0.470588237, 0.0500000007
   1831, -0.428571433, -0.411764711, 0.0500000007
   1832, -0.428571433, -0.352941185, 0.0500000007
   1833, -0.428571433, -0.294117659, 0.0500000007
   1834, -0.428571433, -0.235294119, 0.0500000007
   1835, -0.428571433, -0.176470593, 0.0500000007
   1836, -0.428571433, -0.117647059, 0.0500000007
   1837, -0.428571433, -0.0588235296, 0.0500000007
   1838, -0.428571433,           0., 0.0500000007
   1839, -0.428571433, 0.0588235296, 0.0500000007
   1840, -0.428571433,  0.117647059, 0.0500000007
   1841, -0.428571433,  0.176470593, 0.0500000007
   1842, -0.428571433,  0.235294119, 0.0500000007
   1843, -0.428571433,  0.294117659, 0.0500000007
   1844, -0.428571433,  0.352941185, 0.0500000007
   1845, -0.428571433,  0.411764711, 0.0500000007
   1846, -0.428571433,  0.470588237, 0.0500000007
   1847, -0.428571433,  0.529411793, 0.0500000007
   1848, -0.428571433,  0.588235319, 0.0500000007
   1849, -0.428571433,  0.647058845, 0.0500000007
   1850, -0.428571433,   0.70588237, 0.0500000007
   1851, -0.428571433,  0.764705896, 0.0500000007
   1852, -0.428571433,  0.823529422, 0.0500000007
   1853, -0.428571433,  0.882352948, 0.0500000007
   1854, -0.428571433,  0.941176474, 0.0500000007
   1855, -0.428571433,           1., 0.0500000007
   1856, -0.428571433,          -1., 0.0250000004
   1857, -0.428571433, -0.941176474, 0.0250000004
   1858, -0.428571433, -0.882352948, 0.0250000004
   1859, -0.428571433, -0.823529422, 0.0250000004
   1860, -0.428571433, -0.764705896, 0.0250000004
   1861, -0.428571433,  -0.70588237, 0.0250000004
   1862, -0.428571433, -0.647058845, 0.0250000004
   1863, -0.428571433, -0.588235319, 0.0250000004
   1864, -0.428571433, -0.529411793, 0.0250000004
   1865, -0.428571433, -0.470588237, 0.0250000004
   1866, -0.428571433, -0.411764711, 0.0250000004
   1867, -0.428571433, -0.352941185, 0.0250000004
   1868, -0.428571433, -0.294117659, 0.0250000004
   1869, -0.428571433, -0.235294119, 0.0250000004
   1870, -0.428571433, -0.176470593, 0.0250000004
   1871, -0.428571433, -0.117647059, 0.0250000004
   1872, -0.428571433, -0.0588235296, 0.0250000004
   1873, -0.428571433,           0., 0.0250000004
   1874, -0.428571433, 0.0588235296, 0.0250000004
   1875, -0.428571433,  0.117647059, 0.0250000004
   1876, -0.428571433,  0.176470593, 0.0250000004
   1877, -0.428571433,  0.235294119, 0.0250000004
   1878, -0.428571433,  0.294117659, 0.0250000004
   1879, -0.428571433,  0.352941185, 0.0250000004
   1880, -0.428571433,  0.411764711, 0.0250000004
   1881, -0.428571433,  0.470588237, 0.0250000004
   1882, -0.428571433,  0.529411793, 0.0250000004
   1883, -0.428571433,  0.588235319, 0.0250000004
   1884, -0.428571433,  0.647058845, 0.0250000004
   1885, -0.428571433,   0.70588237, 0.0250000004
   1886, -0.428571433,  0.764705896, 0.0250000004
   1887, -0.428571433,  0.823529422, 0.0250000004
   1888, -0.428571433,  0.882352948, 0.0250000004
   1889, -0.428571433,  0.941176474, 0.0250000004
   1890, -0.428571433,           1., 0.0250000004
   1891, -0.428571433,          -1.,           0.
   1892, -0.428571433, -0.941176474,           0.
   1893, -0.428571433, -0.882352948,           0.
   1894, -0.428571433, -0.823529422,           0.
   1895, -0.428571433, -0.764705896,           0.
   1896, -0.428571433,  -0.70588237,           0.
   1897, -0.428571433, -0.647058845,           0.
   1898, -0.428571433, -0.588235319,           0.
   1899, -0.428571433, -0.529411793,           0.
   1900, -0.428571433, -0.470588237,           0.
   1901, -0.428571433, -0.411764711,           0.
   1902, -0.428571433, -0.352941185,           0.
   1903, -0.428571433, -0.294117659,           0.
   1904, -0.428571433, -0.235294119,           0.
   1905, -0.428571433, -0.176470593,           0.
   1906, -0.428571433, -0.117647059,           0.
   1907, -0.428571433, -0.0588235296,           0.
   1908, -0.428571433,           0.,           0.
   1909, -0.428571433, 0.0588235296,           0.
   1910, -0.428571433,  0.117647059,           0.
   1911, -0.428571433,  0.176470593,           0.
   1912, -0.428571433,  0.235294119,           0.
   1913, -0.428571433,  0.294117659,           0.
   1914, -0.428571433,  0.352941185,           0.
   1915, -0.428571433,  0.411764711,           0.
   1916, -0.428571433,  0.470588237,           0.
   1917, -0.428571433,  0.529411793,           0.
   1918, -0.428571433,  0.588235319,           0.
   1919, -0.428571433,  0.647058845,           0.
   1920, -0.428571433,   0.70588237,           0.
   1921, -0.428571433,  0.764705896,           0.
   1922, -0.428571433,  0.823529422,           0.
   1923, -0.428571433,  0.882352948,           0.
   1924, -0.428571433,  0.941176474,           0.
   1925, -0.428571433,           1.,           0.
   1926, -0.371428579,          -1.,  0.100000001
   1927, -0.371428579, -0.941176474,  0.100000001
   1928, -0.371428579, -0.882352948,  0.100000001
   1929, -0.371428579, -0.823529422,  0.100000001
   1930, -0.371428579, -0.764705896,  0.100000001
   1931, -0.371428579,  -0.70588237,  0.100000001
   1932, -0.371428579, -0.647058845,  0.100000001
   1933, -0.371428579, -0.588235319,  0.100000001
   1934, -0.371428579, -0.529411793,  0.100000001
   1935, -0.371428579, -0.470588237,  0.100000001
   1936, -0.371428579, -0.411764711,  0.100000001
   1937, -0.371428579, -0.352941185,  0.100000001
   1938, -0.371428579, -0.294117659,  0.100000001
   1939, -0.371428579, -0.235294119,  0.100000001
   1940, -0.371428579, -0.176470593,  0.100000001
   1941, -0.371428579, -0.117647059,  0.100000001
   1942, -0.371428579, -0.0588235296,  0.100000001
   1943, -0.371428579,           0.,  0.100000001
   1944, -0.371428579, 0.0588235296,  0.100000001
   1945, -0.371428579,  0.117647059,  0.100000001
   1946, -0.371428579,  0.176470593,  0.100000001
   1947, -0.371428579,  0.235294119,  0.100000001
   1948, -0.371428579,  0.294117659,  0.100000001
   1949, -0.371428579,  0.352941185,  0.100000001
   1950, -0.371428579,  0.411764711,  0.100000001
   1951, -0.371428579,  0.470588237,  0.100000001
   1952, -0.371428579,  0.529411793,  0.100000001
   1953, -0.371428579,  0.588235319,  0.100000001
   1954, -0.371428579,  0.647058845,  0.100000001
   1955, -0.371428579,   0.70588237,  0.100000001
   1956, -0.371428579,  0.764705896,  0.100000001
   1957, -0.371428579,  0.823529422,  0.100000001
   1958, -0.371428579,  0.882352948,  0.100000001
   1959, -0.371428579,  0.941176474,  0.100000001
   1960, -0.371428579,           1.,  0.100000001
   1961, -0.371428579,          -1.,  0.075000003
   1962, -0.371428579, -0.941176474,  0.075000003
   1963, -0.371428579, -0.882352948,  0.075000003
   1964, -0.371428579, -0.823529422,  0.075000003
   1965, -0.371428579, -0.764705896,  0.075000003
   1966, -0.371428579,  -0.70588237,  0.075000003
   1967, -0.371428579, -0.647058845,  0.075000003
   1968, -0.371428579, -0.588235319,  0.075000003
   1969, -0.371428579, -0.529411793,  0.075000003
   1970, -0.371428579, -0.470588237,  0.075000003
   1971, -0.371428579, -0.411764711,  0.075000003
   1972, -0.371428579, -0.352941185,  0.075000003
   1973, -0.371428579, -0.294117659,  0.075000003
   1974, -0.371428579, -0.235294119,  0.075000003
   1975, -0.371428579, -0.176470593,  0.075000003
   1976, -0.371428579, -0.117647059,  0.075000003
   1977, -0.371428579, -0.0588235296,  0.075000003
   1978, -0.371428579,           0.,  0.075000003
   1979, -0.371428579, 0.0588235296,  0.075000003
   1980, -0.371428579,  0.117647059,  0.075000003
   1981, -0.371428579,  0.176470593,  0.075000003
   1982, -0.371428579,  0.235294119,  0.075000003
   1983, -0.371428579,  0.294117659,  0.075000003
   1984, -0.371428579,  0.352941185,  0.075000003
   1985, -0.371428579,  0.411764711,  0.075000003
   1986, -0.371428579,  0.470588237,  0.075000003
   1987, -0.371428579,  0.529411793,  0.075000003
   1988, -0.371428579,  0.588235319,  0.075000003
   1989, -0.371428579,  0.647058845,  0.075000003
   1990, -0.371428579,   0.70588237,  0.075000003
   1991, -0.371428579,  0.764705896,  0.075000003
   1992, -0.371428579,  0.823529422,  0.075000003
   1993, -0.371428579,  0.882352948,  0.075000003
   1994, -0.371428579,  0.941176474,  0.075000003
   1995, -0.371428579,           1.,  0.075000003
   1996, -0.371428579,          -1., 0.0500000007
   1997, -0.371428579, -0.941176474, 0.0500000007
   1998, -0.371428579, -0.882352948, 0.0500000007
   1999, -0.371428579, -0.823529422, 0.0500000007
   2000, -0.371428579, -0.764705896, 0.0500000007
   2001, -0.371428579,  -0.70588237, 0.0500000007
   2002, -0.371428579, -0.647058845, 0.0500000007
   2003, -0.371428579, -0.588235319, 0.0500000007
   2004, -0.371428579, -0.529411793, 0.0500000007
   2005, -0.371428579, -0.470588237, 0.0500000007
   2006, -0.371428579, -0.411764711, 0.0500000007
   2007, -0.371428579, -0.352941185, 0.0500000007
   2008, -0.371428579, -0.294117659, 0.0500000007
   2009, -0.371428579, -0.235294119, 0.0500000007
   2010, -0.371428579, -0.176470593, 0.0500000007
   2011, -0.371428579, -0.117647059, 0.0500000007
   2012, -0.371428579, -0.0588235296, 0.0500000007
   2013, -0.371428579,           0., 0.0500000007
   2014, -0.371428579, 0.0588235296, 0.0500000007
   2015, -0.371428579,  0.117647059, 0.0500000007
   2016, -0.371428579,  0.176470593, 0.0500000007
   2017, -0.371428579,  0.235294119, 0.0500000007
   2018, -0.371428579,  0.294117659, 0.0500000007
   2019, -0.371428579,  0.352941185, 0.0500000007
   2020, -0.371428579,  0.411764711, 0.0500000007
   2021, -0.371428579,  0.470588237, 0.0500000007
   2022, -0.371428579,  0.529411793, 0.0500000007
   2023, -0.371428579,  0.588235319, 0.0500000007
   2024, -0.371428579,  0.647058845, 0.0500000007
   2025, -0.371428579,   0.70588237, 0.0500000007
   2026, -0.371428579,  0.764705896, 0.0500000007
   2027, -0.371428579,  0.823529422, 0.0500000007
   2028, -0.371428579,  0.882352948, 0.0500000007
   2029, -0.371428579,  0.941176474, 0.0500000007
   2030, -0.371428579,           1., 0.0500000007
   2031, -0.371428579,          -1., 0.0250000004
   2032, -0.371428579, -0.941176474, 0.0250000004
   2033, -0.371428579, -0.882352948, 0.0250000004
   2034, -0.371428579, -0.823529422, 0.0250000004
   2035, -0.371428579, -0.764705896, 0.0250000004
   2036, -0.371428579,  -0.70588237, 0.0250000004
   2037, -0.371428579, -0.647058845, 0.0250000004
   2038, -0.371428579, -0.588235319, 0.0250000004
   2039, -0.371428579, -0.529411793, 0.0250000004
   2040, -0.371428579, -0.470588237, 0.0250000004
   2041, -0.371428579, -0.411764711, 0.0250000004
   2042, -0.371428579, -0.352941185, 0.0250000004
   2043, -0.371428579, -0.294117659, 0.0250000004
   2044, -0.371428579, -0.235294119, 0.0250000004
   2045, -0.371428579, -0.176470593, 0.0250000004
   2046, -0.371428579, -0.117647059, 0.0250000004
   2047, -0.371428579, -0.0588235296, 0.0250000004
   2048, -0.371428579,           0., 0.0250000004
   2049, -0.371428579, 0.0588235296, 0.0250000004
   2050, -0.371428579,  0.117647059, 0.0250000004
   2051, -0.371428579,  0.176470593, 0.0250000004
   2052, -0.371428579,  0.235294119, 0.0250000004
   2053, -0.371428579,  0.294117659, 0.0250000004
   2054, -0.371428579,  0.352941185, 0.0250000004
   2055, -0.371428579,  0.411764711, 0.0250000004
   2056, -0.371428579,  0.470588237, 0.0250000004
   2057, -0.371428579,  0.529411793, 0.0250000004
   2058, -0.371428579,  0.588235319, 0.0250000004
   2059, -0.371428579,  0.647058845, 0.0250000004
   2060, -0.371428579,   0.70588237, 0.0250000004
   2061, -0.371428579,  0.764705896, 0.0250000004
   2062, -0.371428579,  0.823529422, 0.0250000004
   2063, -0.371428579,  0.882352948, 0.0250000004
   2064, -0.371428579,  0.941176474, 0.0250000004
   2065, -0.371428579,           1., 0.0250000004
   2066, -0.371428579,          -1.,           0.
   2067, -0.371428579, -0.941176474,           0.
   2068, -0.371428579, -0.882352948,           0.
   2069, -0.371428579, -0.823529422,           0.
   2070, -0.371428579, -0.764705896,           0.
   2071, -0.371428579,  -0.70588237,           0.
   2072, -0.371428579, -0.647058845,           0.
   2073, -0.371428579, -0.588235319,           0.
   2074, -0.371428579, -0.529411793,           0.
   2075, -0.371428579, -0.470588237,           0.
   2076, -0.371428579, -0.411764711,           0.
   2077, -0.371428579, -0.352941185,           0.
   2078, -0.371428579, -0.294117659,           0.
   2079, -0.371428579, -0.235294119,           0.
   2080, -0.371428579, -0.176470593,           0.
   2081, -0.371428579, -0.117647059,           0.
   2082, -0.371428579, -0.0588235296,           0.
   2083, -0.371428579,           0.,           0.
   2084, -0.371428579, 0.0588235296,           0.
   2085, -0.371428579,  0.117647059,           0.
   2086, -0.371428579,  0.176470593,           0.
   2087, -0.371428579,  0.235294119,           0.
   2088, -0.371428579,  0.294117659,           0.
   2089, -0.371428579,  0.352941185,           0.
   2090, -0.371428579,  0.411764711,           0.
   2091, -0.371428579,  0.470588237,           0.
   2092, -0.371428579,  0.529411793,           0.
   2093, -0.371428579,  0.588235319,           0.
   2094, -0.371428579,  0.647058845,           0.
   2095, -0.371428579,   0.70588237,           0.
   2096, -0.371428579,  0.764705896,           0.
   2097, -0.371428579,  0.823529422,           0.
   2098, -0.371428579,  0.882352948,           0.
   2099, -0.371428579,  0.941176474,           0.
   2100, -0.371428579,           1.,           0.
   2101, -0.314285725,          -1.,  0.100000001
   2102, -0.314285725, -0.941176474,  0.100000001
   2103, -0.314285725, -0.882352948,  0.100000001
   2104, -0.314285725, -0.823529422,  0.100000001
   2105, -0.314285725, -0.764705896,  0.100000001
   2106, -0.314285725,  -0.70588237,  0.100000001
   2107, -0.314285725, -0.647058845,  0.100000001
   2108, -0.314285725, -0.588235319,  0.100000001
   2109, -0.314285725, -0.529411793,  0.100000001
   2110, -0.314285725, -0.470588237,  0.100000001
   2111, -0.314285725, -0.411764711,  0.100000001
   2112, -0.314285725, -0.352941185,  0.100000001
   2113, -0.314285725, -0.294117659,  0.100000001
   2114, -0.314285725, -0.235294119,  0.100000001
   2115, -0.314285725, -0.176470593,  0.100000001
   2116, -0.314285725, -0.117647059,  0.100000001
   2117, -0.314285725, -0.0588235296,  0.100000001
   2118, -0.314285725,           0.,  0.100000001
   2119, -0.314285725, 0.0588235296,  0.100000001
   2120, -0.314285725,  0.117647059,  0.100000001
   2121, -0.314285725,  0.176470593,  0.100000001
   2122, -0.314285725,  0.235294119,  0.100000001
   2123, -0.314285725,  0.294117659,  0.100000001
   2124, -0.314285725,  0.352941185,  0.100000001
   2125, -0.314285725,  0.411764711,  0.100000001
   2126, -0.314285725,  0.470588237,  0.100000001
   2127, -0.314285725,  0.529411793,  0.100000001
   2128, -0.314285725,  0.588235319,  0.100000001
   2129, -0.314285725,  0.647058845,  0.100000001
   2130, -0.314285725,   0.70588237,  0.100000001
   2131, -0.314285725,  0.764705896,  0.100000001
   2132, -0.314285725,  0.823529422,  0.100000001
   2133, -0.314285725,  0.882352948,  0.100000001
   2134, -0.314285725,  0.941176474,  0.100000001
   2135, -0.314285725,           1.,  0.100000001
   2136, -0.314285725,          -1.,  0.075000003
   2137, -0.314285725, -0.941176474,  0.075000003
   2138, -0.314285725, -0.882352948,  0.075000003
   2139, -0.314285725, -0.823529422,  0.075000003
   2140, -0.314285725, -0.764705896,  0.075000003
   2141, -0.314285725,  -0.70588237,  0.075000003
   2142, -0.314285725, -0.647058845,  0.075000003
   2143, -0.314285725, -0.588235319,  0.075000003
   2144, -0.314285725, -0.529411793,  0.075000003
   2145, -0.314285725, -0.470588237,  0.075000003
   2146, -0.314285725, -0.411764711,  0.075000003
   2147, -0.314285725, -0.352941185,  0.075000003
   2148, -0.314285725, -0.294117659,  0.075000003
   2149, -0.314285725, -0.235294119,  0.075000003
   2150, -0.314285725, -0.176470593,  0.075000003
   2151, -0.314285725, -0.117647059,  0.075000003
   2152, -0.314285725, -0.0588235296,  0.075000003
   2153, -0.314285725,           0.,  0.075000003
   2154, -0.314285725, 0.0588235296,  0.075000003
   2155, -0.314285725,  0.117647059,  0.075000003
   2156, -0.314285725,  0.176470593,  0.075000003
   2157, -0.314285725,  0.235294119,  0.075000003
   2158, -0.314285725,  0.294117659,  0.075000003
   2159, -0.314285725,  0.352941185,  0.075000003
   2160, -0.314285725,  0.411764711,  0.075000003
   2161, -0.314285725,  0.470588237,  0.075000003
   2162, -0.314285725,  0.529411793,  0.075000003
   2163, -0.314285725,  0.588235319,  0.075000003
   2164, -0.314285725,  0.647058845,  0.075000003
   2165, -0.314285725,   0.70588237,  0.075000003
   2166, -0.314285725,  0.764705896,  0.075000003
   2167, -0.314285725,  0.823529422,  0.075000003
   2168, -0.314285725,  0.882352948,  0.075000003
   2169, -0.314285725,  0.941176474,  0.075000003
   2170, -0.314285725,           1.,  0.075000003
   2171, -0.314285725,          -1., 0.0500000007
   2172, -0.314285725, -0.941176474, 0.0500000007
   2173, -0.314285725, -0.882352948, 0.0500000007
   2174, -0.314285725, -0.823529422, 0.0500000007
   2175, -0.314285725, -0.764705896, 0.0500000007
   2176, -0.314285725,  -0.70588237, 0.0500000007
   2177, -0.314285725, -0.647058845, 0.0500000007
   2178, -0.314285725, -0.588235319, 0.0500000007
   2179, -0.314285725, -0.529411793, 0.0500000007
   2180, -0.314285725, -0.470588237, 0.0500000007
   2181, -0.314285725, -0.411764711, 0.0500000007
   2182, -0.314285725, -0.352941185, 0.0500000007
   2183, -0.314285725, -0.294117659, 0.0500000007
   2184, -0.314285725, -0.235294119, 0.0500000007
   2185, -0.314285725, -0.176470593, 0.0500000007
   2186, -0.314285725, -0.117647059, 0.0500000007
   2187, -0.314285725, -0.0588235296, 0.0500000007
   2188, -0.314285725,           0., 0.0500000007
   2189, -0.314285725, 0.0588235296, 0.0500000007
   2190, -0.314285725,  0.117647059, 0.0500000007
   2191, -0.314285725,  0.176470593, 0.0500000007
   2192, -0.314285725,  0.235294119, 0.0500000007
   2193, -0.314285725,  0.294117659, 0.0500000007
   2194, -0.314285725,  0.352941185, 0.0500000007
   2195, -0.314285725,  0.411764711, 0.0500000007
   2196, -0.314285725,  0.470588237, 0.0500000007
   2197, -0.314285725,  0.529411793, 0.0500000007
   2198, -0.314285725,  0.588235319, 0.0500000007
   2199, -0.314285725,  0.647058845, 0.0500000007
   2200, -0.314285725,   0.70588237, 0.0500000007
   2201, -0.314285725,  0.764705896, 0.0500000007
   2202, -0.314285725,  0.823529422, 0.0500000007
   2203, -0.314285725,  0.882352948, 0.0500000007
   2204, -0.314285725,  0.941176474, 0.0500000007
   2205, -0.314285725,           1., 0.0500000007
   2206, -0.314285725,          -1., 0.0250000004
   2207, -0.314285725, -0.941176474, 0.0250000004
   2208, -0.314285725, -0.882352948, 0.0250000004
   2209, -0.314285725, -0.823529422, 0.0250000004
   2210, -0.314285725, -0.764705896, 0.0250000004
   2211, -0.314285725,  -0.70588237, 0.0250000004
   2212, -0.314285725, -0.647058845, 0.0250000004
   2213, -0.314285725, -0.588235319, 0.0250000004
   2214, -0.314285725, -0.529411793, 0.0250000004
   2215, -0.314285725, -0.470588237, 0.0250000004
   2216, -0.314285725, -0.411764711, 0.0250000004
   2217, -0.314285725, -0.352941185, 0.0250000004
   2218, -0.314285725, -0.294117659, 0.0250000004
   2219, -0.314285725, -0.235294119, 0.0250000004
   2220, -0.314285725, -0.176470593, 0.0250000004
   2221, -0.314285725, -0.117647059, 0.0250000004
   2222, -0.314285725, -0.0588235296, 0.0250000004
   2223, -0.314285725,           0., 0.0250000004
   2224, -0.314285725, 0.0588235296, 0.0250000004
   2225, -0.314285725,  0.117647059, 0.0250000004
   2226, -0.314285725,  0.176470593, 0.0250000004
   2227, -0.314285725,  0.235294119, 0.0250000004
   2228, -0.314285725,  0.294117659, 0.0250000004
   2229, -0.314285725,  0.352941185, 0.0250000004
   2230, -0.314285725,  0.411764711, 0.0250000004
   2231, -0.314285725,  0.470588237, 0.0250000004
   2232, -0.314285725,  0.529411793, 0.0250000004
   2233, -0.314285725,  0.588235319, 0.0250000004
   2234, -0.314285725,  0.647058845, 0.0250000004
   2235, -0.314285725,   0.70588237, 0.0250000004
   2236, -0.314285725,  0.764705896, 0.0250000004
   2237, -0.314285725,  0.823529422, 0.0250000004
   2238, -0.314285725,  0.882352948, 0.0250000004
   2239, -0.314285725,  0.941176474, 0.0250000004
   2240, -0.314285725,           1., 0.0250000004
   2241, -0.314285725,          -1.,           0.
   2242, -0.314285725, -0.941176474,           0.
   2243, -0.314285725, -0.882352948,           0.
   2244, -0.314285725, -0.823529422,           0.
   2245, -0.314285725, -0.764705896,           0.
   2246, -0.314285725,  -0.70588237,           0.
   2247, -0.314285725, -0.647058845,           0.
   2248, -0.314285725, -0.588235319,           0.
   2249, -0.314285725, -0.529411793,           0.
   2250, -0.314285725, -0.470588237,           0.
   2251, -0.314285725, -0.411764711,           0.
   2252, -0.314285725, -0.352941185,           0.
   2253, -0.314285725, -0.294117659,           0.
   2254, -0.314285725, -0.235294119,           0.
   2255, -0.314285725, -0.176470593,           0.
   2256, -0.314285725, -0.117647059,           0.
   2257, -0.314285725, -0.0588235296,           0.
   2258, -0.314285725,           0.,           0.
   2259, -0.314285725, 0.0588235296,           0.
   2260, -0.314285725,  0.117647059,           0.
   2261, -0.314285725,  0.176470593,           0.
   2262, -0.314285725,  0.235294119,           0.
   2263, -0.314285725,  0.294117659,           0.
   2264, -0.314285725,  0.352941185,           0.
   2265, -0.314285725,  0.411764711,           0.
   2266, -0.314285725,  0.470588237,           0.
   2267, -0.314285725,  0.529411793,           0.
   2268, -0.314285725,  0.588235319,           0.
   2269, -0.314285725,  0.647058845,           0.
   2270, -0.314285725,   0.70588237,           0.
   2271, -0.314285725,  0.764705896,           0.
   2272, -0.314285725,  0.823529422,           0.
   2273, -0.314285725,  0.882352948,           0.
   2274, -0.314285725,  0.941176474,           0.
   2275, -0.314285725,           1.,           0.
   2276, -0.257142872,          -1.,  0.100000001
   2277, -0.257142872, -0.941176474,  0.100000001
   2278, -0.257142872, -0.882352948,  0.100000001
   2279, -0.257142872, -0.823529422,  0.100000001
   2280, -0.257142872, -0.764705896,  0.100000001
   2281, -0.257142872,  -0.70588237,  0.100000001
   2282, -0.257142872, -0.647058845,  0.100000001
   2283, -0.257142872, -0.588235319,  0.100000001
   2284, -0.257142872, -0.529411793,  0.100000001
   2285, -0.257142872, -0.470588237,  0.100000001
   2286, -0.257142872, -0.411764711,  0.100000001
   2287, -0.257142872, -0.352941185,  0.100000001
   2288, -0.257142872, -0.294117659,  0.100000001
   2289, -0.257142872, -0.235294119,  0.100000001
   2290, -0.257142872, -0.176470593,  0.100000001
   2291, -0.257142872, -0.117647059,  0.100000001
   2292, -0.257142872, -0.0588235296,  0.100000001
   2293, -0.257142872,           0.,  0.100000001
   2294, -0.257142872, 0.0588235296,  0.100000001
   2295, -0.257142872,  0.117647059,  0.100000001
   2296, -0.257142872,  0.176470593,  0.100000001
   2297, -0.257142872,  0.235294119,  0.100000001
   2298, -0.257142872,  0.294117659,  0.100000001
   2299, -0.257142872,  0.352941185,  0.100000001
   2300, -0.257142872,  0.411764711,  0.100000001
   2301, -0.257142872,  0.470588237,  0.100000001
   2302, -0.257142872,  0.529411793,  0.100000001
   2303, -0.257142872,  0.588235319,  0.100000001
   2304, -0.257142872,  0.647058845,  0.100000001
   2305, -0.257142872,   0.70588237,  0.100000001
   2306, -0.257142872,  0.764705896,  0.100000001
   2307, -0.257142872,  0.823529422,  0.100000001
   2308, -0.257142872,  0.882352948,  0.100000001
   2309, -0.257142872,  0.941176474,  0.100000001
   2310, -0.257142872,           1.,  0.100000001
   2311, -0.257142872,          -1.,  0.075000003
   2312, -0.257142872, -0.941176474,  0.075000003
   2313, -0.257142872, -0.882352948,  0.075000003
   2314, -0.257142872, -0.823529422,  0.075000003
   2315, -0.257142872, -0.764705896,  0.075000003
   2316, -0.257142872,  -0.70588237,  0.075000003
   2317, -0.257142872, -0.647058845,  0.075000003
   2318, -0.257142872, -0.588235319,  0.075000003
   2319, -0.257142872, -0.529411793,  0.075000003
   2320, -0.257142872, -0.470588237,  0.075000003
   2321, -0.257142872, -0.411764711,  0.075000003
   2322, -0.257142872, -0.352941185,  0.075000003
   2323, -0.257142872, -0.294117659,  0.075000003
   2324, -0.257142872, -0.235294119,  0.075000003
   2325, -0.257142872, -0.176470593,  0.075000003
   2326, -0.257142872, -0.117647059,  0.075000003
   2327, -0.257142872, -0.0588235296,  0.075000003
   2328, -0.257142872,           0.,  0.075000003
   2329, -0.257142872, 0.0588235296,  0.075000003
   2330, -0.257142872,  0.117647059,  0.075000003
   2331, -0.257142872,  0.176470593,  0.075000003
   2332, -0.257142872,  0.235294119,  0.075000003
   2333, -0.257142872,  0.294117659,  0.075000003
   2334, -0.257142872,  0.352941185,  0.075000003
   2335, -0.257142872,  0.411764711,  0.075000003
   2336, -0.257142872,  0.470588237,  0.075000003
   2337, -0.257142872,  0.529411793,  0.075000003
   2338, -0.257142872,  0.588235319,  0.075000003
   2339, -0.257142872,  0.647058845,  0.075000003
   2340, -0.257142872,   0.70588237,  0.075000003
   2341, -0.257142872,  0.764705896,  0.075000003
   2342, -0.257142872,  0.823529422,  0.075000003
   2343, -0.257142872,  0.882352948,  0.075000003
   2344, -0.257142872,  0.941176474,  0.075000003
   2345, -0.257142872,           1.,  0.075000003
   2346, -0.257142872,          -1., 0.0500000007
   2347, -0.257142872, -0.941176474, 0.0500000007
   2348, -0.257142872, -0.882352948, 0.0500000007
   2349, -0.257142872, -0.823529422, 0.0500000007
   2350, -0.257142872, -0.764705896, 0.0500000007
   2351, -0.257142872,  -0.70588237, 0.0500000007
   2352, -0.257142872, -0.647058845, 0.0500000007
   2353, -0.257142872, -0.588235319, 0.0500000007
   2354, -0.257142872, -0.529411793, 0.0500000007
   2355, -0.257142872, -0.470588237, 0.0500000007
   2356, -0.257142872, -0.411764711, 0.0500000007
   2357, -0.257142872, -0.352941185, 0.0500000007
   2358, -0.257142872, -0.294117659, 0.0500000007
   2359, -0.257142872, -0.235294119, 0.0500000007
   2360, -0.257142872, -0.176470593, 0.0500000007
   2361, -0.257142872, -0.117647059, 0.0500000007
   2362, -0.257142872, -0.0588235296, 0.0500000007
   2363, -0.257142872,           0., 0.0500000007
   2364, -0.257142872, 0.0588235296, 0.0500000007
   2365, -0.257142872,  0.117647059, 0.0500000007
   2366, -0.257142872,  0.176470593, 0.0500000007
   2367, -0.257142872,  0.235294119, 0.0500000007
   2368, -0.257142872,  0.294117659, 0.0500000007
   2369, -0.257142872,  0.352941185, 0.0500000007
   2370, -0.257142872,  0.411764711, 0.0500000007
   2371, -0.257142872,  0.470588237, 0.0500000007
   2372, -0.257142872,  0.529411793, 0.0500000007
   2373, -0.257142872,  0.588235319, 0.0500000007
   2374, -0.257142872,  0.647058845, 0.0500000007
   2375, -0.257142872,   0.70588237, 0.0500000007
   2376, -0.257142872,  0.764705896, 0.0500000007
   2377, -0.257142872,  0.823529422, 0.0500000007
   2378, -0.257142872,  0.882352948, 0.0500000007
   2379, -0.257142872,  0.941176474, 0.0500000007
   2380, -0.257142872,           1., 0.0500000007
   2381, -0.257142872,          -1., 0.0250000004
   2382, -0.257142872, -0.941176474, 0.0250000004
   2383, -0.257142872, -0.882352948, 0.0250000004
   2384, -0.257142872, -0.823529422, 0.0250000004
   2385, -0.257142872, -0.764705896, 0.0250000004
   2386, -0.257142872,  -0.70588237, 0.0250000004
   2387, -0.257142872, -0.647058845, 0.0250000004
   2388, -0.257142872, -0.588235319, 0.0250000004
   2389, -0.257142872, -0.529411793, 0.0250000004
   2390, -0.257142872, -0.470588237, 0.0250000004
   2391, -0.257142872, -0.411764711, 0.0250000004
   2392, -0.257142872, -0.352941185, 0.0250000004
   2393, -0.257142872, -0.294117659, 0.0250000004
   2394, -0.257142872, -0.235294119, 0.0250000004
   2395, -0.257142872, -0.176470593, 0.0250000004
   2396, -0.257142872, -0.117647059, 0.0250000004
   2397, -0.257142872, -0.0588235296, 0.0250000004
   2398, -0.257142872,           0., 0.0250000004
   2399, -0.257142872, 0.0588235296, 0.0250000004
   2400, -0.257142872,  0.117647059, 0.0250000004
   2401, -0.257142872,  0.176470593, 0.0250000004
   2402, -0.257142872,  0.235294119, 0.0250000004
   2403, -0.257142872,  0.294117659, 0.0250000004
   2404, -0.257142872,  0.352941185, 0.0250000004
   2405, -0.257142872,  0.411764711, 0.0250000004
   2406, -0.257142872,  0.470588237, 0.0250000004
   2407, -0.257142872,  0.529411793, 0.0250000004
   2408, -0.257142872,  0.588235319, 0.0250000004
   2409, -0.257142872,  0.647058845, 0.0250000004
   2410, -0.257142872,   0.70588237, 0.0250000004
   2411, -0.257142872,  0.764705896, 0.0250000004
   2412, -0.257142872,  0.823529422, 0.0250000004
   2413, -0.257142872,  0.882352948, 0.0250000004
   2414, -0.257142872,  0.941176474, 0.0250000004
   2415, -0.257142872,           1., 0.0250000004
   2416, -0.257142872,          -1.,           0.
   2417, -0.257142872, -0.941176474,           0.
   2418, -0.257142872, -0.882352948,           0.
   2419, -0.257142872, -0.823529422,           0.
   2420, -0.257142872, -0.764705896,           0.
   2421, -0.257142872,  -0.70588237,           0.
   2422, -0.257142872, -0.647058845,           0.
   2423, -0.257142872, -0.588235319,           0.
   2424, -0.257142872, -0.529411793,           0.
   2425, -0.257142872, -0.470588237,           0.
   2426, -0.257142872, -0.411764711,           0.
   2427, -0.257142872, -0.352941185,           0.
   2428, -0.257142872, -0.294117659,           0.
   2429, -0.257142872, -0.235294119,           0.
   2430, -0.257142872, -0.176470593,           0.
   2431, -0.257142872, -0.117647059,           0.
   2432, -0.257142872, -0.0588235296,           0.
   2433, -0.257142872,           0.,           0.
   2434, -0.257142872, 0.0588235296,           0.
   2435, -0.257142872,  0.117647059,           0.
   2436, -0.257142872,  0.176470593,           0.
   2437, -0.257142872,  0.235294119,           0.
   2438, -0.257142872,  0.294117659,           0.
   2439, -0.257142872,  0.352941185,           0.
   2440, -0.257142872,  0.411764711,           0.
   2441, -0.257142872,  0.470588237,           0.
   2442, -0.257142872,  0.529411793,           0.
   2443, -0.257142872,  0.588235319,           0.
   2444, -0.257142872,  0.647058845,           0.
   2445, -0.257142872,   0.70588237,           0.
   2446, -0.257142872,  0.764705896,           0.
   2447, -0.257142872,  0.823529422,           0.
   2448, -0.257142872,  0.882352948,           0.
   2449, -0.257142872,  0.941176474,           0.
   2450, -0.257142872,           1.,           0.
   2451, -0.200000003,          -1.,  0.100000001
   2452, -0.200000003, -0.941176474,  0.100000001
   2453, -0.200000003, -0.882352948,  0.100000001
   2454, -0.200000003, -0.823529422,  0.100000001
   2455, -0.200000003, -0.764705896,  0.100000001
   2456, -0.200000003,  -0.70588237,  0.100000001
   2457, -0.200000003, -0.647058845,  0.100000001
   2458, -0.200000003, -0.588235319,  0.100000001
   2459, -0.200000003, -0.529411793,  0.100000001
   2460, -0.200000003, -0.470588237,  0.100000001
   2461, -0.200000003, -0.411764711,  0.100000001
   2462, -0.200000003, -0.352941185,  0.100000001
   2463, -0.200000003, -0.294117659,  0.100000001
   2464, -0.200000003, -0.235294119,  0.100000001
   2465, -0.200000003, -0.176470593,  0.100000001
   2466, -0.200000003, -0.117647059,  0.100000001
   2467, -0.200000003, -0.0588235296,  0.100000001
   2468, -0.200000003,           0.,  0.100000001
   2469, -0.200000003, 0.0588235296,  0.100000001
   2470, -0.200000003,  0.117647059,  0.100000001
   2471, -0.200000003,  0.176470593,  0.100000001
   2472, -0.200000003,  0.235294119,  0.100000001
   2473, -0.200000003,  0.294117659,  0.100000001
   2474, -0.200000003,  0.352941185,  0.100000001
   2475, -0.200000003,  0.411764711,  0.100000001
   2476, -0.200000003,  0.470588237,  0.100000001
   2477, -0.200000003,  0.529411793,  0.100000001
   2478, -0.200000003,  0.588235319,  0.100000001
   2479, -0.200000003,  0.647058845,  0.100000001
   2480, -0.200000003,   0.70588237,  0.100000001
   2481, -0.200000003,  0.764705896,  0.100000001
   2482, -0.200000003,  0.823529422,  0.100000001
   2483, -0.200000003,  0.882352948,  0.100000001
   2484, -0.200000003,  0.941176474,  0.100000001
   2485, -0.200000003,           1.,  0.100000001
   2486, -0.200000003,          -1.,  0.075000003
   2487, -0.200000003, -0.941176474,  0.075000003
   2488, -0.200000003, -0.882352948,  0.075000003
   2489, -0.200000003, -0.823529422,  0.075000003
   2490, -0.200000003, -0.764705896,  0.075000003
   2491, -0.200000003,  -0.70588237,  0.075000003
   2492, -0.200000003, -0.647058845,  0.075000003
   2493, -0.200000003, -0.588235319,  0.075000003
   2494, -0.200000003, -0.529411793,  0.075000003
   2495, -0.200000003, -0.470588237,  0.075000003
   2496, -0.200000003, -0.411764711,  0.075000003
   2497, -0.200000003, -0.352941185,  0.075000003
   2498, -0.200000003, -0.294117659,  0.075000003
   2499, -0.200000003, -0.235294119,  0.075000003
   2500, -0.200000003, -0.176470593,  0.075000003
   2501, -0.200000003, -0.117647059,  0.075000003
   2502, -0.200000003, -0.0588235296,  0.075000003
   2503, -0.200000003,           0.,  0.075000003
   2504, -0.200000003, 0.0588235296,  0.075000003
   2505, -0.200000003,  0.117647059,  0.075000003
   2506, -0.200000003,  0.176470593,  0.075000003
   2507, -0.200000003,  0.235294119,  0.075000003
   2508, -0.200000003,  0.294117659,  0.075000003
   2509, -0.200000003,  0.352941185,  0.075000003
   2510, -0.200000003,  0.411764711,  0.075000003
   2511, -0.200000003,  0.470588237,  0.075000003
   2512, -0.200000003,  0.529411793,  0.075000003
   2513, -0.200000003,  0.588235319,  0.075000003
   2514, -0.200000003,  0.647058845,  0.075000003
   2515, -0.200000003,   0.70588237,  0.075000003
   2516, -0.200000003,  0.764705896,  0.075000003
   2517, -0.200000003,  0.823529422,  0.075000003
   2518, -0.200000003,  0.882352948,  0.075000003
   2519, -0.200000003,  0.941176474,  0.075000003
   2520, -0.200000003,           1.,  0.075000003
   2521, -0.200000003,          -1., 0.0500000007
   2522, -0.200000003, -0.941176474, 0.0500000007
   2523, -0.200000003, -0.882352948, 0.0500000007
   2524, -0.200000003, -0.823529422, 0.0500000007
   2525, -0.200000003, -0.764705896, 0.0500000007
   2526, -0.200000003,  -0.70588237, 0.0500000007
   2527, -0.200000003, -0.647058845, 0.0500000007
   2528, -0.200000003, -0.588235319, 0.0500000007
   2529, -0.200000003, -0.529411793, 0.0500000007
   2530, -0.200000003, -0.470588237, 0.0500000007
   2531, -0.200000003, -0.411764711, 0.0500000007
   2532, -0.200000003, -0.352941185, 0.0500000007
   2533, -0.200000003, -0.294117659, 0.0500000007
   2534, -0.200000003, -0.235294119, 0.0500000007
   2535, -0.200000003, -0.176470593, 0.0500000007
   2536, -0.200000003, -0.117647059, 0.0500000007
   2537, -0.200000003, -0.0588235296, 0.0500000007
   2538, -0.200000003,           0., 0.0500000007
   2539, -0.200000003, 0.0588235296, 0.0500000007
   2540, -0.200000003,  0.117647059, 0.0500000007
   2541, -0.200000003,  0.176470593, 0.0500000007
   2542, -0.200000003,  0.235294119, 0.0500000007
   2543, -0.200000003,  0.294117659, 0.0500000007
   2544, -0.200000003,  0.352941185, 0.0500000007
   2545, -0.200000003,  0.411764711, 0.0500000007
   2546, -0.200000003,  0.470588237, 0.0500000007
   2547, -0.200000003,  0.529411793, 0.0500000007
   2548, -0.200000003,  0.588235319, 0.0500000007
   2549, -0.200000003,  0.647058845, 0.0500000007
   2550, -0.200000003,   0.70588237, 0.0500000007
   2551, -0.200000003,  0.764705896, 0.0500000007
   2552, -0.200000003,  0.823529422, 0.0500000007
   2553, -0.200000003,  0.882352948, 0.0500000007
   2554, -0.200000003,  0.941176474, 0.0500000007
   2555, -0.200000003,           1., 0.0500000007
   2556, -0.200000003,          -1., 0.0250000004
   2557, -0.200000003, -0.941176474, 0.0250000004
   2558, -0.200000003, -0.882352948, 0.0250000004
   2559, -0.200000003, -0.823529422, 0.0250000004
   2560, -0.200000003, -0.764705896, 0.0250000004
   2561, -0.200000003,  -0.70588237, 0.0250000004
   2562, -0.200000003, -0.647058845, 0.0250000004
   2563, -0.200000003, -0.588235319, 0.0250000004
   2564, -0.200000003, -0.529411793, 0.0250000004
   2565, -0.200000003, -0.470588237, 0.0250000004
   2566, -0.200000003, -0.411764711, 0.0250000004
   2567, -0.200000003, -0.352941185, 0.0250000004
   2568, -0.200000003, -0.294117659, 0.0250000004
   2569, -0.200000003, -0.235294119, 0.0250000004
   2570, -0.200000003, -0.176470593, 0.0250000004
   2571, -0.200000003, -0.117647059, 0.0250000004
   2572, -0.200000003, -0.0588235296, 0.0250000004
   2573, -0.200000003,           0., 0.0250000004
   2574, -0.200000003, 0.0588235296, 0.0250000004
   2575, -0.200000003,  0.117647059, 0.0250000004
   2576, -0.200000003,  0.176470593, 0.0250000004
   2577, -0.200000003,  0.235294119, 0.0250000004
   2578, -0.200000003,  0.294117659, 0.0250000004
   2579, -0.200000003,  0.352941185, 0.0250000004
   2580, -0.200000003,  0.411764711, 0.0250000004
   2581, -0.200000003,  0.470588237, 0.0250000004
   2582, -0.200000003,  0.529411793, 0.0250000004
   2583, -0.200000003,  0.588235319, 0.0250000004
   2584, -0.200000003,  0.647058845, 0.0250000004
   2585, -0.200000003,   0.70588237, 0.0250000004
   2586, -0.200000003,  0.764705896, 0.0250000004
   2587, -0.200000003,  0.823529422, 0.0250000004
   2588, -0.200000003,  0.882352948, 0.0250000004
   2589, -0.200000003,  0.941176474, 0.0250000004
   2590, -0.200000003,           1., 0.0250000004
   2591, -0.200000003,          -1.,           0.
   2592, -0.200000003, -0.941176474,           0.
   2593, -0.200000003, -0.882352948,           0.
   2594, -0.200000003, -0.823529422,           0.
   2595, -0.200000003, -0.764705896,           0.
   2596, -0.200000003,  -0.70588237,           0.
   2597, -0.200000003, -0.647058845,           0.
   2598, -0.200000003, -0.588235319,           0.
   2599, -0.200000003, -0.529411793,           0.
   2600, -0.200000003, -0.470588237,           0.
   2601, -0.200000003, -0.411764711,           0.
   2602, -0.200000003, -0.352941185,           0.
   2603, -0.200000003, -0.294117659,           0.
   2604, -0.200000003, -0.235294119,           0.
   2605, -0.200000003, -0.176470593,           0.
   2606, -0.200000003, -0.117647059,           0.
   2607, -0.200000003, -0.0588235296,           0.
   2608, -0.200000003,           0.,           0.
   2609, -0.200000003, 0.0588235296,           0.
   2610, -0.200000003,  0.117647059,           0.
   2611, -0.200000003,  0.176470593,           0.
   2612, -0.200000003,  0.235294119,           0.
   2613, -0.200000003,  0.294117659,           0.
   2614, -0.200000003,  0.352941185,           0.
   2615, -0.200000003,  0.411764711,           0.
   2616, -0.200000003,  0.470588237,           0.
   2617, -0.200000003,  0.529411793,           0.
   2618, -0.200000003,  0.588235319,           0.
   2619, -0.200000003,  0.647058845,           0.
   2620, -0.200000003,   0.70588237,           0.
   2621, -0.200000003,  0.764705896,           0.
   2622, -0.200000003,  0.823529422,           0.
   2623, -0.200000003,  0.882352948,           0.
   2624, -0.200000003,  0.941176474,           0.
   2625, -0.200000003,           1.,           0.
   2626, -0.142857149,          -1.,  0.100000001
   2627, -0.142857149, -0.941176474,  0.100000001
   2628, -0.142857149, -0.882352948,  0.100000001
   2629, -0.142857149, -0.823529422,  0.100000001
   2630, -0.142857149, -0.764705896,  0.100000001
   2631, -0.142857149,  -0.70588237,  0.100000001
   2632, -0.142857149, -0.647058845,  0.100000001
   2633, -0.142857149, -0.588235319,  0.100000001
   2634, -0.142857149, -0.529411793,  0.100000001
   2635, -0.142857149, -0.470588237,  0.100000001
   2636, -0.142857149, -0.411764711,  0.100000001
   2637, -0.142857149, -0.352941185,  0.100000001
   2638, -0.142857149, -0.294117659,  0.100000001
   2639, -0.142857149, -0.235294119,  0.100000001
   2640, -0.142857149, -0.176470593,  0.100000001
   2641, -0.142857149, -0.117647059,  0.100000001
   2642, -0.142857149, -0.0588235296,  0.100000001
   2643, -0.142857149,           0.,  0.100000001
   2644, -0.142857149, 0.0588235296,  0.100000001
   2645, -0.142857149,  0.117647059,  0.100000001
   2646, -0.142857149,  0.176470593,  0.100000001
   2647, -0.142857149,  0.235294119,  0.100000001
   2648, -0.142857149,  0.294117659,  0.100000001
   2649, -0.142857149,  0.352941185,  0.100000001
   2650, -0.142857149,  0.411764711,  0.100000001
   2651, -0.142857149,  0.470588237,  0.100000001
   2652, -0.142857149,  0.529411793,  0.100000001
   2653, -0.142857149,  0.588235319,  0.100000001
   2654, -0.142857149,  0.647058845,  0.100000001
   2655, -0.142857149,   0.70588237,  0.100000001
   2656, -0.142857149,  0.764705896,  0.100000001
   2657, -0.142857149,  0.823529422,  0.100000001
   2658, -0.142857149,  0.882352948,  0.100000001
   2659, -0.142857149,  0.941176474,  0.100000001
   2660, -0.142857149,           1.,  0.100000001
   2661, -0.142857149,          -1.,  0.075000003
   2662, -0.142857149, -0.941176474,  0.075000003
   2663, -0.142857149, -0.882352948,  0.075000003
   2664, -0.142857149, -0.823529422,  0.075000003
   2665, -0.142857149, -0.764705896,  0.075000003
   2666, -0.142857149,  -0.70588237,  0.075000003
   2667, -0.142857149, -0.647058845,  0.075000003
   2668, -0.142857149, -0.588235319,  0.075000003
   2669, -0.142857149, -0.529411793,  0.075000003
   2670, -0.142857149, -0.470588237,  0.075000003
   2671, -0.142857149, -0.411764711,  0.075000003
   2672, -0.142857149, -0.352941185,  0.075000003
   2673, -0.142857149, -0.294117659,  0.075000003
   2674, -0.142857149, -0.235294119,  0.075000003
   2675, -0.142857149, -0.176470593,  0.075000003
   2676, -0.142857149, -0.117647059,  0.075000003
   2677, -0.142857149, -0.0588235296,  0.075000003
   2678, -0.142857149,           0.,  0.075000003
   2679, -0.142857149, 0.0588235296,  0.075000003
   2680, -0.142857149,  0.117647059,  0.075000003
   2681, -0.142857149,  0.176470593,  0.075000003
   2682, -0.142857149,  0.235294119,  0.075000003
   2683, -0.142857149,  0.294117659,  0.075000003
   2684, -0.142857149,  0.352941185,  0.075000003
   2685, -0.142857149,  0.411764711,  0.075000003
   2686, -0.142857149,  0.470588237,  0.075000003
   2687, -0.142857149,  0.529411793,  0.075000003
   2688, -0.142857149,  0.588235319,  0.075000003
   2689, -0.142857149,  0.647058845,  0.075000003
   2690, -0.142857149,   0.70588237,  0.075000003
   2691, -0.142857149,  0.764705896,  0.075000003
   2692, -0.142857149,  0.823529422,  0.075000003
   2693, -0.142857149,  0.882352948,  0.075000003
   2694, -0.142857149,  0.941176474,  0.075000003
   2695, -0.142857149,           1.,  0.075000003
   2696, -0.142857149,          -1., 0.0500000007
   2697, -0.142857149, -0.941176474, 0.0500000007
   2698, -0.142857149, -0.882352948, 0.0500000007
   2699, -0.142857149, -0.823529422, 0.0500000007
   2700, -0.142857149, -0.764705896, 0.0500000007
   2701, -0.142857149,  -0.70588237, 0.0500000007
   2702, -0.142857149, -0.647058845, 0.0500000007
   2703, -0.142857149, -0.588235319, 0.0500000007
   2704, -0.142857149, -0.529411793, 0.0500000007
   2705, -0.142857149, -0.470588237, 0.0500000007
   2706, -0.142857149, -0.411764711, 0.0500000007
   2707, -0.142857149, -0.352941185, 0.0500000007
   2708, -0.142857149, -0.294117659, 0.0500000007
   2709, -0.142857149, -0.235294119, 0.0500000007
   2710, -0.142857149, -0.176470593, 0.0500000007
   2711, -0.142857149, -0.117647059, 0.0500000007
   2712, -0.142857149, -0.0588235296, 0.0500000007
   2713, -0.142857149,           0., 0.0500000007
   2714, -0.142857149, 0.0588235296, 0.0500000007
   2715, -0.142857149,  0.117647059, 0.0500000007
   2716, -0.142857149,  0.176470593, 0.0500000007
   2717, -0.142857149,  0.235294119, 0.0500000007
   2718, -0.142857149,  0.294117659, 0.0500000007
   2719, -0.142857149,  0.352941185, 0.0500000007
   2720, -0.142857149,  0.411764711, 0.0500000007
   2721, -0.142857149,  0.470588237, 0.0500000007
   2722, -0.142857149,  0.529411793, 0.0500000007
   2723, -0.142857149,  0.588235319, 0.0500000007
   2724, -0.142857149,  0.647058845, 0.0500000007
   2725, -0.142857149,   0.70588237, 0.0500000007
   2726, -0.142857149,  0.764705896, 0.0500000007
   2727, -0.142857149,  0.823529422, 0.0500000007
   2728, -0.142857149,  0.882352948, 0.0500000007
   2729, -0.142857149,  0.941176474, 0.0500000007
   2730, -0.142857149,           1., 0.0500000007
   2731, -0.142857149,          -1., 0.0250000004
   2732, -0.142857149, -0.941176474, 0.0250000004
   2733, -0.142857149, -0.882352948, 0.0250000004
   2734, -0.142857149, -0.823529422, 0.0250000004
   2735, -0.142857149, -0.764705896, 0.0250000004
   2736, -0.142857149,  -0.70588237, 0.0250000004
   2737, -0.142857149, -0.647058845, 0.0250000004
   2738, -0.142857149, -0.588235319, 0.0250000004
   2739, -0.142857149, -0.529411793, 0.0250000004
   2740, -0.142857149, -0.470588237, 0.0250000004
   2741, -0.142857149, -0.411764711, 0.0250000004
   2742, -0.142857149, -0.352941185, 0.0250000004
   2743, -0.142857149, -0.294117659, 0.0250000004
   2744, -0.142857149, -0.235294119, 0.0250000004
   2745, -0.142857149, -0.176470593, 0.0250000004
   2746, -0.142857149, -0.117647059, 0.0250000004
   2747, -0.142857149, -0.0588235296, 0.0250000004
   2748, -0.142857149,           0., 0.0250000004
   2749, -0.142857149, 0.0588235296, 0.0250000004
   2750, -0.142857149,  0.117647059, 0.0250000004
   2751, -0.142857149,  0.176470593, 0.0250000004
   2752, -0.142857149,  0.235294119, 0.0250000004
   2753, -0.142857149,  0.294117659, 0.0250000004
   2754, -0.142857149,  0.352941185, 0.0250000004
   2755, -0.142857149,  0.411764711, 0.0250000004
   2756, -0.142857149,  0.470588237, 0.0250000004
   2757, -0.142857149,  0.529411793, 0.0250000004
   2758, -0.142857149,  0.588235319, 0.0250000004
   2759, -0.142857149,  0.647058845, 0.0250000004
   2760, -0.142857149,   0.70588237, 0.0250000004
   2761, -0.142857149,  0.764705896, 0.0250000004
   2762, -0.142857149,  0.823529422, 0.0250000004
   2763, -0.142857149,  0.882352948, 0.0250000004
   2764, -0.142857149,  0.941176474, 0.0250000004
   2765, -0.142857149,           1., 0.0250000004
   2766, -0.142857149,          -1.,           0.
   2767, -0.142857149, -0.941176474,           0.
   2768, -0.142857149, -0.882352948,           0.
   2769, -0.142857149, -0.823529422,           0.
   2770, -0.142857149, -0.764705896,           0.
   2771, -0.142857149,  -0.70588237,           0.
   2772, -0.142857149, -0.647058845,           0.
   2773, -0.142857149, -0.588235319,           0.
   2774, -0.142857149, -0.529411793,           0.
   2775, -0.142857149, -0.470588237,           0.
   2776, -0.142857149, -0.411764711,           0.
   2777, -0.142857149, -0.352941185,           0.
   2778, -0.142857149, -0.294117659,           0.
   2779, -0.142857149, -0.235294119,           0.
   2780, -0.142857149, -0.176470593,           0.
   2781, -0.142857149, -0.117647059,           0.
   2782, -0.142857149, -0.0588235296,           0.
   2783, -0.142857149,           0.,           0.
   2784, -0.142857149, 0.0588235296,           0.
   2785, -0.142857149,  0.117647059,           0.
   2786, -0.142857149,  0.176470593,           0.
   2787, -0.142857149,  0.235294119,           0.
   2788, -0.142857149,  0.294117659,           0.
   2789, -0.142857149,  0.352941185,           0.
   2790, -0.142857149,  0.411764711,           0.
   2791, -0.142857149,  0.470588237,           0.
   2792, -0.142857149,  0.529411793,           0.
   2793, -0.142857149,  0.588235319,           0.
   2794, -0.142857149,  0.647058845,           0.
   2795, -0.142857149,   0.70588237,           0.
   2796, -0.142857149,  0.764705896,           0.
   2797, -0.142857149,  0.823529422,           0.
   2798, -0.142857149,  0.882352948,           0.
   2799, -0.142857149,  0.941176474,           0.
   2800, -0.142857149,           1.,           0.
   2801, -0.0857142881,          -1.,  0.100000001
   2802, -0.0857142881, -0.941176474,  0.100000001
   2803, -0.0857142881, -0.882352948,  0.100000001
   2804, -0.0857142881, -0.823529422,  0.100000001
   2805, -0.0857142881, -0.764705896,  0.100000001
   2806, -0.0857142881,  -0.70588237,  0.100000001
   2807, -0.0857142881, -0.647058845,  0.100000001
   2808, -0.0857142881, -0.588235319,  0.100000001
   2809, -0.0857142881, -0.529411793,  0.100000001
   2810, -0.0857142881, -0.470588237,  0.100000001
   2811, -0.0857142881, -0.411764711,  0.100000001
   2812, -0.0857142881, -0.352941185,  0.100000001
   2813, -0.0857142881, -0.294117659,  0.100000001
   2814, -0.0857142881, -0.235294119,  0.100000001
   2815, -0.0857142881, -0.176470593,  0.100000001
   2816, -0.0857142881, -0.117647059,  0.100000001
   2817, -0.0857142881, -0.0588235296,  0.100000001
   2818, -0.0857142881,           0.,  0.100000001
   2819, -0.0857142881, 0.0588235296,  0.100000001
   2820, -0.0857142881,  0.117647059,  0.100000001
   2821, -0.0857142881,  0.176470593,  0.100000001
   2822, -0.0857142881,  0.235294119,  0.100000001
   2823, -0.0857142881,  0.294117659,  0.100000001
   2824, -0.0857142881,  0.352941185,  0.100000001
   2825, -0.0857142881,  0.411764711,  0.100000001
   2826, -0.0857142881,  0.470588237,  0.100000001
   2827, -0.0857142881,  0.529411793,  0.100000001
   2828, -0.0857142881,  0.588235319,  0.100000001
   2829, -0.0857142881,  0.647058845,  0.100000001
   2830, -0.0857142881,   0.70588237,  0.100000001
   2831, -0.0857142881,  0.764705896,  0.100000001
   2832, -0.0857142881,  0.823529422,  0.100000001
   2833, -0.0857142881,  0.882352948,  0.100000001
   2834, -0.0857142881,  0.941176474,  0.100000001
   2835, -0.0857142881,           1.,  0.100000001
   2836, -0.0857142881,          -1.,  0.075000003
   2837, -0.0857142881, -0.941176474,  0.075000003
   2838, -0.0857142881, -0.882352948,  0.075000003
   2839, -0.0857142881, -0.823529422,  0.075000003
   2840, -0.0857142881, -0.764705896,  0.075000003
   2841, -0.0857142881,  -0.70588237,  0.075000003
   2842, -0.0857142881, -0.647058845,  0.075000003
   2843, -0.0857142881, -0.588235319,  0.075000003
   2844, -0.0857142881, -0.529411793,  0.075000003
   2845, -0.0857142881, -0.470588237,  0.075000003
   2846, -0.0857142881, -0.411764711,  0.075000003
   2847, -0.0857142881, -0.352941185,  0.075000003
   2848, -0.0857142881, -0.294117659,  0.075000003
   2849, -0.0857142881, -0.235294119,  0.075000003
   2850, -0.0857142881, -0.176470593,  0.075000003
   2851, -0.0857142881, -0.117647059,  0.075000003
   2852, -0.0857142881, -0.0588235296,  0.075000003
   2853, -0.0857142881,           0.,  0.075000003
   2854, -0.0857142881, 0.0588235296,  0.075000003
   2855, -0.0857142881,  0.117647059,  0.075000003
   2856, -0.0857142881,  0.176470593,  0.075000003
   2857, -0.0857142881,  0.235294119,  0.075000003
   2858, -0.0857142881,  0.294117659,  0.075000003
   2859, -0.0857142881,  0.352941185,  0.075000003
   2860, -0.0857142881,  0.411764711,  0.075000003
   2861, -0.0857142881,  0.470588237,  0.075000003
   2862, -0.0857142881,  0.529411793,  0.075000003
   2863, -0.0857142881,  0.588235319,  0.075000003
   2864, -0.0857142881,  0.647058845,  0.075000003
   2865, -0.0857142881,   0.70588237,  0.075000003
   2866, -0.0857142881,  0.764705896,  0.075000003
   2867, -0.0857142881,  0.823529422,  0.075000003
   2868, -0.0857142881,  0.882352948,  0.075000003
   2869, -0.0857142881,  0.941176474,  0.075000003
   2870, -0.0857142881,           1.,  0.075000003
   2871, -0.0857142881,          -1., 0.0500000007
   2872, -0.0857142881, -0.941176474, 0.0500000007
   2873, -0.0857142881, -0.882352948, 0.0500000007
   2874, -0.0857142881, -0.823529422, 0.0500000007
   2875, -0.0857142881, -0.764705896, 0.0500000007
   2876, -0.0857142881,  -0.70588237, 0.0500000007
   2877, -0.0857142881, -0.647058845, 0.0500000007
   2878, -0.0857142881, -0.588235319, 0.0500000007
   2879, -0.0857142881, -0.529411793, 0.0500000007
   2880, -0.0857142881, -0.470588237, 0.0500000007
   2881, -0.0857142881, -0.411764711, 0.0500000007
   2882, -0.0857142881, -0.352941185, 0.0500000007
   2883, -0.0857142881, -0.294117659, 0.0500000007
   2884, -0.0857142881, -0.235294119, 0.0500000007
   2885, -0.0857142881, -0.176470593, 0.0500000007
   2886, -0.0857142881, -0.117647059, 0.0500000007
   2887, -0.0857142881, -0.0588235296, 0.0500000007
   2888, -0.0857142881,           0., 0.0500000007
   2889, -0.0857142881, 0.0588235296, 0.0500000007
   2890, -0.0857142881,  0.117647059, 0.0500000007
   2891, -0.0857142881,  0.176470593, 0.0500000007
   2892, -0.0857142881,  0.235294119, 0.0500000007
   2893, -0.0857142881,  0.294117659, 0.0500000007
   2894, -0.0857142881,  0.352941185, 0.0500000007
   2895, -0.0857142881,  0.411764711, 0.0500000007
   2896, -0.0857142881,  0.470588237, 0.0500000007
   2897, -0.0857142881,  0.529411793, 0.0500000007
   2898, -0.0857142881,  0.588235319, 0.0500000007
   2899, -0.0857142881,  0.647058845, 0.0500000007
   2900, -0.0857142881,   0.70588237, 0.0500000007
   2901, -0.0857142881,  0.764705896, 0.0500000007
   2902, -0.0857142881,  0.823529422, 0.0500000007
   2903, -0.0857142881,  0.882352948, 0.0500000007
   2904, -0.0857142881,  0.941176474, 0.0500000007
   2905, -0.0857142881,           1., 0.0500000007
   2906, -0.0857142881,          -1., 0.0250000004
   2907, -0.0857142881, -0.941176474, 0.0250000004
   2908, -0.0857142881, -0.882352948, 0.0250000004
   2909, -0.0857142881, -0.823529422, 0.0250000004
   2910, -0.0857142881, -0.764705896, 0.0250000004
   2911, -0.0857142881,  -0.70588237, 0.0250000004
   2912, -0.0857142881, -0.647058845, 0.0250000004
   2913, -0.0857142881, -0.588235319, 0.0250000004
   2914, -0.0857142881, -0.529411793, 0.0250000004
   2915, -0.0857142881, -0.470588237, 0.0250000004
   2916, -0.0857142881, -0.411764711, 0.0250000004
   2917, -0.0857142881, -0.352941185, 0.0250000004
   2918, -0.0857142881, -0.294117659, 0.0250000004
   2919, -0.0857142881, -0.235294119, 0.0250000004
   2920, -0.0857142881, -0.176470593, 0.0250000004
   2921, -0.0857142881, -0.117647059, 0.0250000004
   2922, -0.0857142881, -0.0588235296, 0.0250000004
   2923, -0.0857142881,           0., 0.0250000004
   2924, -0.0857142881, 0.0588235296, 0.0250000004
   2925, -0.0857142881,  0.117647059, 0.0250000004
   2926, -0.0857142881,  0.176470593, 0.0250000004
   2927, -0.0857142881,  0.235294119, 0.0250000004
   2928, -0.0857142881,  0.294117659, 0.0250000004
   2929, -0.0857142881,  0.352941185, 0.0250000004
   2930, -0.0857142881,  0.411764711, 0.0250000004
   2931, -0.0857142881,  0.470588237, 0.0250000004
   2932, -0.0857142881,  0.529411793, 0.0250000004
   2933, -0.0857142881,  0.588235319, 0.0250000004
   2934, -0.0857142881,  0.647058845, 0.0250000004
   2935, -0.0857142881,   0.70588237, 0.0250000004
   2936, -0.0857142881,  0.764705896, 0.0250000004
   2937, -0.0857142881,  0.823529422, 0.0250000004
   2938, -0.0857142881,  0.882352948, 0.0250000004
   2939, -0.0857142881,  0.941176474, 0.0250000004
   2940, -0.0857142881,           1., 0.0250000004
   2941, -0.0857142881,          -1.,           0.
   2942, -0.0857142881, -0.941176474,           0.
   2943, -0.0857142881, -0.882352948,           0.
   2944, -0.0857142881, -0.823529422,           0.
   2945, -0.0857142881, -0.764705896,           0.
   2946, -0.0857142881,  -0.70588237,           0.
   2947, -0.0857142881, -0.647058845,           0.
   2948, -0.0857142881, -0.588235319,           0.
   2949, -0.0857142881, -0.529411793,           0.
   2950, -0.0857142881, -0.470588237,           0.
   2951, -0.0857142881, -0.411764711,           0.
   2952, -0.0857142881, -0.352941185,           0.
   2953, -0.0857142881, -0.294117659,           0.
   2954, -0.0857142881, -0.235294119,           0.
   2955, -0.0857142881, -0.176470593,           0.
   2956, -0.0857142881, -0.117647059,           0.
   2957, -0.0857142881, -0.0588235296,           0.
   2958, -0.0857142881,           0.,           0.
   2959, -0.0857142881, 0.0588235296,           0.
   2960, -0.0857142881,  0.117647059,           0.
   2961, -0.0857142881,  0.176470593,           0.
   2962, -0.0857142881,  0.235294119,           0.
   2963, -0.0857142881,  0.294117659,           0.
   2964, -0.0857142881,  0.352941185,           0.
   2965, -0.0857142881,  0.411764711,           0.
   2966, -0.0857142881,  0.470588237,           0.
   2967, -0.0857142881,  0.529411793,           0.
   2968, -0.0857142881,  0.588235319,           0.
   2969, -0.0857142881,  0.647058845,           0.
   2970, -0.0857142881,   0.70588237,           0.
   2971, -0.0857142881,  0.764705896,           0.
   2972, -0.0857142881,  0.823529422,           0.
   2973, -0.0857142881,  0.882352948,           0.
   2974, -0.0857142881,  0.941176474,           0.
   2975, -0.0857142881,           1.,           0.
   2976, -0.0285714287,          -1.,  0.100000001
   2977, -0.0285714287, -0.941176474,  0.100000001
   2978, -0.0285714287, -0.882352948,  0.100000001
   2979, -0.0285714287, -0.823529422,  0.100000001
   2980, -0.0285714287, -0.764705896,  0.100000001
   2981, -0.0285714287,  -0.70588237,  0.100000001
   2982, -0.0285714287, -0.647058845,  0.100000001
   2983, -0.0285714287, -0.588235319,  0.100000001
   2984, -0.0285714287, -0.529411793,  0.100000001
   2985, -0.0285714287, -0.470588237,  0.100000001
   2986, -0.0285714287, -0.411764711,  0.100000001
   2987, -0.0285714287, -0.352941185,  0.100000001
   2988, -0.0285714287, -0.294117659,  0.100000001
   2989, -0.0285714287, -0.235294119,  0.100000001
   2990, -0.0285714287, -0.176470593,  0.100000001
   2991, -0.0285714287, -0.117647059,  0.100000001
   2992, -0.0285714287, -0.0588235296,  0.100000001
   2993, -0.0285714287,           0.,  0.100000001
   2994, -0.0285714287, 0.0588235296,  0.100000001
   2995, -0.0285714287,  0.117647059,  0.100000001
   2996, -0.0285714287,  0.176470593,  0.100000001
   2997, -0.0285714287,  0.235294119,  0.100000001
   2998, -0.0285714287,  0.294117659,  0.100000001
   2999, -0.0285714287,  0.352941185,  0.100000001
   3000, -0.0285714287,  0.411764711,  0.100000001
   3001, -0.0285714287,  0.470588237,  0.100000001
   3002, -0.0285714287,  0.529411793,  0.100000001
   3003, -0.0285714287,  0.588235319,  0.100000001
   3004, -0.0285714287,  0.647058845,  0.100000001
   3005, -0.0285714287,   0.70588237,  0.100000001
   3006, -0.0285714287,  0.764705896,  0.100000001
   3007, -0.0285714287,  0.823529422,  0.100000001
   3008, -0.0285714287,  0.882352948,  0.100000001
   3009, -0.0285714287,  0.941176474,  0.100000001
   3010, -0.0285714287,           1.,  0.100000001
   3011, -0.0285714287,          -1.,  0.075000003
   3012, -0.0285714287, -0.941176474,  0.075000003
   3013, -0.0285714287, -0.882352948,  0.075000003
   3014, -0.0285714287, -0.823529422,  0.075000003
   3015, -0.0285714287, -0.764705896,  0.075000003
   3016, -0.0285714287,  -0.70588237,  0.075000003
   3017, -0.0285714287, -0.647058845,  0.075000003
   3018, -0.0285714287, -0.588235319,  0.075000003
   3019, -0.0285714287, -0.529411793,  0.075000003
   3020, -0.0285714287, -0.470588237,  0.075000003
   3021, -0.0285714287, -0.411764711,  0.075000003
   3022, -0.0285714287, -0.352941185,  0.075000003
   3023, -0.0285714287, -0.294117659,  0.075000003
   3024, -0.0285714287, -0.235294119,  0.075000003
   3025, -0.0285714287, -0.176470593,  0.075000003
   3026, -0.0285714287, -0.117647059,  0.075000003
   3027, -0.0285714287, -0.0588235296,  0.075000003
   3028, -0.0285714287,           0.,  0.075000003
   3029, -0.0285714287, 0.0588235296,  0.075000003
   3030, -0.0285714287,  0.117647059,  0.075000003
   3031, -0.0285714287,  0.176470593,  0.075000003
   3032, -0.0285714287,  0.235294119,  0.075000003
   3033, -0.0285714287,  0.294117659,  0.075000003
   3034, -0.0285714287,  0.352941185,  0.075000003
   3035, -0.0285714287,  0.411764711,  0.075000003
   3036, -0.0285714287,  0.470588237,  0.075000003
   3037, -0.0285714287,  0.529411793,  0.075000003
   3038, -0.0285714287,  0.588235319,  0.075000003
   3039, -0.0285714287,  0.647058845,  0.075000003
   3040, -0.0285714287,   0.70588237,  0.075000003
   3041, -0.0285714287,  0.764705896,  0.075000003
   3042, -0.0285714287,  0.823529422,  0.075000003
   3043, -0.0285714287,  0.882352948,  0.075000003
   3044, -0.0285714287,  0.941176474,  0.075000003
   3045, -0.0285714287,           1.,  0.075000003
   3046, -0.0285714287,          -1., 0.0500000007
   3047, -0.0285714287, -0.941176474, 0.0500000007
   3048, -0.0285714287, -0.882352948, 0.0500000007
   3049, -0.0285714287, -0.823529422, 0.0500000007
   3050, -0.0285714287, -0.764705896, 0.0500000007
   3051, -0.0285714287,  -0.70588237, 0.0500000007
   3052, -0.0285714287, -0.647058845, 0.0500000007
   3053, -0.0285714287, -0.588235319, 0.0500000007
   3054, -0.0285714287, -0.529411793, 0.0500000007
   3055, -0.0285714287, -0.470588237, 0.0500000007
   3056, -0.0285714287, -0.411764711, 0.0500000007
   3057, -0.0285714287, -0.352941185, 0.0500000007
   3058, -0.0285714287, -0.294117659, 0.0500000007
   3059, -0.0285714287, -0.235294119, 0.0500000007
   3060, -0.0285714287, -0.176470593, 0.0500000007
   3061, -0.0285714287, -0.117647059, 0.0500000007
   3062, -0.0285714287, -0.0588235296, 0.0500000007
   3063, -0.0285714287,           0., 0.0500000007
   3064, -0.0285714287, 0.0588235296, 0.0500000007
   3065, -0.0285714287,  0.117647059, 0.0500000007
   3066, -0.0285714287,  0.176470593, 0.0500000007
   3067, -0.0285714287,  0.235294119, 0.0500000007
   3068, -0.0285714287,  0.294117659, 0.0500000007
   3069, -0.0285714287,  0.352941185, 0.0500000007
   3070, -0.0285714287,  0.411764711, 0.0500000007
   3071, -0.0285714287,  0.470588237, 0.0500000007
   3072, -0.0285714287,  0.529411793, 0.0500000007
   3073, -0.0285714287,  0.588235319, 0.0500000007
   3074, -0.0285714287,  0.647058845, 0.0500000007
   3075, -0.0285714287,   0.70588237, 0.0500000007
   3076, -0.0285714287,  0.764705896, 0.0500000007
   3077, -0.0285714287,  0.823529422, 0.0500000007
   3078, -0.0285714287,  0.882352948, 0.0500000007
   3079, -0.0285714287,  0.941176474, 0.0500000007
   3080, -0.0285714287,           1., 0.0500000007
   3081, -0.0285714287,          -1., 0.0250000004
   3082, -0.0285714287, -0.941176474, 0.0250000004
   3083, -0.0285714287, -0.882352948, 0.0250000004
   3084, -0.0285714287, -0.823529422, 0.0250000004
   3085, -0.0285714287, -0.764705896, 0.0250000004
   3086, -0.0285714287,  -0.70588237, 0.0250000004
   3087, -0.0285714287, -0.647058845, 0.0250000004
   3088, -0.0285714287, -0.588235319, 0.0250000004
   3089, -0.0285714287, -0.529411793, 0.0250000004
   3090, -0.0285714287, -0.470588237, 0.0250000004
   3091, -0.0285714287, -0.411764711, 0.0250000004
   3092, -0.0285714287, -0.352941185, 0.0250000004
   3093, -0.0285714287, -0.294117659, 0.0250000004
   3094, -0.0285714287, -0.235294119, 0.0250000004
   3095, -0.0285714287, -0.176470593, 0.0250000004
   3096, -0.0285714287, -0.117647059, 0.0250000004
   3097, -0.0285714287, -0.0588235296, 0.0250000004
   3098, -0.0285714287,           0., 0.0250000004
   3099, -0.0285714287, 0.0588235296, 0.0250000004
   3100, -0.0285714287,  0.117647059, 0.0250000004
   3101, -0.0285714287,  0.176470593, 0.0250000004
   3102, -0.0285714287,  0.235294119, 0.0250000004
   3103, -0.0285714287,  0.294117659, 0.0250000004
   3104, -0.0285714287,  0.352941185, 0.0250000004
   3105, -0.0285714287,  0.411764711, 0.0250000004
   3106, -0.0285714287,  0.470588237, 0.0250000004
   3107, -0.0285714287,  0.529411793, 0.0250000004
   3108, -0.0285714287,  0.588235319, 0.0250000004
   3109, -0.0285714287,  0.647058845, 0.0250000004
   3110, -0.0285714287,   0.70588237, 0.0250000004
   3111, -0.0285714287,  0.764705896, 0.0250000004
   3112, -0.0285714287,  0.823529422, 0.0250000004
   3113, -0.0285714287,  0.882352948, 0.0250000004
   3114, -0.0285714287,  0.941176474, 0.0250000004
   3115, -0.0285714287,           1., 0.0250000004
   3116, -0.0285714287,          -1.,           0.
   3117, -0.0285714287, -0.941176474,           0.
   3118, -0.0285714287, -0.882352948,           0.
   3119, -0.0285714287, -0.823529422,           0.
   3120, -0.0285714287, -0.764705896,           0.
   3121, -0.0285714287,  -0.70588237,           0.
   3122, -0.0285714287, -0.647058845,           0.
   3123, -0.0285714287, -0.588235319,           0.
   3124, -0.0285714287, -0.529411793,           0.
   3125, -0.0285714287, -0.470588237,           0.
   3126, -0.0285714287, -0.411764711,           0.
   3127, -0.0285714287, -0.352941185,           0.
   3128, -0.0285714287, -0.294117659,           0.
   3129, -0.0285714287, -0.235294119,           0.
   3130, -0.0285714287, -0.176470593,           0.
   3131, -0.0285714287, -0.117647059,           0.
   3132, -0.0285714287, -0.0588235296,           0.
   3133, -0.0285714287,           0.,           0.
   3134, -0.0285714287, 0.0588235296,           0.
   3135, -0.0285714287,  0.117647059,           0.
   3136, -0.0285714287,  0.176470593,           0.
   3137, -0.0285714287,  0.235294119,           0.
   3138, -0.0285714287,  0.294117659,           0.
   3139, -0.0285714287,  0.352941185,           0.
   3140, -0.0285714287,  0.411764711,           0.
   3141, -0.0285714287,  0.470588237,           0.
   3142, -0.0285714287,  0.529411793,           0.
   3143, -0.0285714287,  0.588235319,           0.
   3144, -0.0285714287,  0.647058845,           0.
   3145, -0.0285714287,   0.70588237,           0.
   3146, -0.0285714287,  0.764705896,           0.
   3147, -0.0285714287,  0.823529422,           0.
   3148, -0.0285714287,  0.882352948,           0.
   3149, -0.0285714287,  0.941176474,           0.
   3150, -0.0285714287,           1.,           0.
   3151, 0.0285714287,          -1.,  0.100000001
   3152, 0.0285714287, -0.941176474,  0.100000001
   3153, 0.0285714287, -0.882352948,  0.100000001
   3154, 0.0285714287, -0.823529422,  0.100000001
   3155, 0.0285714287, -0.764705896,  0.100000001
   3156, 0.0285714287,  -0.70588237,  0.100000001
   3157, 0.0285714287, -0.647058845,  0.100000001
   3158, 0.0285714287, -0.588235319,  0.100000001
   3159, 0.0285714287, -0.529411793,  0.100000001
   3160, 0.0285714287, -0.470588237,  0.100000001
   3161, 0.0285714287, -0.411764711,  0.100000001
   3162, 0.0285714287, -0.352941185,  0.100000001
   3163, 0.0285714287, -0.294117659,  0.100000001
   3164, 0.0285714287, -0.235294119,  0.100000001
   3165, 0.0285714287, -0.176470593,  0.100000001
   3166, 0.0285714287, -0.117647059,  0.100000001
   3167, 0.0285714287, -0.0588235296,  0.100000001
   3168, 0.0285714287,           0.,  0.100000001
   3169, 0.0285714287, 0.0588235296,  0.100000001
   3170, 0.0285714287,  0.117647059,  0.100000001
   3171, 0.0285714287,  0.176470593,  0.100000001
   3172, 0.0285714287,  0.235294119,  0.100000001
   3173, 0.0285714287,  0.294117659,  0.100000001
   3174, 0.0285714287,  0.352941185,  0.100000001
   3175, 0.0285714287,  0.411764711,  0.100000001
   3176, 0.0285714287,  0.470588237,  0.100000001
   3177, 0.0285714287,  0.529411793,  0.100000001
   3178, 0.0285714287,  0.588235319,  0.100000001
   3179, 0.0285714287,  0.647058845,  0.100000001
   3180, 0.0285714287,   0.70588237,  0.100000001
   3181, 0.0285714287,  0.764705896,  0.100000001
   3182, 0.0285714287,  0.823529422,  0.100000001
   3183, 0.0285714287,  0.882352948,  0.100000001
   3184, 0.0285714287,  0.941176474,  0.100000001
   3185, 0.0285714287,           1.,  0.100000001
   3186, 0.0285714287,          -1.,  0.075000003
   3187, 0.0285714287, -0.941176474,  0.075000003
   3188, 0.0285714287, -0.882352948,  0.075000003
   3189, 0.0285714287, -0.823529422,  0.075000003
   3190, 0.0285714287, -0.764705896,  0.075000003
   3191, 0.0285714287,  -0.70588237,  0.075000003
   3192, 0.0285714287, -0.647058845,  0.075000003
   3193, 0.0285714287, -0.588235319,  0.075000003
   3194, 0.0285714287, -0.529411793,  0.075000003
   3195, 0.0285714287, -0.470588237,  0.075000003
   3196, 0.0285714287, -0.411764711,  0.075000003
   3197, 0.0285714287, -0.352941185,  0.075000003
   3198, 0.0285714287, -0.294117659,  0.075000003
   3199, 0.0285714287, -0.235294119,  0.075000003
   3200, 0.0285714287, -0.176470593,  0.075000003
   3201, 0.0285714287, -0.117647059,  0.075000003
   3202, 0.0285714287, -0.0588235296,  0.075000003
   3203, 0.0285714287,           0.,  0.075000003
   3204, 0.0285714287, 0.0588235296,  0.075000003
   3205, 0.0285714287,  0.117647059,  0.075000003
   3206, 0.0285714287,  0.176470593,  0.075000003
   3207, 0.0285714287,  0.235294119,  0.075000003
   3208, 0.0285714287,  0.294117659,  0.075000003
   3209, 0.0285714287,  0.352941185,  0.075000003
   3210, 0.0285714287,  0.411764711,  0.075000003
   3211, 0.0285714287,  0.470588237,  0.075000003
   3212, 0.0285714287,  0.529411793,  0.075000003
   3213, 0.0285714287,  0.588235319,  0.075000003
   3214, 0.0285714287,  0.647058845,  0.075000003
   3215, 0.0285714287,   0.70588237,  0.075000003
   3216, 0.0285714287,  0.764705896,  0.075000003
   3217, 0.0285714287,  0.823529422,  0.075000003
   3218, 0.0285714287,  0.882352948,  0.075000003
   3219, 0.0285714287,  0.941176474,  0.075000003
   3220, 0.0285714287,           1.,  0.075000003
   3221, 0.0285714287,          -1., 0.0500000007
   3222, 0.0285714287, -0.941176474, 0.0500000007
   3223, 0.0285714287, -0.882352948, 0.0500000007
   3224, 0.0285714287, -0.823529422, 0.0500000007
   3225, 0.0285714287, -0.764705896, 0.0500000007
   3226, 0.0285714287,  -0.70588237, 0.0500000007
   3227, 0.0285714287, -0.647058845, 0.0500000007
   3228, 0.0285714287, -0.588235319, 0.0500000007
   3229, 0.0285714287, -0.529411793, 0.0500000007
   3230, 0.0285714287, -0.470588237, 0.0500000007
   3231, 0.0285714287, -0.411764711, 0.0500000007
   3232, 0.0285714287, -0.352941185, 0.0500000007
   3233, 0.0285714287, -0.294117659, 0.0500000007
   3234, 0.0285714287, -0.235294119, 0.0500000007
   3235, 0.0285714287, -0.176470593, 0.0500000007
   3236, 0.0285714287, -0.117647059, 0.0500000007
   3237, 0.0285714287, -0.0588235296, 0.0500000007
   3238, 0.0285714287,           0., 0.0500000007
   3239, 0.0285714287, 0.0588235296, 0.0500000007
   3240, 0.0285714287,  0.117647059, 0.0500000007
   3241, 0.0285714287,  0.176470593, 0.0500000007
   3242, 0.0285714287,  0.235294119, 0.0500000007
   3243, 0.0285714287,  0.294117659, 0.0500000007
   3244, 0.0285714287,  0.352941185, 0.0500000007
   3245, 0.0285714287,  0.411764711, 0.0500000007
   3246, 0.0285714287,  0.470588237, 0.0500000007
   3247, 0.0285714287,  0.529411793, 0.0500000007
   3248, 0.0285714287,  0.588235319, 0.0500000007
   3249, 0.0285714287,  0.647058845, 0.0500000007
   3250, 0.0285714287,   0.70588237, 0.0500000007
   3251, 0.0285714287,  0.764705896, 0.0500000007
   3252, 0.0285714287,  0.823529422, 0.0500000007
   3253, 0.0285714287,  0.882352948, 0.0500000007
   3254, 0.0285714287,  0.941176474, 0.0500000007
   3255, 0.0285714287,           1., 0.0500000007
   3256, 0.0285714287,          -1., 0.0250000004
   3257, 0.0285714287, -0.941176474, 0.0250000004
   3258, 0.0285714287, -0.882352948, 0.0250000004
   3259, 0.0285714287, -0.823529422, 0.0250000004
   3260, 0.0285714287, -0.764705896, 0.0250000004
   3261, 0.0285714287,  -0.70588237, 0.0250000004
   3262, 0.0285714287, -0.647058845, 0.0250000004
   3263, 0.0285714287, -0.588235319, 0.0250000004
   3264, 0.0285714287, -0.529411793, 0.0250000004
   3265, 0.0285714287, -0.470588237, 0.0250000004
   3266, 0.0285714287, -0.411764711, 0.0250000004
   3267, 0.0285714287, -0.352941185, 0.0250000004
   3268, 0.0285714287, -0.294117659, 0.0250000004
   3269, 0.0285714287, -0.235294119, 0.0250000004
   3270, 0.0285714287, -0.176470593, 0.0250000004
   3271, 0.0285714287, -0.117647059, 0.0250000004
   3272, 0.0285714287, -0.0588235296, 0.0250000004
   3273, 0.0285714287,           0., 0.0250000004
   3274, 0.0285714287, 0.0588235296, 0.0250000004
   3275, 0.0285714287,  0.117647059, 0.0250000004
   3276, 0.0285714287,  0.176470593, 0.0250000004
   3277, 0.0285714287,  0.235294119, 0.0250000004
   3278, 0.0285714287,  0.294117659, 0.0250000004
   3279, 0.0285714287,  0.352941185, 0.0250000004
   3280, 0.0285714287,  0.411764711, 0.0250000004
   3281, 0.0285714287,  0.470588237, 0.0250000004
   3282, 0.0285714287,  0.529411793, 0.0250000004
   3283, 0.0285714287,  0.588235319, 0.0250000004
   3284, 0.0285714287,  0.647058845, 0.0250000004
   3285, 0.0285714287,   0.70588237, 0.0250000004
   3286, 0.0285714287,  0.764705896, 0.0250000004
   3287, 0.0285714287,  0.823529422, 0.0250000004
   3288, 0.0285714287,  0.882352948, 0.0250000004
   3289, 0.0285714287,  0.941176474, 0.0250000004
   3290, 0.0285714287,           1., 0.0250000004
   3291, 0.0285714287,          -1.,           0.
   3292, 0.0285714287, -0.941176474,           0.
   3293, 0.0285714287, -0.882352948,           0.
   3294, 0.0285714287, -0.823529422,           0.
   3295, 0.0285714287, -0.764705896,           0.
   3296, 0.0285714287,  -0.70588237,           0.
   3297, 0.0285714287, -0.647058845,           0.
   3298, 0.0285714287, -0.588235319,           0.
   3299, 0.0285714287, -0.529411793,           0.
   3300, 0.0285714287, -0.470588237,           0.
   3301, 0.0285714287, -0.411764711,           0.
   3302, 0.0285714287, -0.352941185,           0.
   3303, 0.0285714287, -0.294117659,           0.
   3304, 0.0285714287, -0.235294119,           0.
   3305, 0.0285714287, -0.176470593,           0.
   3306, 0.0285714287, -0.117647059,           0.
   3307, 0.0285714287, -0.0588235296,           0.
   3308, 0.0285714287,           0.,           0.
   3309, 0.0285714287, 0.0588235296,           0.
   3310, 0.0285714287,  0.117647059,           0.
   3311, 0.0285714287,  0.176470593,           0.
   3312, 0.0285714287,  0.235294119,           0.
   3313, 0.0285714287,  0.294117659,           0.
   3314, 0.0285714287,  0.352941185,           0.
   3315, 0.0285714287,  0.411764711,           0.
   3316, 0.0285714287,  0.470588237,           0.
   3317, 0.0285714287,  0.529411793,           0.
   3318, 0.0285714287,  0.588235319,           0.
   3319, 0.0285714287,  0.647058845,           0.
   3320, 0.0285714287,   0.70588237,           0.
   3321, 0.0285714287,  0.764705896,           0.
   3322, 0.0285714287,  0.823529422,           0.
   3323, 0.0285714287,  0.882352948,           0.
   3324, 0.0285714287,  0.941176474,           0.
   3325, 0.0285714287,           1.,           0.
   3326, 0.0857142881,          -1.,  0.100000001
   3327, 0.0857142881, -0.941176474,  0.100000001
   3328, 0.0857142881, -0.882352948,  0.100000001
   3329, 0.0857142881, -0.823529422,  0.100000001
   3330, 0.0857142881, -0.764705896,  0.100000001
   3331, 0.0857142881,  -0.70588237,  0.100000001
   3332, 0.0857142881, -0.647058845,  0.100000001
   3333, 0.0857142881, -0.588235319,  0.100000001
   3334, 0.0857142881, -0.529411793,  0.100000001
   3335, 0.0857142881, -0.470588237,  0.100000001
   3336, 0.0857142881, -0.411764711,  0.100000001
   3337, 0.0857142881, -0.352941185,  0.100000001
   3338, 0.0857142881, -0.294117659,  0.100000001
   3339, 0.0857142881, -0.235294119,  0.100000001
   3340, 0.0857142881, -0.176470593,  0.100000001
   3341, 0.0857142881, -0.117647059,  0.100000001
   3342, 0.0857142881, -0.0588235296,  0.100000001
   3343, 0.0857142881,           0.,  0.100000001
   3344, 0.0857142881, 0.0588235296,  0.100000001
   3345, 0.0857142881,  0.117647059,  0.100000001
   3346, 0.0857142881,  0.176470593,  0.100000001
   3347, 0.0857142881,  0.235294119,  0.100000001
   3348, 0.0857142881,  0.294117659,  0.100000001
   3349, 0.0857142881,  0.352941185,  0.100000001
   3350, 0.0857142881,  0.411764711,  0.100000001
   3351, 0.0857142881,  0.470588237,  0.100000001
   3352, 0.0857142881,  0.529411793,  0.100000001
   3353, 0.0857142881,  0.588235319,  0.100000001
   3354, 0.0857142881,  0.647058845,  0.100000001
   3355, 0.0857142881,   0.70588237,  0.100000001
   3356, 0.0857142881,  0.764705896,  0.100000001
   3357, 0.0857142881,  0.823529422,  0.100000001
   3358, 0.0857142881,  0.882352948,  0.100000001
   3359, 0.0857142881,  0.941176474,  0.100000001
   3360, 0.0857142881,           1.,  0.100000001
   3361, 0.0857142881,          -1.,  0.075000003
   3362, 0.0857142881, -0.941176474,  0.075000003
   3363, 0.0857142881, -0.882352948,  0.075000003
   3364, 0.0857142881, -0.823529422,  0.075000003
   3365, 0.0857142881, -0.764705896,  0.075000003
   3366, 0.0857142881,  -0.70588237,  0.075000003
   3367, 0.0857142881, -0.647058845,  0.075000003
   3368, 0.0857142881, -0.588235319,  0.075000003
   3369, 0.0857142881, -0.529411793,  0.075000003
   3370, 0.0857142881, -0.470588237,  0.075000003
   3371, 0.0857142881, -0.411764711,  0.075000003
   3372, 0.0857142881, -0.352941185,  0.075000003
   3373, 0.0857142881, -0.294117659,  0.075000003
   3374, 0.0857142881, -0.235294119,  0.075000003
   3375, 0.0857142881, -0.176470593,  0.075000003
   3376, 0.0857142881, -0.117647059,  0.075000003
   3377, 0.0857142881, -0.0588235296,  0.075000003
   3378, 0.0857142881,           0.,  0.075000003
   3379, 0.0857142881, 0.0588235296,  0.075000003
   3380, 0.0857142881,  0.117647059,  0.075000003
   3381, 0.0857142881,  0.176470593,  0.075000003
   3382, 0.0857142881,  0.235294119,  0.075000003
   3383, 0.0857142881,  0.294117659,  0.075000003
   3384, 0.0857142881,  0.352941185,  0.075000003
   3385, 0.0857142881,  0.411764711,  0.075000003
   3386, 0.0857142881,  0.470588237,  0.075000003
   3387, 0.0857142881,  0.529411793,  0.075000003
   3388, 0.0857142881,  0.588235319,  0.075000003
   3389, 0.0857142881,  0.647058845,  0.075000003
   3390, 0.0857142881,   0.70588237,  0.075000003
   3391, 0.0857142881,  0.764705896,  0.075000003
   3392, 0.0857142881,  0.823529422,  0.075000003
   3393, 0.0857142881,  0.882352948,  0.075000003
   3394, 0.0857142881,  0.941176474,  0.075000003
   3395, 0.0857142881,           1.,  0.075000003
   3396, 0.0857142881,          -1., 0.0500000007
   3397, 0.0857142881, -0.941176474, 0.0500000007
   3398, 0.0857142881, -0.882352948, 0.0500000007
   3399, 0.0857142881, -0.823529422, 0.0500000007
   3400, 0.0857142881, -0.764705896, 0.0500000007
   3401, 0.0857142881,  -0.70588237, 0.0500000007
   3402, 0.0857142881, -0.647058845, 0.0500000007
   3403, 0.0857142881, -0.588235319, 0.0500000007
   3404, 0.0857142881, -0.529411793, 0.0500000007
   3405, 0.0857142881, -0.470588237, 0.0500000007
   3406, 0.0857142881, -0.411764711, 0.0500000007
   3407, 0.0857142881, -0.352941185, 0.0500000007
   3408, 0.0857142881, -0.294117659, 0.0500000007
   3409, 0.0857142881, -0.235294119, 0.0500000007
   3410, 0.0857142881, -0.176470593, 0.0500000007
   3411, 0.0857142881, -0.117647059, 0.0500000007
   3412, 0.0857142881, -0.0588235296, 0.0500000007
   3413, 0.0857142881,           0., 0.0500000007
   3414, 0.0857142881, 0.0588235296, 0.0500000007
   3415, 0.0857142881,  0.117647059, 0.0500000007
   3416, 0.0857142881,  0.176470593, 0.0500000007
   3417, 0.0857142881,  0.235294119, 0.0500000007
   3418, 0.0857142881,  0.294117659, 0.0500000007
   3419, 0.0857142881,  0.352941185, 0.0500000007
   3420, 0.0857142881,  0.411764711, 0.0500000007
   3421, 0.0857142881,  0.470588237, 0.0500000007
   3422, 0.0857142881,  0.529411793, 0.0500000007
   3423, 0.0857142881,  0.588235319, 0.0500000007
   3424, 0.0857142881,  0.647058845, 0.0500000007
   3425, 0.0857142881,   0.70588237, 0.0500000007
   3426, 0.0857142881,  0.764705896, 0.0500000007
   3427, 0.0857142881,  0.823529422, 0.0500000007
   3428, 0.0857142881,  0.882352948, 0.0500000007
   3429, 0.0857142881,  0.941176474, 0.0500000007
   3430, 0.0857142881,           1., 0.0500000007
   3431, 0.0857142881,          -1., 0.0250000004
   3432, 0.0857142881, -0.941176474, 0.0250000004
   3433, 0.0857142881, -0.882352948, 0.0250000004
   3434, 0.0857142881, -0.823529422, 0.0250000004
   3435, 0.0857142881, -0.764705896, 0.0250000004
   3436, 0.0857142881,  -0.70588237, 0.0250000004
   3437, 0.0857142881, -0.647058845, 0.0250000004
   3438, 0.0857142881, -0.588235319, 0.0250000004
   3439, 0.0857142881, -0.529411793, 0.0250000004
   3440, 0.0857142881, -0.470588237, 0.0250000004
   3441, 0.0857142881, -0.411764711, 0.0250000004
   3442, 0.0857142881, -0.352941185, 0.0250000004
   3443, 0.0857142881, -0.294117659, 0.0250000004
   3444, 0.0857142881, -0.235294119, 0.0250000004
   3445, 0.0857142881, -0.176470593, 0.0250000004
   3446, 0.0857142881, -0.117647059, 0.0250000004
   3447, 0.0857142881, -0.0588235296, 0.0250000004
   3448, 0.0857142881,           0., 0.0250000004
   3449, 0.0857142881, 0.0588235296, 0.0250000004
   3450, 0.0857142881,  0.117647059, 0.0250000004
   3451, 0.0857142881,  0.176470593, 0.0250000004
   3452, 0.0857142881,  0.235294119, 0.0250000004
   3453, 0.0857142881,  0.294117659, 0.0250000004
   3454, 0.0857142881,  0.352941185, 0.0250000004
   3455, 0.0857142881,  0.411764711, 0.0250000004
   3456, 0.0857142881,  0.470588237, 0.0250000004
   3457, 0.0857142881,  0.529411793, 0.0250000004
   3458, 0.0857142881,  0.588235319, 0.0250000004
   3459, 0.0857142881,  0.647058845, 0.0250000004
   3460, 0.0857142881,   0.70588237, 0.0250000004
   3461, 0.0857142881,  0.764705896, 0.0250000004
   3462, 0.0857142881,  0.823529422, 0.0250000004
   3463, 0.0857142881,  0.882352948, 0.0250000004
   3464, 0.0857142881,  0.941176474, 0.0250000004
   3465, 0.0857142881,           1., 0.0250000004
   3466, 0.0857142881,          -1.,           0.
   3467, 0.0857142881, -0.941176474,           0.
   3468, 0.0857142881, -0.882352948,           0.
   3469, 0.0857142881, -0.823529422,           0.
   3470, 0.0857142881, -0.764705896,           0.
   3471, 0.0857142881,  -0.70588237,           0.
   3472, 0.0857142881, -0.647058845,           0.
   3473, 0.0857142881, -0.588235319,           0.
   3474, 0.0857142881, -0.529411793,           0.
   3475, 0.0857142881, -0.470588237,           0.
   3476, 0.0857142881, -0.411764711,           0.
   3477, 0.0857142881, -0.352941185,           0.
   3478, 0.0857142881, -0.294117659,           0.
   3479, 0.0857142881, -0.235294119,           0.
   3480, 0.0857142881, -0.176470593,           0.
   3481, 0.0857142881, -0.117647059,           0.
   3482, 0.0857142881, -0.0588235296,           0.
   3483, 0.0857142881,           0.,           0.
   3484, 0.0857142881, 0.0588235296,           0.
   3485, 0.0857142881,  0.117647059,           0.
   3486, 0.0857142881,  0.176470593,           0.
   3487, 0.0857142881,  0.235294119,           0.
   3488, 0.0857142881,  0.294117659,           0.
   3489, 0.0857142881,  0.352941185,           0.
   3490, 0.0857142881,  0.411764711,           0.
   3491, 0.0857142881,  0.470588237,           0.
   3492, 0.0857142881,  0.529411793,           0.
   3493, 0.0857142881,  0.588235319,           0.
   3494, 0.0857142881,  0.647058845,           0.
   3495, 0.0857142881,   0.70588237,           0.
   3496, 0.0857142881,  0.764705896,           0.
   3497, 0.0857142881,  0.823529422,           0.
   3498, 0.0857142881,  0.882352948,           0.
   3499, 0.0857142881,  0.941176474,           0.
   3500, 0.0857142881,           1.,           0.
   3501,  0.142857149,          -1.,  0.100000001
   3502,  0.142857149, -0.941176474,  0.100000001
   3503,  0.142857149, -0.882352948,  0.100000001
   3504,  0.142857149, -0.823529422,  0.100000001
   3505,  0.142857149, -0.764705896,  0.100000001
   3506,  0.142857149,  -0.70588237,  0.100000001
   3507,  0.142857149, -0.647058845,  0.100000001
   3508,  0.142857149, -0.588235319,  0.100000001
   3509,  0.142857149, -0.529411793,  0.100000001
   3510,  0.142857149, -0.470588237,  0.100000001
   3511,  0.142857149, -0.411764711,  0.100000001
   3512,  0.142857149, -0.352941185,  0.100000001
   3513,  0.142857149, -0.294117659,  0.100000001
   3514,  0.142857149, -0.235294119,  0.100000001
   3515,  0.142857149, -0.176470593,  0.100000001
   3516,  0.142857149, -0.117647059,  0.100000001
   3517,  0.142857149, -0.0588235296,  0.100000001
   3518,  0.142857149,           0.,  0.100000001
   3519,  0.142857149, 0.0588235296,  0.100000001
   3520,  0.142857149,  0.117647059,  0.100000001
   3521,  0.142857149,  0.176470593,  0.100000001
   3522,  0.142857149,  0.235294119,  0.100000001
   3523,  0.142857149,  0.294117659,  0.100000001
   3524,  0.142857149,  0.352941185,  0.100000001
   3525,  0.142857149,  0.411764711,  0.100000001
   3526,  0.142857149,  0.470588237,  0.100000001
   3527,  0.142857149,  0.529411793,  0.100000001
   3528,  0.142857149,  0.588235319,  0.100000001
   3529,  0.142857149,  0.647058845,  0.100000001
   3530,  0.142857149,   0.70588237,  0.100000001
   3531,  0.142857149,  0.764705896,  0.100000001
   3532,  0.142857149,  0.823529422,  0.100000001
   3533,  0.142857149,  0.882352948,  0.100000001
   3534,  0.142857149,  0.941176474,  0.100000001
   3535,  0.142857149,           1.,  0.100000001
   3536,  0.142857149,          -1.,  0.075000003
   3537,  0.142857149, -0.941176474,  0.075000003
   3538,  0.142857149, -0.882352948,  0.075000003
   3539,  0.142857149, -0.823529422,  0.075000003
   3540,  0.142857149, -0.764705896,  0.075000003
   3541,  0.142857149,  -0.70588237,  0.075000003
   3542,  0.142857149, -0.647058845,  0.075000003
   3543,  0.142857149, -0.588235319,  0.075000003
   3544,  0.142857149, -0.529411793,  0.075000003
   3545,  0.142857149, -0.470588237,  0.075000003
   3546,  0.142857149, -0.411764711,  0.075000003
   3547,  0.142857149, -0.352941185,  0.075000003
   3548,  0.142857149, -0.294117659,  0.075000003
   3549,  0.142857149, -0.235294119,  0.075000003
   3550,  0.142857149, -0.176470593,  0.075000003
   3551,  0.142857149, -0.117647059,  0.075000003
   3552,  0.142857149, -0.0588235296,  0.075000003
   3553,  0.142857149,           0.,  0.075000003
   3554,  0.142857149, 0.0588235296,  0.075000003
   3555,  0.142857149,  0.117647059,  0.075000003
   3556,  0.142857149,  0.176470593,  0.075000003
   3557,  0.142857149,  0.235294119,  0.075000003
   3558,  0.142857149,  0.294117659,  0.075000003
   3559,  0.142857149,  0.352941185,  0.075000003
   3560,  0.142857149,  0.411764711,  0.075000003
   3561,  0.142857149,  0.470588237,  0.075000003
   3562,  0.142857149,  0.529411793,  0.075000003
   3563,  0.142857149,  0.588235319,  0.075000003
   3564,  0.142857149,  0.647058845,  0.075000003
   3565,  0.142857149,   0.70588237,  0.075000003
   3566,  0.142857149,  0.764705896,  0.075000003
   3567,  0.142857149,  0.823529422,  0.075000003
   3568,  0.142857149,  0.882352948,  0.075000003
   3569,  0.142857149,  0.941176474,  0.075000003
   3570,  0.142857149,           1.,  0.075000003
   3571,  0.142857149,          -1., 0.0500000007
   3572,  0.142857149, -0.941176474, 0.0500000007
   3573,  0.142857149, -0.882352948, 0.0500000007
   3574,  0.142857149, -0.823529422, 0.0500000007
   3575,  0.142857149, -0.764705896, 0.0500000007
   3576,  0.142857149,  -0.70588237, 0.0500000007
   3577,  0.142857149, -0.647058845, 0.0500000007
   3578,  0.142857149, -0.588235319, 0.0500000007
   3579,  0.142857149, -0.529411793, 0.0500000007
   3580,  0.142857149, -0.470588237, 0.0500000007
   3581,  0.142857149, -0.411764711, 0.0500000007
   3582,  0.142857149, -0.352941185, 0.0500000007
   3583,  0.142857149, -0.294117659, 0.0500000007
   3584,  0.142857149, -0.235294119, 0.0500000007
   3585,  0.142857149, -0.176470593, 0.0500000007
   3586,  0.142857149, -0.117647059, 0.0500000007
   3587,  0.142857149, -0.0588235296, 0.0500000007
   3588,  0.142857149,           0., 0.0500000007
   3589,  0.142857149, 0.0588235296, 0.0500000007
   3590,  0.142857149,  0.117647059, 0.0500000007
   3591,  0.142857149,  0.176470593, 0.0500000007
   3592,  0.142857149,  0.235294119, 0.0500000007
   3593,  0.142857149,  0.294117659, 0.0500000007
   3594,  0.142857149,  0.352941185, 0.0500000007
   3595,  0.142857149,  0.411764711, 0.0500000007
   3596,  0.142857149,  0.470588237, 0.0500000007
   3597,  0.142857149,  0.529411793, 0.0500000007
   3598,  0.142857149,  0.588235319, 0.0500000007
   3599,  0.142857149,  0.647058845, 0.0500000007
   3600,  0.142857149,   0.70588237, 0.0500000007
   3601,  0.142857149,  0.764705896, 0.0500000007
   3602,  0.142857149,  0.823529422, 0.0500000007
   3603,  0.142857149,  0.882352948, 0.0500000007
   3604,  0.142857149,  0.941176474, 0.0500000007
   3605,  0.142857149,           1., 0.0500000007
   3606,  0.142857149,          -1., 0.0250000004
   3607,  0.142857149, -0.941176474, 0.0250000004
   3608,  0.142857149, -0.882352948, 0.0250000004
   3609,  0.142857149, -0.823529422, 0.0250000004
   3610,  0.142857149, -0.764705896, 0.0250000004
   3611,  0.142857149,  -0.70588237, 0.0250000004
   3612,  0.142857149, -0.647058845, 0.0250000004
   3613,  0.142857149, -0.588235319, 0.0250000004
   3614,  0.142857149, -0.529411793, 0.0250000004
   3615,  0.142857149, -0.470588237, 0.0250000004
   3616,  0.142857149, -0.411764711, 0.0250000004
   3617,  0.142857149, -0.352941185, 0.0250000004
   3618,  0.142857149, -0.294117659, 0.0250000004
   3619,  0.142857149, -0.235294119, 0.0250000004
   3620,  0.142857149, -0.176470593, 0.0250000004
   3621,  0.142857149, -0.117647059, 0.0250000004
   3622,  0.142857149, -0.0588235296, 0.0250000004
   3623,  0.142857149,           0., 0.0250000004
   3624,  0.142857149, 0.0588235296, 0.0250000004
   3625,  0.142857149,  0.117647059, 0.0250000004
   3626,  0.142857149,  0.176470593, 0.0250000004
   3627,  0.142857149,  0.235294119, 0.0250000004
   3628,  0.142857149,  0.294117659, 0.0250000004
   3629,  0.142857149,  0.352941185, 0.0250000004
   3630,  0.142857149,  0.411764711, 0.0250000004
   3631,  0.142857149,  0.470588237, 0.0250000004
   3632,  0.142857149,  0.529411793, 0.0250000004
   3633,  0.142857149,  0.588235319, 0.0250000004
   3634,  0.142857149,  0.647058845, 0.0250000004
   3635,  0.142857149,   0.70588237, 0.0250000004
   3636,  0.142857149,  0.764705896, 0.0250000004
   3637,  0.142857149,  0.823529422, 0.0250000004
   3638,  0.142857149,  0.882352948, 0.0250000004
   3639,  0.142857149,  0.941176474, 0.0250000004
   3640,  0.142857149,           1., 0.0250000004
   3641,  0.142857149,          -1.,           0.
   3642,  0.142857149, -0.941176474,           0.
   3643,  0.142857149, -0.882352948,           0.
   3644,  0.142857149, -0.823529422,           0.
   3645,  0.142857149, -0.764705896,           0.
   3646,  0.142857149,  -0.70588237,           0.
   3647,  0.142857149, -0.647058845,           0.
   3648,  0.142857149, -0.588235319,           0.
   3649,  0.142857149, -0.529411793,           0.
   3650,  0.142857149, -0.470588237,           0.
   3651,  0.142857149, -0.411764711,           0.
   3652,  0.142857149, -0.352941185,           0.
   3653,  0.142857149, -0.294117659,           0.
   3654,  0.142857149, -0.235294119,           0.
   3655,  0.142857149, -0.176470593,           0.
   3656,  0.142857149, -0.117647059,           0.
   3657,  0.142857149, -0.0588235296,           0.
   3658,  0.142857149,           0.,           0.
   3659,  0.142857149, 0.0588235296,           0.
   3660,  0.142857149,  0.117647059,           0.
   3661,  0.142857149,  0.176470593,           0.
   3662,  0.142857149,  0.235294119,           0.
   3663,  0.142857149,  0.294117659,           0.
   3664,  0.142857149,  0.352941185,           0.
   3665,  0.142857149,  0.411764711,           0.
   3666,  0.142857149,  0.470588237,           0.
   3667,  0.142857149,  0.529411793,           0.
   3668,  0.142857149,  0.588235319,           0.
   3669,  0.142857149,  0.647058845,           0.
   3670,  0.142857149,   0.70588237,           0.
   3671,  0.142857149,  0.764705896,           0.
   3672,  0.142857149,  0.823529422,           0.
   3673,  0.142857149,  0.882352948,           0.
   3674,  0.142857149,  0.941176474,           0.
   3675,  0.142857149,           1.,           0.
   3676,  0.200000003,          -1.,  0.100000001
   3677,  0.200000003, -0.941176474,  0.100000001
   3678,  0.200000003, -0.882352948,  0.100000001
   3679,  0.200000003, -0.823529422,  0.100000001
   3680,  0.200000003, -0.764705896,  0.100000001
   3681,  0.200000003,  -0.70588237,  0.100000001
   3682,  0.200000003, -0.647058845,  0.100000001
   3683,  0.200000003, -0.588235319,  0.100000001
   3684,  0.200000003, -0.529411793,  0.100000001
   3685,  0.200000003, -0.470588237,  0.100000001
   3686,  0.200000003, -0.411764711,  0.100000001
   3687,  0.200000003, -0.352941185,  0.100000001
   3688,  0.200000003, -0.294117659,  0.100000001
   3689,  0.200000003, -0.235294119,  0.100000001
   3690,  0.200000003, -0.176470593,  0.100000001
   3691,  0.200000003, -0.117647059,  0.100000001
   3692,  0.200000003, -0.0588235296,  0.100000001
   3693,  0.200000003,           0.,  0.100000001
   3694,  0.200000003, 0.0588235296,  0.100000001
   3695,  0.200000003,  0.117647059,  0.100000001
   3696,  0.200000003,  0.176470593,  0.100000001
   3697,  0.200000003,  0.235294119,  0.100000001
   3698,  0.200000003,  0.294117659,  0.100000001
   3699,  0.200000003,  0.352941185,  0.100000001
   3700,  0.200000003,  0.411764711,  0.100000001
   3701,  0.200000003,  0.470588237,  0.100000001
   3702,  0.200000003,  0.529411793,  0.100000001
   3703,  0.200000003,  0.588235319,  0.100000001
   3704,  0.200000003,  0.647058845,  0.100000001
   3705,  0.200000003,   0.70588237,  0.100000001
   3706,  0.200000003,  0.764705896,  0.100000001
   3707,  0.200000003,  0.823529422,  0.100000001
   3708,  0.200000003,  0.882352948,  0.100000001
   3709,  0.200000003,  0.941176474,  0.100000001
   3710,  0.200000003,           1.,  0.100000001
   3711,  0.200000003,          -1.,  0.075000003
   3712,  0.200000003, -0.941176474,  0.075000003
   3713,  0.200000003, -0.882352948,  0.075000003
   3714,  0.200000003, -0.823529422,  0.075000003
   3715,  0.200000003, -0.764705896,  0.075000003
   3716,  0.200000003,  -0.70588237,  0.075000003
   3717,  0.200000003, -0.647058845,  0.075000003
   3718,  0.200000003, -0.588235319,  0.075000003
   3719,  0.200000003, -0.529411793,  0.075000003
   3720,  0.200000003, -0.470588237,  0.075000003
   3721,  0.200000003, -0.411764711,  0.075000003
   3722,  0.200000003, -0.352941185,  0.075000003
   3723,  0.200000003, -0.294117659,  0.075000003
   3724,  0.200000003, -0.235294119,  0.075000003
   3725,  0.200000003, -0.176470593,  0.075000003
   3726,  0.200000003, -0.117647059,  0.075000003
   3727,  0.200000003, -0.0588235296,  0.075000003
   3728,  0.200000003,           0.,  0.075000003
   3729,  0.200000003, 0.0588235296,  0.075000003
   3730,  0.200000003,  0.117647059,  0.075000003
   3731,  0.200000003,  0.176470593,  0.075000003
   3732,  0.200000003,  0.235294119,  0.075000003
   3733,  0.200000003,  0.294117659,  0.075000003
   3734,  0.200000003,  0.352941185,  0.075000003
   3735,  0.200000003,  0.411764711,  0.075000003
   3736,  0.200000003,  0.470588237,  0.075000003
   3737,  0.200000003,  0.529411793,  0.075000003
   3738,  0.200000003,  0.588235319,  0.075000003
   3739,  0.200000003,  0.647058845,  0.075000003
   3740,  0.200000003,   0.70588237,  0.075000003
   3741,  0.200000003,  0.764705896,  0.075000003
   3742,  0.200000003,  0.823529422,  0.075000003
   3743,  0.200000003,  0.882352948,  0.075000003
   3744,  0.200000003,  0.941176474,  0.075000003
   3745,  0.200000003,           1.,  0.075000003
   3746,  0.200000003,          -1., 0.0500000007
   3747,  0.200000003, -0.941176474, 0.0500000007
   3748,  0.200000003, -0.882352948, 0.0500000007
   3749,  0.200000003, -0.823529422, 0.0500000007
   3750,  0.200000003, -0.764705896, 0.0500000007
   3751,  0.200000003,  -0.70588237, 0.0500000007
   3752,  0.200000003, -0.647058845, 0.0500000007
   3753,  0.200000003, -0.588235319, 0.0500000007
   3754,  0.200000003, -0.529411793, 0.0500000007
   3755,  0.200000003, -0.470588237, 0.0500000007
   3756,  0.200000003, -0.411764711, 0.0500000007
   3757,  0.200000003, -0.352941185, 0.0500000007
   3758,  0.200000003, -0.294117659, 0.0500000007
   3759,  0.200000003, -0.235294119, 0.0500000007
   3760,  0.200000003, -0.176470593, 0.0500000007
   3761,  0.200000003, -0.117647059, 0.0500000007
   3762,  0.200000003, -0.0588235296, 0.0500000007
   3763,  0.200000003,           0., 0.0500000007
   3764,  0.200000003, 0.0588235296, 0.0500000007
   3765,  0.200000003,  0.117647059, 0.0500000007
   3766,  0.200000003,  0.176470593, 0.0500000007
   3767,  0.200000003,  0.235294119, 0.0500000007
   3768,  0.200000003,  0.294117659, 0.0500000007
   3769,  0.200000003,  0.352941185, 0.0500000007
   3770,  0.200000003,  0.411764711, 0.0500000007
   3771,  0.200000003,  0.470588237, 0.0500000007
   3772,  0.200000003,  0.529411793, 0.0500000007
   3773,  0.200000003,  0.588235319, 0.0500000007
   3774,  0.200000003,  0.647058845, 0.0500000007
   3775,  0.200000003,   0.70588237, 0.0500000007
   3776,  0.200000003,  0.764705896, 0.0500000007
   3777,  0.200000003,  0.823529422, 0.0500000007
   3778,  0.200000003,  0.882352948, 0.0500000007
   3779,  0.200000003,  0.941176474, 0.0500000007
   3780,  0.200000003,           1., 0.0500000007
   3781,  0.200000003,          -1., 0.0250000004
   3782,  0.200000003, -0.941176474, 0.0250000004
   3783,  0.200000003, -0.882352948, 0.0250000004
   3784,  0.200000003, -0.823529422, 0.0250000004
   3785,  0.200000003, -0.764705896, 0.0250000004
   3786,  0.200000003,  -0.70588237, 0.0250000004
   3787,  0.200000003, -0.647058845, 0.0250000004
   3788,  0.200000003, -0.588235319, 0.0250000004
   3789,  0.200000003, -0.529411793, 0.0250000004
   3790,  0.200000003, -0.470588237, 0.0250000004
   3791,  0.200000003, -0.411764711, 0.0250000004
   3792,  0.200000003, -0.352941185, 0.0250000004
   3793,  0.200000003, -0.294117659, 0.0250000004
   3794,  0.200000003, -0.235294119, 0.0250000004
   3795,  0.200000003, -0.176470593, 0.0250000004
   3796,  0.200000003, -0.117647059, 0.0250000004
   3797,  0.200000003, -0.0588235296, 0.0250000004
   3798,  0.200000003,           0., 0.0250000004
   3799,  0.200000003, 0.0588235296, 0.0250000004
   3800,  0.200000003,  0.117647059, 0.0250000004
   3801,  0.200000003,  0.176470593, 0.0250000004
   3802,  0.200000003,  0.235294119, 0.0250000004
   3803,  0.200000003,  0.294117659, 0.0250000004
   3804,  0.200000003,  0.352941185, 0.0250000004
   3805,  0.200000003,  0.411764711, 0.0250000004
   3806,  0.200000003,  0.470588237, 0.0250000004
   3807,  0.200000003,  0.529411793, 0.0250000004
   3808,  0.200000003,  0.588235319, 0.0250000004
   3809,  0.200000003,  0.647058845, 0.0250000004
   3810,  0.200000003,   0.70588237, 0.0250000004
   3811,  0.200000003,  0.764705896, 0.0250000004
   3812,  0.200000003,  0.823529422, 0.0250000004
   3813,  0.200000003,  0.882352948, 0.0250000004
   3814,  0.200000003,  0.941176474, 0.0250000004
   3815,  0.200000003,           1., 0.0250000004
   3816,  0.200000003,          -1.,           0.
   3817,  0.200000003, -0.941176474,           0.
   3818,  0.200000003, -0.882352948,           0.
   3819,  0.200000003, -0.823529422,           0.
   3820,  0.200000003, -0.764705896,           0.
   3821,  0.200000003,  -0.70588237,           0.
   3822,  0.200000003, -0.647058845,           0.
   3823,  0.200000003, -0.588235319,           0.
   3824,  0.200000003, -0.529411793,           0.
   3825,  0.200000003, -0.470588237,           0.
   3826,  0.200000003, -0.411764711,           0.
   3827,  0.200000003, -0.352941185,           0.
   3828,  0.200000003, -0.294117659,           0.
   3829,  0.200000003, -0.235294119,           0.
   3830,  0.200000003, -0.176470593,           0.
   3831,  0.200000003, -0.117647059,           0.
   3832,  0.200000003, -0.0588235296,           0.
   3833,  0.200000003,           0.,           0.
   3834,  0.200000003, 0.0588235296,           0.
   3835,  0.200000003,  0.117647059,           0.
   3836,  0.200000003,  0.176470593,           0.
   3837,  0.200000003,  0.235294119,           0.
   3838,  0.200000003,  0.294117659,           0.
   3839,  0.200000003,  0.352941185,           0.
   3840,  0.200000003,  0.411764711,           0.
   3841,  0.200000003,  0.470588237,           0.
   3842,  0.200000003,  0.529411793,           0.
   3843,  0.200000003,  0.588235319,           0.
   3844,  0.200000003,  0.647058845,           0.
   3845,  0.200000003,   0.70588237,           0.
   3846,  0.200000003,  0.764705896,           0.
   3847,  0.200000003,  0.823529422,           0.
   3848,  0.200000003,  0.882352948,           0.
   3849,  0.200000003,  0.941176474,           0.
   3850,  0.200000003,           1.,           0.
   3851,  0.257142872,          -1.,  0.100000001
   3852,  0.257142872, -0.941176474,  0.100000001
   3853,  0.257142872, -0.882352948,  0.100000001
   3854,  0.257142872, -0.823529422,  0.100000001
   3855,  0.257142872, -0.764705896,  0.100000001
   3856,  0.257142872,  -0.70588237,  0.100000001
   3857,  0.257142872, -0.647058845,  0.100000001
   3858,  0.257142872, -0.588235319,  0.100000001
   3859,  0.257142872, -0.529411793,  0.100000001
   3860,  0.257142872, -0.470588237,  0.100000001
   3861,  0.257142872, -0.411764711,  0.100000001
   3862,  0.257142872, -0.352941185,  0.100000001
   3863,  0.257142872, -0.294117659,  0.100000001
   3864,  0.257142872, -0.235294119,  0.100000001
   3865,  0.257142872, -0.176470593,  0.100000001
   3866,  0.257142872, -0.117647059,  0.100000001
   3867,  0.257142872, -0.0588235296,  0.100000001
   3868,  0.257142872,           0.,  0.100000001
   3869,  0.257142872, 0.0588235296,  0.100000001
   3870,  0.257142872,  0.117647059,  0.100000001
   3871,  0.257142872,  0.176470593,  0.100000001
   3872,  0.257142872,  0.235294119,  0.100000001
   3873,  0.257142872,  0.294117659,  0.100000001
   3874,  0.257142872,  0.352941185,  0.100000001
   3875,  0.257142872,  0.411764711,  0.100000001
   3876,  0.257142872,  0.470588237,  0.100000001
   3877,  0.257142872,  0.529411793,  0.100000001
   3878,  0.257142872,  0.588235319,  0.100000001
   3879,  0.257142872,  0.647058845,  0.100000001
   3880,  0.257142872,   0.70588237,  0.100000001
   3881,  0.257142872,  0.764705896,  0.100000001
   3882,  0.257142872,  0.823529422,  0.100000001
   3883,  0.257142872,  0.882352948,  0.100000001
   3884,  0.257142872,  0.941176474,  0.100000001
   3885,  0.257142872,           1.,  0.100000001
   3886,  0.257142872,          -1.,  0.075000003
   3887,  0.257142872, -0.941176474,  0.075000003
   3888,  0.257142872, -0.882352948,  0.075000003
   3889,  0.257142872, -0.823529422,  0.075000003
   3890,  0.257142872, -0.764705896,  0.075000003
   3891,  0.257142872,  -0.70588237,  0.075000003
   3892,  0.257142872, -0.647058845,  0.075000003
   3893,  0.257142872, -0.588235319,  0.075000003
   3894,  0.257142872, -0.529411793,  0.075000003
   3895,  0.257142872, -0.470588237,  0.075000003
   3896,  0.257142872, -0.411764711,  0.075000003
   3897,  0.257142872, -0.352941185,  0.075000003
   3898,  0.257142872, -0.294117659,  0.075000003
   3899,  0.257142872, -0.235294119,  0.075000003
   3900,  0.257142872, -0.176470593,  0.075000003
   3901,  0.257142872, -0.117647059,  0.075000003
   3902,  0.257142872, -0.0588235296,  0.075000003
   3903,  0.257142872,           0.,  0.075000003
   3904,  0.257142872, 0.0588235296,  0.075000003
   3905,  0.257142872,  0.117647059,  0.075000003
   3906,  0.257142872,  0.176470593,  0.075000003
   3907,  0.257142872,  0.235294119,  0.075000003
   3908,  0.257142872,  0.294117659,  0.075000003
   3909,  0.257142872,  0.352941185,  0.075000003
   3910,  0.257142872,  0.411764711,  0.075000003
   3911,  0.257142872,  0.470588237,  0.075000003
   3912,  0.257142872,  0.529411793,  0.075000003
   3913,  0.257142872,  0.588235319,  0.075000003
   3914,  0.257142872,  0.647058845,  0.075000003
   3915,  0.257142872,   0.70588237,  0.075000003
   3916,  0.257142872,  0.764705896,  0.075000003
   3917,  0.257142872,  0.823529422,  0.075000003
   3918,  0.257142872,  0.882352948,  0.075000003
   3919,  0.257142872,  0.941176474,  0.075000003
   3920,  0.257142872,           1.,  0.075000003
   3921,  0.257142872,          -1., 0.0500000007
   3922,  0.257142872, -0.941176474, 0.0500000007
   3923,  0.257142872, -0.882352948, 0.0500000007
   3924,  0.257142872, -0.823529422, 0.0500000007
   3925,  0.257142872, -0.764705896, 0.0500000007
   3926,  0.257142872,  -0.70588237, 0.0500000007
   3927,  0.257142872, -0.647058845, 0.0500000007
   3928,  0.257142872, -0.588235319, 0.0500000007
   3929,  0.257142872, -0.529411793, 0.0500000007
   3930,  0.257142872, -0.470588237, 0.0500000007
   3931,  0.257142872, -0.411764711, 0.0500000007
   3932,  0.257142872, -0.352941185, 0.0500000007
   3933,  0.257142872, -0.294117659, 0.0500000007
   3934,  0.257142872, -0.235294119, 0.0500000007
   3935,  0.257142872, -0.176470593, 0.0500000007
   3936,  0.257142872, -0.117647059, 0.0500000007
   3937,  0.257142872, -0.0588235296, 0.0500000007
   3938,  0.257142872,           0., 0.0500000007
   3939,  0.257142872, 0.0588235296, 0.0500000007
   3940,  0.257142872,  0.117647059, 0.0500000007
   3941,  0.257142872,  0.176470593, 0.0500000007
   3942,  0.257142872,  0.235294119, 0.0500000007
   3943,  0.257142872,  0.294117659, 0.0500000007
   3944,  0.257142872,  0.352941185, 0.0500000007
   3945,  0.257142872,  0.411764711, 0.0500000007
   3946,  0.257142872,  0.470588237, 0.0500000007
   3947,  0.257142872,  0.529411793, 0.0500000007
   3948,  0.257142872,  0.588235319, 0.0500000007
   3949,  0.257142872,  0.647058845, 0.0500000007
   3950,  0.257142872,   0.70588237, 0.0500000007
   3951,  0.257142872,  0.764705896, 0.0500000007
   3952,  0.257142872,  0.823529422, 0.0500000007
   3953,  0.257142872,  0.882352948, 0.0500000007
   3954,  0.257142872,  0.941176474, 0.0500000007
   3955,  0.257142872,           1., 0.0500000007
   3956,  0.257142872,          -1., 0.0250000004
   3957,  0.257142872, -0.941176474, 0.0250000004
   3958,  0.257142872, -0.882352948, 0.0250000004
   3959,  0.257142872, -0.823529422, 0.0250000004
   3960,  0.257142872, -0.764705896, 0.0250000004
   3961,  0.257142872,  -0.70588237, 0.0250000004
   3962,  0.257142872, -0.647058845, 0.0250000004
   3963,  0.257142872, -0.588235319, 0.0250000004
   3964,  0.257142872, -0.529411793, 0.0250000004
   3965,  0.257142872, -0.470588237, 0.0250000004
   3966,  0.257142872, -0.411764711, 0.0250000004
   3967,  0.257142872, -0.352941185, 0.0250000004
   3968,  0.257142872, -0.294117659, 0.0250000004
   3969,  0.257142872, -0.235294119, 0.0250000004
   3970,  0.257142872, -0.176470593, 0.0250000004
   3971,  0.257142872, -0.117647059, 0.0250000004
   3972,  0.257142872, -0.0588235296, 0.0250000004
   3973,  0.257142872,           0., 0.0250000004
   3974,  0.257142872, 0.0588235296, 0.0250000004
   3975,  0.257142872,  0.117647059, 0.0250000004
   3976,  0.257142872,  0.176470593, 0.0250000004
   3977,  0.257142872,  0.235294119, 0.0250000004
   3978,  0.257142872,  0.294117659, 0.0250000004
   3979,  0.257142872,  0.352941185, 0.0250000004
   3980,  0.257142872,  0.411764711, 0.0250000004
   3981,  0.257142872,  0.470588237, 0.0250000004
   3982,  0.257142872,  0.529411793, 0.0250000004
   3983,  0.257142872,  0.588235319, 0.0250000004
   3984,  0.257142872,  0.647058845, 0.0250000004
   3985,  0.257142872,   0.70588237, 0.0250000004
   3986,  0.257142872,  0.764705896, 0.0250000004
   3987,  0.257142872,  0.823529422, 0.0250000004
   3988,  0.257142872,  0.882352948, 0.0250000004
   3989,  0.257142872,  0.941176474, 0.0250000004
   3990,  0.257142872,           1., 0.0250000004
   3991,  0.257142872,          -1.,           0.
   3992,  0.257142872, -0.941176474,           0.
   3993,  0.257142872, -0.882352948,           0.
   3994,  0.257142872, -0.823529422,           0.
   3995,  0.257142872, -0.764705896,           0.
   3996,  0.257142872,  -0.70588237,           0.
   3997,  0.257142872, -0.647058845,           0.
   3998,  0.257142872, -0.588235319,           0.
   3999,  0.257142872, -0.529411793,           0.
   4000,  0.257142872, -0.470588237,           0.
   4001,  0.257142872, -0.411764711,           0.
   4002,  0.257142872, -0.352941185,           0.
   4003,  0.257142872, -0.294117659,           0.
   4004,  0.257142872, -0.235294119,           0.
   4005,  0.257142872, -0.176470593,           0.
   4006,  0.257142872, -0.117647059,           0.
   4007,  0.257142872, -0.0588235296,           0.
   4008,  0.257142872,           0.,           0.
   4009,  0.257142872, 0.0588235296,           0.
   4010,  0.257142872,  0.117647059,           0.
   4011,  0.257142872,  0.176470593,           0.
   4012,  0.257142872,  0.235294119,           0.
   4013,  0.257142872,  0.294117659,           0.
   4014,  0.257142872,  0.352941185,           0.
   4015,  0.257142872,  0.411764711,           0.
   4016,  0.257142872,  0.470588237,           0.
   4017,  0.257142872,  0.529411793,           0.
   4018,  0.257142872,  0.588235319,           0.
   4019,  0.257142872,  0.647058845,           0.
   4020,  0.257142872,   0.70588237,           0.
   4021,  0.257142872,  0.764705896,           0.
   4022,  0.257142872,  0.823529422,           0.
   4023,  0.257142872,  0.882352948,           0.
   4024,  0.257142872,  0.941176474,           0.
   4025,  0.257142872,           1.,           0.
   4026,  0.314285725,          -1.,  0.100000001
   4027,  0.314285725, -0.941176474,  0.100000001
   4028,  0.314285725, -0.882352948,  0.100000001
   4029,  0.314285725, -0.823529422,  0.100000001
   4030,  0.314285725, -0.764705896,  0.100000001
   4031,  0.314285725,  -0.70588237,  0.100000001
   4032,  0.314285725, -0.647058845,  0.100000001
   4033,  0.314285725, -0.588235319,  0.100000001
   4034,  0.314285725, -0.529411793,  0.100000001
   4035,  0.314285725, -0.470588237,  0.100000001
   4036,  0.314285725, -0.411764711,  0.100000001
   4037,  0.314285725, -0.352941185,  0.100000001
   4038,  0.314285725, -0.294117659,  0.100000001
   4039,  0.314285725, -0.235294119,  0.100000001
   4040,  0.314285725, -0.176470593,  0.100000001
   4041,  0.314285725, -0.117647059,  0.100000001
   4042,  0.314285725, -0.0588235296,  0.100000001
   4043,  0.314285725,           0.,  0.100000001
   4044,  0.314285725, 0.0588235296,  0.100000001
   4045,  0.314285725,  0.117647059,  0.100000001
   4046,  0.314285725,  0.176470593,  0.100000001
   4047,  0.314285725,  0.235294119,  0.100000001
   4048,  0.314285725,  0.294117659,  0.100000001
   4049,  0.314285725,  0.352941185,  0.100000001
   4050,  0.314285725,  0.411764711,  0.100000001
   4051,  0.314285725,  0.470588237,  0.100000001
   4052,  0.314285725,  0.529411793,  0.100000001
   4053,  0.314285725,  0.588235319,  0.100000001
   4054,  0.314285725,  0.647058845,  0.100000001
   4055,  0.314285725,   0.70588237,  0.100000001
   4056,  0.314285725,  0.764705896,  0.100000001
   4057,  0.314285725,  0.823529422,  0.100000001
   4058,  0.314285725,  0.882352948,  0.100000001
   4059,  0.314285725,  0.941176474,  0.100000001
   4060,  0.314285725,           1.,  0.100000001
   4061,  0.314285725,          -1.,  0.075000003
   4062,  0.314285725, -0.941176474,  0.075000003
   4063,  0.314285725, -0.882352948,  0.075000003
   4064,  0.314285725, -0.823529422,  0.075000003
   4065,  0.314285725, -0.764705896,  0.075000003
   4066,  0.314285725,  -0.70588237,  0.075000003
   4067,  0.314285725, -0.647058845,  0.075000003
   4068,  0.314285725, -0.588235319,  0.075000003
   4069,  0.314285725, -0.529411793,  0.075000003
   4070,  0.314285725, -0.470588237,  0.075000003
   4071,  0.314285725, -0.411764711,  0.075000003
   4072,  0.314285725, -0.352941185,  0.075000003
   4073,  0.314285725, -0.294117659,  0.075000003
   4074,  0.314285725, -0.235294119,  0.075000003
   4075,  0.314285725, -0.176470593,  0.075000003
   4076,  0.314285725, -0.117647059,  0.075000003
   4077,  0.314285725, -0.0588235296,  0.075000003
   4078,  0.314285725,           0.,  0.075000003
   4079,  0.314285725, 0.0588235296,  0.075000003
   4080,  0.314285725,  0.117647059,  0.075000003
   4081,  0.314285725,  0.176470593,  0.075000003
   4082,  0.314285725,  0.235294119,  0.075000003
   4083,  0.314285725,  0.294117659,  0.075000003
   4084,  0.314285725,  0.352941185,  0.075000003
   4085,  0.314285725,  0.411764711,  0.075000003
   4086,  0.314285725,  0.470588237,  0.075000003
   4087,  0.314285725,  0.529411793,  0.075000003
   4088,  0.314285725,  0.588235319,  0.075000003
   4089,  0.314285725,  0.647058845,  0.075000003
   4090,  0.314285725,   0.70588237,  0.075000003
   4091,  0.314285725,  0.764705896,  0.075000003
   4092,  0.314285725,  0.823529422,  0.075000003
   4093,  0.314285725,  0.882352948,  0.075000003
   4094,  0.314285725,  0.941176474,  0.075000003
   4095,  0.314285725,           1.,  0.075000003
   4096,  0.314285725,          -1., 0.0500000007
   4097,  0.314285725, -0.941176474, 0.0500000007
   4098,  0.314285725, -0.882352948, 0.0500000007
   4099,  0.314285725, -0.823529422, 0.0500000007
   4100,  0.314285725, -0.764705896, 0.0500000007
   4101,  0.314285725,  -0.70588237, 0.0500000007
   4102,  0.314285725, -0.647058845, 0.0500000007
   4103,  0.314285725, -0.588235319, 0.0500000007
   4104,  0.314285725, -0.529411793, 0.0500000007
   4105,  0.314285725, -0.470588237, 0.0500000007
   4106,  0.314285725, -0.411764711, 0.0500000007
   4107,  0.314285725, -0.352941185, 0.0500000007
   4108,  0.314285725, -0.294117659, 0.0500000007
   4109,  0.314285725, -0.235294119, 0.0500000007
   4110,  0.314285725, -0.176470593, 0.0500000007
   4111,  0.314285725, -0.117647059, 0.0500000007
   4112,  0.314285725, -0.0588235296, 0.0500000007
   4113,  0.314285725,           0., 0.0500000007
   4114,  0.314285725, 0.0588235296, 0.0500000007
   4115,  0.314285725,  0.117647059, 0.0500000007
   4116,  0.314285725,  0.176470593, 0.0500000007
   4117,  0.314285725,  0.235294119, 0.0500000007
   4118,  0.314285725,  0.294117659, 0.0500000007
   4119,  0.314285725,  0.352941185, 0.0500000007
   4120,  0.314285725,  0.411764711, 0.0500000007
   4121,  0.314285725,  0.470588237, 0.0500000007
   4122,  0.314285725,  0.529411793, 0.0500000007
   4123,  0.314285725,  0.588235319, 0.0500000007
   4124,  0.314285725,  0.647058845, 0.0500000007
   4125,  0.314285725,   0.70588237, 0.0500000007
   4126,  0.314285725,  0.764705896, 0.0500000007
   4127,  0.314285725,  0.823529422, 0.0500000007
   4128,  0.314285725,  0.882352948, 0.0500000007
   4129,  0.314285725,  0.941176474, 0.0500000007
   4130,  0.314285725,           1., 0.0500000007
   4131,  0.314285725,          -1., 0.0250000004
   4132,  0.314285725, -0.941176474, 0.0250000004
   4133,  0.314285725, -0.882352948, 0.0250000004
   4134,  0.314285725, -0.823529422, 0.0250000004
   4135,  0.314285725, -0.764705896, 0.0250000004
   4136,  0.314285725,  -0.70588237, 0.0250000004
   4137,  0.314285725, -0.647058845, 0.0250000004
   4138,  0.314285725, -0.588235319, 0.0250000004
   4139,  0.314285725, -0.529411793, 0.0250000004
   4140,  0.314285725, -0.470588237, 0.0250000004
   4141,  0.314285725, -0.411764711, 0.0250000004
   4142,  0.314285725, -0.352941185, 0.0250000004
   4143,  0.314285725, -0.294117659, 0.0250000004
   4144,  0.314285725, -0.235294119, 0.0250000004
   4145,  0.314285725, -0.176470593, 0.0250000004
   4146,  0.314285725, -0.117647059, 0.0250000004
   4147,  0.314285725, -0.0588235296, 0.0250000004
   4148,  0.314285725,           0., 0.0250000004
   4149,  0.314285725, 0.0588235296, 0.0250000004
   4150,  0.314285725,  0.117647059, 0.0250000004
   4151,  0.314285725,  0.176470593, 0.0250000004
   4152,  0.314285725,  0.235294119, 0.0250000004
   4153,  0.314285725,  0.294117659, 0.0250000004
   4154,  0.314285725,  0.352941185, 0.0250000004
   4155,  0.314285725,  0.411764711, 0.0250000004
   4156,  0.314285725,  0.470588237, 0.0250000004
   4157,  0.314285725,  0.529411793, 0.0250000004
   4158,  0.314285725,  0.588235319, 0.0250000004
   4159,  0.314285725,  0.647058845, 0.0250000004
   4160,  0.314285725,   0.70588237, 0.0250000004
   4161,  0.314285725,  0.764705896, 0.0250000004
   4162,  0.314285725,  0.823529422, 0.0250000004
   4163,  0.314285725,  0.882352948, 0.0250000004
   4164,  0.314285725,  0.941176474, 0.0250000004
   4165,  0.314285725,           1., 0.0250000004
   4166,  0.314285725,          -1.,           0.
   4167,  0.314285725, -0.941176474,           0.
   4168,  0.314285725, -0.882352948,           0.
   4169,  0.314285725, -0.823529422,           0.
   4170,  0.314285725, -0.764705896,           0.
   4171,  0.314285725,  -0.70588237,           0.
   4172,  0.314285725, -0.647058845,           0.
   4173,  0.314285725, -0.588235319,           0.
   4174,  0.314285725, -0.529411793,           0.
   4175,  0.314285725, -0.470588237,           0.
   4176,  0.314285725, -0.411764711,           0.
   4177,  0.314285725, -0.352941185,           0.
   4178,  0.314285725, -0.294117659,           0.
   4179,  0.314285725, -0.235294119,           0.
   4180,  0.314285725, -0.176470593,           0.
   4181,  0.314285725, -0.117647059,           0.
   4182,  0.314285725, -0.0588235296,           0.
   4183,  0.314285725,           0.,           0.
   4184,  0.314285725, 0.0588235296,           0.
   4185,  0.314285725,  0.117647059,           0.
   4186,  0.314285725,  0.176470593,           0.
   4187,  0.314285725,  0.235294119,           0.
   4188,  0.314285725,  0.294117659,           0.
   4189,  0.314285725,  0.352941185,           0.
   4190,  0.314285725,  0.411764711,           0.
   4191,  0.314285725,  0.470588237,           0.
   4192,  0.314285725,  0.529411793,           0.
   4193,  0.314285725,  0.588235319,           0.
   4194,  0.314285725,  0.647058845,           0.
   4195,  0.314285725,   0.70588237,           0.
   4196,  0.314285725,  0.764705896,           0.
   4197,  0.314285725,  0.823529422,           0.
   4198,  0.314285725,  0.882352948,           0.
   4199,  0.314285725,  0.941176474,           0.
   4200,  0.314285725,           1.,           0.
   4201,  0.371428579,          -1.,  0.100000001
   4202,  0.371428579, -0.941176474,  0.100000001
   4203,  0.371428579, -0.882352948,  0.100000001
   4204,  0.371428579, -0.823529422,  0.100000001
   4205,  0.371428579, -0.764705896,  0.100000001
   4206,  0.371428579,  -0.70588237,  0.100000001
   4207,  0.371428579, -0.647058845,  0.100000001
   4208,  0.371428579, -0.588235319,  0.100000001
   4209,  0.371428579, -0.529411793,  0.100000001
   4210,  0.371428579, -0.470588237,  0.100000001
   4211,  0.371428579, -0.411764711,  0.100000001
   4212,  0.371428579, -0.352941185,  0.100000001
   4213,  0.371428579, -0.294117659,  0.100000001
   4214,  0.371428579, -0.235294119,  0.100000001
   4215,  0.371428579, -0.176470593,  0.100000001
   4216,  0.371428579, -0.117647059,  0.100000001
   4217,  0.371428579, -0.0588235296,  0.100000001
   4218,  0.371428579,           0.,  0.100000001
   4219,  0.371428579, 0.0588235296,  0.100000001
   4220,  0.371428579,  0.117647059,  0.100000001
   4221,  0.371428579,  0.176470593,  0.100000001
   4222,  0.371428579,  0.235294119,  0.100000001
   4223,  0.371428579,  0.294117659,  0.100000001
   4224,  0.371428579,  0.352941185,  0.100000001
   4225,  0.371428579,  0.411764711,  0.100000001
   4226,  0.371428579,  0.470588237,  0.100000001
   4227,  0.371428579,  0.529411793,  0.100000001
   4228,  0.371428579,  0.588235319,  0.100000001
   4229,  0.371428579,  0.647058845,  0.100000001
   4230,  0.371428579,   0.70588237,  0.100000001
   4231,  0.371428579,  0.764705896,  0.100000001
   4232,  0.371428579,  0.823529422,  0.100000001
   4233,  0.371428579,  0.882352948,  0.100000001
   4234,  0.371428579,  0.941176474,  0.100000001
   4235,  0.371428579,           1.,  0.100000001
   4236,  0.371428579,          -1.,  0.075000003
   4237,  0.371428579, -0.941176474,  0.075000003
   4238,  0.371428579, -0.882352948,  0.075000003
   4239,  0.371428579, -0.823529422,  0.075000003
   4240,  0.371428579, -0.764705896,  0.075000003
   4241,  0.371428579,  -0.70588237,  0.075000003
   4242,  0.371428579, -0.647058845,  0.075000003
   4243,  0.371428579, -0.588235319,  0.075000003
   4244,  0.371428579, -0.529411793,  0.075000003
   4245,  0.371428579, -0.470588237,  0.075000003
   4246,  0.371428579, -0.411764711,  0.075000003
   4247,  0.371428579, -0.352941185,  0.075000003
   4248,  0.371428579, -0.294117659,  0.075000003
   4249,  0.371428579, -0.235294119,  0.075000003
   4250,  0.371428579, -0.176470593,  0.075000003
   4251,  0.371428579, -0.117647059,  0.075000003
   4252,  0.371428579, -0.0588235296,  0.075000003
   4253,  0.371428579,           0.,  0.075000003
   4254,  0.371428579, 0.0588235296,  0.075000003
   4255,  0.371428579,  0.117647059,  0.075000003
   4256,  0.371428579,  0.176470593,  0.075000003
   4257,  0.371428579,  0.235294119,  0.075000003
   4258,  0.371428579,  0.294117659,  0.075000003
   4259,  0.371428579,  0.352941185,  0.075000003
   4260,  0.371428579,  0.411764711,  0.075000003
   4261,  0.371428579,  0.470588237,  0.075000003
   4262,  0.371428579,  0.529411793,  0.075000003
   4263,  0.371428579,  0.588235319,  0.075000003
   4264,  0.371428579,  0.647058845,  0.075000003
   4265,  0.371428579,   0.70588237,  0.075000003
   4266,  0.371428579,  0.764705896,  0.075000003
   4267,  0.371428579,  0.823529422,  0.075000003
   4268,  0.371428579,  0.882352948,  0.075000003
   4269,  0.371428579,  0.941176474,  0.075000003
   4270,  0.371428579,           1.,  0.075000003
   4271,  0.371428579,          -1., 0.0500000007
   4272,  0.371428579, -0.941176474, 0.0500000007
   4273,  0.371428579, -0.882352948, 0.0500000007
   4274,  0.371428579, -0.823529422, 0.0500000007
   4275,  0.371428579, -0.764705896, 0.0500000007
   4276,  0.371428579,  -0.70588237, 0.0500000007
   4277,  0.371428579, -0.647058845, 0.0500000007
   4278,  0.371428579, -0.588235319, 0.0500000007
   4279,  0.371428579, -0.529411793, 0.0500000007
   4280,  0.371428579, -0.470588237, 0.0500000007
   4281,  0.371428579, -0.411764711, 0.0500000007
   4282,  0.371428579, -0.352941185, 0.0500000007
   4283,  0.371428579, -0.294117659, 0.0500000007
   4284,  0.371428579, -0.235294119, 0.0500000007
   4285,  0.371428579, -0.176470593, 0.0500000007
   4286,  0.371428579, -0.117647059, 0.0500000007
   4287,  0.371428579, -0.0588235296, 0.0500000007
   4288,  0.371428579,           0., 0.0500000007
   4289,  0.371428579, 0.0588235296, 0.0500000007
   4290,  0.371428579,  0.117647059, 0.0500000007
   4291,  0.371428579,  0.176470593, 0.0500000007
   4292,  0.371428579,  0.235294119, 0.0500000007
   4293,  0.371428579,  0.294117659, 0.0500000007
   4294,  0.371428579,  0.352941185, 0.0500000007
   4295,  0.371428579,  0.411764711, 0.0500000007
   4296,  0.371428579,  0.470588237, 0.0500000007
   4297,  0.371428579,  0.529411793, 0.0500000007
   4298,  0.371428579,  0.588235319, 0.0500000007
   4299,  0.371428579,  0.647058845, 0.0500000007
   4300,  0.371428579,   0.70588237, 0.0500000007
   4301,  0.371428579,  0.764705896, 0.0500000007
   4302,  0.371428579,  0.823529422, 0.0500000007
   4303,  0.371428579,  0.882352948, 0.0500000007
   4304,  0.371428579,  0.941176474, 0.0500000007
   4305,  0.371428579,           1., 0.0500000007
   4306,  0.371428579,          -1., 0.0250000004
   4307,  0.371428579, -0.941176474, 0.0250000004
   4308,  0.371428579, -0.882352948, 0.0250000004
   4309,  0.371428579, -0.823529422, 0.0250000004
   4310,  0.371428579, -0.764705896, 0.0250000004
   4311,  0.371428579,  -0.70588237, 0.0250000004
   4312,  0.371428579, -0.647058845, 0.0250000004
   4313,  0.371428579, -0.588235319, 0.0250000004
   4314,  0.371428579, -0.529411793, 0.0250000004
   4315,  0.371428579, -0.470588237, 0.0250000004
   4316,  0.371428579, -0.411764711, 0.0250000004
   4317,  0.371428579, -0.352941185, 0.0250000004
   4318,  0.371428579, -0.294117659, 0.0250000004
   4319,  0.371428579, -0.235294119, 0.0250000004
   4320,  0.371428579, -0.176470593, 0.0250000004
   4321,  0.371428579, -0.117647059, 0.0250000004
   4322,  0.371428579, -0.0588235296, 0.0250000004
   4323,  0.371428579,           0., 0.0250000004
   4324,  0.371428579, 0.0588235296, 0.0250000004
   4325,  0.371428579,  0.117647059, 0.0250000004
   4326,  0.371428579,  0.176470593, 0.0250000004
   4327,  0.371428579,  0.235294119, 0.0250000004
   4328,  0.371428579,  0.294117659, 0.0250000004
   4329,  0.371428579,  0.352941185, 0.0250000004
   4330,  0.371428579,  0.411764711, 0.0250000004
   4331,  0.371428579,  0.470588237, 0.0250000004
   4332,  0.371428579,  0.529411793, 0.0250000004
   4333,  0.371428579,  0.588235319, 0.0250000004
   4334,  0.371428579,  0.647058845, 0.0250000004
   4335,  0.371428579,   0.70588237, 0.0250000004
   4336,  0.371428579,  0.764705896, 0.0250000004
   4337,  0.371428579,  0.823529422, 0.0250000004
   4338,  0.371428579,  0.882352948, 0.0250000004
   4339,  0.371428579,  0.941176474, 0.0250000004
   4340,  0.371428579,           1., 0.0250000004
   4341,  0.371428579,          -1.,           0.
   4342,  0.371428579, -0.941176474,           0.
   4343,  0.371428579, -0.882352948,           0.
   4344,  0.371428579, -0.823529422,           0.
   4345,  0.371428579, -0.764705896,           0.
   4346,  0.371428579,  -0.70588237,           0.
   4347,  0.371428579, -0.647058845,           0.
   4348,  0.371428579, -0.588235319,           0.
   4349,  0.371428579, -0.529411793,           0.
   4350,  0.371428579, -0.470588237,           0.
   4351,  0.371428579, -0.411764711,           0.
   4352,  0.371428579, -0.352941185,           0.
   4353,  0.371428579, -0.294117659,           0.
   4354,  0.371428579, -0.235294119,           0.
   4355,  0.371428579, -0.176470593,           0.
   4356,  0.371428579, -0.117647059,           0.
   4357,  0.371428579, -0.0588235296,           0.
   4358,  0.371428579,           0.,           0.
   4359,  0.371428579, 0.0588235296,           0.
   4360,  0.371428579,  0.117647059,           0.
   4361,  0.371428579,  0.176470593,           0.
   4362,  0.371428579,  0.235294119,           0.
   4363,  0.371428579,  0.294117659,           0.
   4364,  0.371428579,  0.352941185,           0.
   4365,  0.371428579,  0.411764711,           0.
   4366,  0.371428579,  0.470588237,           0.
   4367,  0.371428579,  0.529411793,           0.
   4368,  0.371428579,  0.588235319,           0.
   4369,  0.371428579,  0.647058845,           0.
   4370,  0.371428579,   0.70588237,           0.
   4371,  0.371428579,  0.764705896,           0.
   4372,  0.371428579,  0.823529422,           0.
   4373,  0.371428579,  0.882352948,           0.
   4374,  0.371428579,  0.941176474,           0.
   4375,  0.371428579,           1.,           0.
   4376,  0.428571433,          -1.,  0.100000001
   4377,  0.428571433, -0.941176474,  0.100000001
   4378,  0.428571433, -0.882352948,  0.100000001
   4379,  0.428571433, -0.823529422,  0.100000001
   4380,  0.428571433, -0.764705896,  0.100000001
   4381,  0.428571433,  -0.70588237,  0.100000001
   4382,  0.428571433, -0.647058845,  0.100000001
   4383,  0.428571433, -0.588235319,  0.100000001
   4384,  0.428571433, -0.529411793,  0.100000001
   4385,  0.428571433, -0.470588237,  0.100000001
   4386,  0.428571433, -0.411764711,  0.100000001
   4387,  0.428571433, -0.352941185,  0.100000001
   4388,  0.428571433, -0.294117659,  0.100000001
   4389,  0.428571433, -0.235294119,  0.100000001
   4390,  0.428571433, -0.176470593,  0.100000001
   4391,  0.428571433, -0.117647059,  0.100000001
   4392,  0.428571433, -0.0588235296,  0.100000001
   4393,  0.428571433,           0.,  0.100000001
   4394,  0.428571433, 0.0588235296,  0.100000001
   4395,  0.428571433,  0.117647059,  0.100000001
   4396,  0.428571433,  0.176470593,  0.100000001
   4397,  0.428571433,  0.235294119,  0.100000001
   4398,  0.428571433,  0.294117659,  0.100000001
   4399,  0.428571433,  0.352941185,  0.100000001
   4400,  0.428571433,  0.411764711,  0.100000001
   4401,  0.428571433,  0.470588237,  0.100000001
   4402,  0.428571433,  0.529411793,  0.100000001
   4403,  0.428571433,  0.588235319,  0.100000001
   4404,  0.428571433,  0.647058845,  0.100000001
   4405,  0.428571433,   0.70588237,  0.100000001
   4406,  0.428571433,  0.764705896,  0.100000001
   4407,  0.428571433,  0.823529422,  0.100000001
   4408,  0.428571433,  0.882352948,  0.100000001
   4409,  0.428571433,  0.941176474,  0.100000001
   4410,  0.428571433,           1.,  0.100000001
   4411,  0.428571433,          -1.,  0.075000003
   4412,  0.428571433, -0.941176474,  0.075000003
   4413,  0.428571433, -0.882352948,  0.075000003
   4414,  0.428571433, -0.823529422,  0.075000003
   4415,  0.428571433, -0.764705896,  0.075000003
   4416,  0.428571433,  -0.70588237,  0.075000003
   4417,  0.428571433, -0.647058845,  0.075000003
   4418,  0.428571433, -0.588235319,  0.075000003
   4419,  0.428571433, -0.529411793,  0.075000003
   4420,  0.428571433, -0.470588237,  0.075000003
   4421,  0.428571433, -0.411764711,  0.075000003
   4422,  0.428571433, -0.352941185,  0.075000003
   4423,  0.428571433, -0.294117659,  0.075000003
   4424,  0.428571433, -0.235294119,  0.075000003
   4425,  0.428571433, -0.176470593,  0.075000003
   4426,  0.428571433, -0.117647059,  0.075000003
   4427,  0.428571433, -0.0588235296,  0.075000003
   4428,  0.428571433,           0.,  0.075000003
   4429,  0.428571433, 0.0588235296,  0.075000003
   4430,  0.428571433,  0.117647059,  0.075000003
   4431,  0.428571433,  0.176470593,  0.075000003
   4432,  0.428571433,  0.235294119,  0.075000003
   4433,  0.428571433,  0.294117659,  0.075000003
   4434,  0.428571433,  0.352941185,  0.075000003
   4435,  0.428571433,  0.411764711,  0.075000003
   4436,  0.428571433,  0.470588237,  0.075000003
   4437,  0.428571433,  0.529411793,  0.075000003
   4438,  0.428571433,  0.588235319,  0.075000003
   4439,  0.428571433,  0.647058845,  0.075000003
   4440,  0.428571433,   0.70588237,  0.075000003
   4441,  0.428571433,  0.764705896,  0.075000003
   4442,  0.428571433,  0.823529422,  0.075000003
   4443,  0.428571433,  0.882352948,  0.075000003
   4444,  0.428571433,  0.941176474,  0.075000003
   4445,  0.428571433,           1.,  0.075000003
   4446,  0.428571433,          -1., 0.0500000007
   4447,  0.428571433, -0.941176474, 0.0500000007
   4448,  0.428571433, -0.882352948, 0.0500000007
   4449,  0.428571433, -0.823529422, 0.0500000007
   4450,  0.428571433, -0.764705896, 0.0500000007
   4451,  0.428571433,  -0.70588237, 0.0500000007
   4452,  0.428571433, -0.647058845, 0.0500000007
   4453,  0.428571433, -0.588235319, 0.0500000007
   4454,  0.428571433, -0.529411793, 0.0500000007
   4455,  0.428571433, -0.470588237, 0.0500000007
   4456,  0.428571433, -0.411764711, 0.0500000007
   4457,  0.428571433, -0.352941185, 0.0500000007
   4458,  0.428571433, -0.294117659, 0.0500000007
   4459,  0.428571433, -0.235294119, 0.0500000007
   4460,  0.428571433, -0.176470593, 0.0500000007
   4461,  0.428571433, -0.117647059, 0.0500000007
   4462,  0.428571433, -0.0588235296, 0.0500000007
   4463,  0.428571433,           0., 0.0500000007
   4464,  0.428571433, 0.0588235296, 0.0500000007
   4465,  0.428571433,  0.117647059, 0.0500000007
   4466,  0.428571433,  0.176470593, 0.0500000007
   4467,  0.428571433,  0.235294119, 0.0500000007
   4468,  0.428571433,  0.294117659, 0.0500000007
   4469,  0.428571433,  0.352941185, 0.0500000007
   4470,  0.428571433,  0.411764711, 0.0500000007
   4471,  0.428571433,  0.470588237, 0.0500000007
   4472,  0.428571433,  0.529411793, 0.0500000007
   4473,  0.428571433,  0.588235319, 0.0500000007
   4474,  0.428571433,  0.647058845, 0.0500000007
   4475,  0.428571433,   0.70588237, 0.0500000007
   4476,  0.428571433,  0.764705896, 0.0500000007
   4477,  0.428571433,  0.823529422, 0.0500000007
   4478,  0.428571433,  0.882352948, 0.0500000007
   4479,  0.428571433,  0.941176474, 0.0500000007
   4480,  0.428571433,           1., 0.0500000007
   4481,  0.428571433,          -1., 0.0250000004
   4482,  0.428571433, -0.941176474, 0.0250000004
   4483,  0.428571433, -0.882352948, 0.0250000004
   4484,  0.428571433, -0.823529422, 0.0250000004
   4485,  0.428571433, -0.764705896, 0.0250000004
   4486,  0.428571433,  -0.70588237, 0.0250000004
   4487,  0.428571433, -0.647058845, 0.0250000004
   4488,  0.428571433, -0.588235319, 0.0250000004
   4489,  0.428571433, -0.529411793, 0.0250000004
   4490,  0.428571433, -0.470588237, 0.0250000004
   4491,  0.428571433, -0.411764711, 0.0250000004
   4492,  0.428571433, -0.352941185, 0.0250000004
   4493,  0.428571433, -0.294117659, 0.0250000004
   4494,  0.428571433, -0.235294119, 0.0250000004
   4495,  0.428571433, -0.176470593, 0.0250000004
   4496,  0.428571433, -0.117647059, 0.0250000004
   4497,  0.428571433, -0.0588235296, 0.0250000004
   4498,  0.428571433,           0., 0.0250000004
   4499,  0.428571433, 0.0588235296, 0.0250000004
   4500,  0.428571433,  0.117647059, 0.0250000004
   4501,  0.428571433,  0.176470593, 0.0250000004
   4502,  0.428571433,  0.235294119, 0.0250000004
   4503,  0.428571433,  0.294117659, 0.0250000004
   4504,  0.428571433,  0.352941185, 0.0250000004
   4505,  0.428571433,  0.411764711, 0.0250000004
   4506,  0.428571433,  0.470588237, 0.0250000004
   4507,  0.428571433,  0.529411793, 0.0250000004
   4508,  0.428571433,  0.588235319, 0.0250000004
   4509,  0.428571433,  0.647058845, 0.0250000004
   4510,  0.428571433,   0.70588237, 0.0250000004
   4511,  0.428571433,  0.764705896, 0.0250000004
   4512,  0.428571433,  0.823529422, 0.0250000004
   4513,  0.428571433,  0.882352948, 0.0250000004
   4514,  0.428571433,  0.941176474, 0.0250000004
   4515,  0.428571433,           1., 0.0250000004
   4516,  0.428571433,          -1.,           0.
   4517,  0.428571433, -0.941176474,           0.
   4518,  0.428571433, -0.882352948,           0.
   4519,  0.428571433, -0.823529422,           0.
   4520,  0.428571433, -0.764705896,           0.
   4521,  0.428571433,  -0.70588237,           0.
   4522,  0.428571433, -0.647058845,           0.
   4523,  0.428571433, -0.588235319,           0.
   4524,  0.428571433, -0.529411793,           0.
   4525,  0.428571433, -0.470588237,           0.
   4526,  0.428571433, -0.411764711,           0.
   4527,  0.428571433, -0.352941185,           0.
   4528,  0.428571433, -0.294117659,           0.
   4529,  0.428571433, -0.235294119,           0.
   4530,  0.428571433, -0.176470593,           0.
   4531,  0.428571433, -0.117647059,           0.
   4532,  0.428571433, -0.0588235296,           0.
   4533,  0.428571433,           0.,           0.
   4534,  0.428571433, 0.0588235296,           0.
   4535,  0.428571433,  0.117647059,           0.
   4536,  0.428571433,  0.176470593,           0.
   4537,  0.428571433,  0.235294119,           0.
   4538,  0.428571433,  0.294117659,           0.
   4539,  0.428571433,  0.352941185,           0.
   4540,  0.428571433,  0.411764711,           0.
   4541,  0.428571433,  0.470588237,           0.
   4542,  0.428571433,  0.529411793,           0.
   4543,  0.428571433,  0.588235319,           0.
   4544,  0.428571433,  0.647058845,           0.
   4545,  0.428571433,   0.70588237,           0.
   4546,  0.428571433,  0.764705896,           0.
   4547,  0.428571433,  0.823529422,           0.
   4548,  0.428571433,  0.882352948,           0.
   4549,  0.428571433,  0.941176474,           0.
   4550,  0.428571433,           1.,           0.
   4551,  0.485714287,          -1.,  0.100000001
   4552,  0.485714287, -0.941176474,  0.100000001
   4553,  0.485714287, -0.882352948,  0.100000001
   4554,  0.485714287, -0.823529422,  0.100000001
   4555,  0.485714287, -0.764705896,  0.100000001
   4556,  0.485714287,  -0.70588237,  0.100000001
   4557,  0.485714287, -0.647058845,  0.100000001
   4558,  0.485714287, -0.588235319,  0.100000001
   4559,  0.485714287, -0.529411793,  0.100000001
   4560,  0.485714287, -0.470588237,  0.100000001
   4561,  0.485714287, -0.411764711,  0.100000001
   4562,  0.485714287, -0.352941185,  0.100000001
   4563,  0.485714287, -0.294117659,  0.100000001
   4564,  0.485714287, -0.235294119,  0.100000001
   4565,  0.485714287, -0.176470593,  0.100000001
   4566,  0.485714287, -0.117647059,  0.100000001
   4567,  0.485714287, -0.0588235296,  0.100000001
   4568,  0.485714287,           0.,  0.100000001
   4569,  0.485714287, 0.0588235296,  0.100000001
   4570,  0.485714287,  0.117647059,  0.100000001
   4571,  0.485714287,  0.176470593,  0.100000001
   4572,  0.485714287,  0.235294119,  0.100000001
   4573,  0.485714287,  0.294117659,  0.100000001
   4574,  0.485714287,  0.352941185,  0.100000001
   4575,  0.485714287,  0.411764711,  0.100000001
   4576,  0.485714287,  0.470588237,  0.100000001
   4577,  0.485714287,  0.529411793,  0.100000001
   4578,  0.485714287,  0.588235319,  0.100000001
   4579,  0.485714287,  0.647058845,  0.100000001
   4580,  0.485714287,   0.70588237,  0.100000001
   4581,  0.485714287,  0.764705896,  0.100000001
   4582,  0.485714287,  0.823529422,  0.100000001
   4583,  0.485714287,  0.882352948,  0.100000001
   4584,  0.485714287,  0.941176474,  0.100000001
   4585,  0.485714287,           1.,  0.100000001
   4586,  0.485714287,          -1.,  0.075000003
   4587,  0.485714287, -0.941176474,  0.075000003
   4588,  0.485714287, -0.882352948,  0.075000003
   4589,  0.485714287, -0.823529422,  0.075000003
   4590,  0.485714287, -0.764705896,  0.075000003
   4591,  0.485714287,  -0.70588237,  0.075000003
   4592,  0.485714287, -0.647058845,  0.075000003
   4593,  0.485714287, -0.588235319,  0.075000003
   4594,  0.485714287, -0.529411793,  0.075000003
   4595,  0.485714287, -0.470588237,  0.075000003
   4596,  0.485714287, -0.411764711,  0.075000003
   4597,  0.485714287, -0.352941185,  0.075000003
   4598,  0.485714287, -0.294117659,  0.075000003
   4599,  0.485714287, -0.235294119,  0.075000003
   4600,  0.485714287, -0.176470593,  0.075000003
   4601,  0.485714287, -0.117647059,  0.075000003
   4602,  0.485714287, -0.0588235296,  0.075000003
   4603,  0.485714287,           0.,  0.075000003
   4604,  0.485714287, 0.0588235296,  0.075000003
   4605,  0.485714287,  0.117647059,  0.075000003
   4606,  0.485714287,  0.176470593,  0.075000003
   4607,  0.485714287,  0.235294119,  0.075000003
   4608,  0.485714287,  0.294117659,  0.075000003
   4609,  0.485714287,  0.352941185,  0.075000003
   4610,  0.485714287,  0.411764711,  0.075000003
   4611,  0.485714287,  0.470588237,  0.075000003
   4612,  0.485714287,  0.529411793,  0.075000003
   4613,  0.485714287,  0.588235319,  0.075000003
   4614,  0.485714287,  0.647058845,  0.075000003
   4615,  0.485714287,   0.70588237,  0.075000003
   4616,  0.485714287,  0.764705896,  0.075000003
   4617,  0.485714287,  0.823529422,  0.075000003
   4618,  0.485714287,  0.882352948,  0.075000003
   4619,  0.485714287,  0.941176474,  0.075000003
   4620,  0.485714287,           1.,  0.075000003
   4621,  0.485714287,          -1., 0.0500000007
   4622,  0.485714287, -0.941176474, 0.0500000007
   4623,  0.485714287, -0.882352948, 0.0500000007
   4624,  0.485714287, -0.823529422, 0.0500000007
   4625,  0.485714287, -0.764705896, 0.0500000007
   4626,  0.485714287,  -0.70588237, 0.0500000007
   4627,  0.485714287, -0.647058845, 0.0500000007
   4628,  0.485714287, -0.588235319, 0.0500000007
   4629,  0.485714287, -0.529411793, 0.0500000007
   4630,  0.485714287, -0.470588237, 0.0500000007
   4631,  0.485714287, -0.411764711, 0.0500000007
   4632,  0.485714287, -0.352941185, 0.0500000007
   4633,  0.485714287, -0.294117659, 0.0500000007
   4634,  0.485714287, -0.235294119, 0.0500000007
   4635,  0.485714287, -0.176470593, 0.0500000007
   4636,  0.485714287, -0.117647059, 0.0500000007
   4637,  0.485714287, -0.0588235296, 0.0500000007
   4638,  0.485714287,           0., 0.0500000007
   4639,  0.485714287, 0.0588235296, 0.0500000007
   4640,  0.485714287,  0.117647059, 0.0500000007
   4641,  0.485714287,  0.176470593, 0.0500000007
   4642,  0.485714287,  0.235294119, 0.0500000007
   4643,  0.485714287,  0.294117659, 0.0500000007
   4644,  0.485714287,  0.352941185, 0.0500000007
   4645,  0.485714287,  0.411764711, 0.0500000007
   4646,  0.485714287,  0.470588237, 0.0500000007
   4647,  0.485714287,  0.529411793, 0.0500000007
   4648,  0.485714287,  0.588235319, 0.0500000007
   4649,  0.485714287,  0.647058845, 0.0500000007
   4650,  0.485714287,   0.70588237, 0.0500000007
   4651,  0.485714287,  0.764705896, 0.0500000007
   4652,  0.485714287,  0.823529422, 0.0500000007
   4653,  0.485714287,  0.882352948, 0.0500000007
   4654,  0.485714287,  0.941176474, 0.0500000007
   4655,  0.485714287,           1., 0.0500000007
   4656,  0.485714287,          -1., 0.0250000004
   4657,  0.485714287, -0.941176474, 0.0250000004
   4658,  0.485714287, -0.882352948, 0.0250000004
   4659,  0.485714287, -0.823529422, 0.0250000004
   4660,  0.485714287, -0.764705896, 0.0250000004
   4661,  0.485714287,  -0.70588237, 0.0250000004
   4662,  0.485714287, -0.647058845, 0.0250000004
   4663,  0.485714287, -0.588235319, 0.0250000004
   4664,  0.485714287, -0.529411793, 0.0250000004
   4665,  0.485714287, -0.470588237, 0.0250000004
   4666,  0.485714287, -0.411764711, 0.0250000004
   4667,  0.485714287, -0.352941185, 0.0250000004
   4668,  0.485714287, -0.294117659, 0.0250000004
   4669,  0.485714287, -0.235294119, 0.0250000004
   4670,  0.485714287, -0.176470593, 0.0250000004
   4671,  0.485714287, -0.117647059, 0.0250000004
   4672,  0.485714287, -0.0588235296, 0.0250000004
   4673,  0.485714287,           0., 0.0250000004
   4674,  0.485714287, 0.0588235296, 0.0250000004
   4675,  0.485714287,  0.117647059, 0.0250000004
   4676,  0.485714287,  0.176470593, 0.0250000004
   4677,  0.485714287,  0.235294119, 0.0250000004
   4678,  0.485714287,  0.294117659, 0.0250000004
   4679,  0.485714287,  0.352941185, 0.0250000004
   4680,  0.485714287,  0.411764711, 0.0250000004
   4681,  0.485714287,  0.470588237, 0.0250000004
   4682,  0.485714287,  0.529411793, 0.0250000004
   4683,  0.485714287,  0.588235319, 0.0250000004
   4684,  0.485714287,  0.647058845, 0.0250000004
   4685,  0.485714287,   0.70588237, 0.0250000004
   4686,  0.485714287,  0.764705896, 0.0250000004
   4687,  0.485714287,  0.823529422, 0.0250000004
   4688,  0.485714287,  0.882352948, 0.0250000004
   4689,  0.485714287,  0.941176474, 0.0250000004
   4690,  0.485714287,           1., 0.0250000004
   4691,  0.485714287,          -1.,           0.
   4692,  0.485714287, -0.941176474,           0.
   4693,  0.485714287, -0.882352948,           0.
   4694,  0.485714287, -0.823529422,           0.
   4695,  0.485714287, -0.764705896,           0.
   4696,  0.485714287,  -0.70588237,           0.
   4697,  0.485714287, -0.647058845,           0.
   4698,  0.485714287, -0.588235319,           0.
   4699,  0.485714287, -0.529411793,           0.
   4700,  0.485714287, -0.470588237,           0.
   4701,  0.485714287, -0.411764711,           0.
   4702,  0.485714287, -0.352941185,           0.
   4703,  0.485714287, -0.294117659,           0.
   4704,  0.485714287, -0.235294119,           0.
   4705,  0.485714287, -0.176470593,           0.
   4706,  0.485714287, -0.117647059,           0.
   4707,  0.485714287, -0.0588235296,           0.
   4708,  0.485714287,           0.,           0.
   4709,  0.485714287, 0.0588235296,           0.
   4710,  0.485714287,  0.117647059,           0.
   4711,  0.485714287,  0.176470593,           0.
   4712,  0.485714287,  0.235294119,           0.
   4713,  0.485714287,  0.294117659,           0.
   4714,  0.485714287,  0.352941185,           0.
   4715,  0.485714287,  0.411764711,           0.
   4716,  0.485714287,  0.470588237,           0.
   4717,  0.485714287,  0.529411793,           0.
   4718,  0.485714287,  0.588235319,           0.
   4719,  0.485714287,  0.647058845,           0.
   4720,  0.485714287,   0.70588237,           0.
   4721,  0.485714287,  0.764705896,           0.
   4722,  0.485714287,  0.823529422,           0.
   4723,  0.485714287,  0.882352948,           0.
   4724,  0.485714287,  0.941176474,           0.
   4725,  0.485714287,           1.,           0.
   4726,   0.54285717,          -1.,  0.100000001
   4727,   0.54285717, -0.941176474,  0.100000001
   4728,   0.54285717, -0.882352948,  0.100000001
   4729,   0.54285717, -0.823529422,  0.100000001
   4730,   0.54285717, -0.764705896,  0.100000001
   4731,   0.54285717,  -0.70588237,  0.100000001
   4732,   0.54285717, -0.647058845,  0.100000001
   4733,   0.54285717, -0.588235319,  0.100000001
   4734,   0.54285717, -0.529411793,  0.100000001
   4735,   0.54285717, -0.470588237,  0.100000001
   4736,   0.54285717, -0.411764711,  0.100000001
   4737,   0.54285717, -0.352941185,  0.100000001
   4738,   0.54285717, -0.294117659,  0.100000001
   4739,   0.54285717, -0.235294119,  0.100000001
   4740,   0.54285717, -0.176470593,  0.100000001
   4741,   0.54285717, -0.117647059,  0.100000001
   4742,   0.54285717, -0.0588235296,  0.100000001
   4743,   0.54285717,           0.,  0.100000001
   4744,   0.54285717, 0.0588235296,  0.100000001
   4745,   0.54285717,  0.117647059,  0.100000001
   4746,   0.54285717,  0.176470593,  0.100000001
   4747,   0.54285717,  0.235294119,  0.100000001
   4748,   0.54285717,  0.294117659,  0.100000001
   4749,   0.54285717,  0.352941185,  0.100000001
   4750,   0.54285717,  0.411764711,  0.100000001
   4751,   0.54285717,  0.470588237,  0.100000001
   4752,   0.54285717,  0.529411793,  0.100000001
   4753,   0.54285717,  0.588235319,  0.100000001
   4754,   0.54285717,  0.647058845,  0.100000001
   4755,   0.54285717,   0.70588237,  0.100000001
   4756,   0.54285717,  0.764705896,  0.100000001
   4757,   0.54285717,  0.823529422,  0.100000001
   4758,   0.54285717,  0.882352948,  0.100000001
   4759,   0.54285717,  0.941176474,  0.100000001
   4760,   0.54285717,           1.,  0.100000001
   4761,   0.54285717,          -1.,  0.075000003
   4762,   0.54285717, -0.941176474,  0.075000003
   4763,   0.54285717, -0.882352948,  0.075000003
   4764,   0.54285717, -0.823529422,  0.075000003
   4765,   0.54285717, -0.764705896,  0.075000003
   4766,   0.54285717,  -0.70588237,  0.075000003
   4767,   0.54285717, -0.647058845,  0.075000003
   4768,   0.54285717, -0.588235319,  0.075000003
   4769,   0.54285717, -0.529411793,  0.075000003
   4770,   0.54285717, -0.470588237,  0.075000003
   4771,   0.54285717, -0.411764711,  0.075000003
   4772,   0.54285717, -0.352941185,  0.075000003
   4773,   0.54285717, -0.294117659,  0.075000003
   4774,   0.54285717, -0.235294119,  0.075000003
   4775,   0.54285717, -0.176470593,  0.075000003
   4776,   0.54285717, -0.117647059,  0.075000003
   4777,   0.54285717, -0.0588235296,  0.075000003
   4778,   0.54285717,           0.,  0.075000003
   4779,   0.54285717, 0.0588235296,  0.075000003
   4780,   0.54285717,  0.117647059,  0.075000003
   4781,   0.54285717,  0.176470593,  0.075000003
   4782,   0.54285717,  0.235294119,  0.075000003
   4783,   0.54285717,  0.294117659,  0.075000003
   4784,   0.54285717,  0.352941185,  0.075000003
   4785,   0.54285717,  0.411764711,  0.075000003
   4786,   0.54285717,  0.470588237,  0.075000003
   4787,   0.54285717,  0.529411793,  0.075000003
   4788,   0.54285717,  0.588235319,  0.075000003
   4789,   0.54285717,  0.647058845,  0.075000003
   4790,   0.54285717,   0.70588237,  0.075000003
   4791,   0.54285717,  0.764705896,  0.075000003
   4792,   0.54285717,  0.823529422,  0.075000003
   4793,   0.54285717,  0.882352948,  0.075000003
   4794,   0.54285717,  0.941176474,  0.075000003
   4795,   0.54285717,           1.,  0.075000003
   4796,   0.54285717,          -1., 0.0500000007
   4797,   0.54285717, -0.941176474, 0.0500000007
   4798,   0.54285717, -0.882352948, 0.0500000007
   4799,   0.54285717, -0.823529422, 0.0500000007
   4800,   0.54285717, -0.764705896, 0.0500000007
   4801,   0.54285717,  -0.70588237, 0.0500000007
   4802,   0.54285717, -0.647058845, 0.0500000007
   4803,   0.54285717, -0.588235319, 0.0500000007
   4804,   0.54285717, -0.529411793, 0.0500000007
   4805,   0.54285717, -0.470588237, 0.0500000007
   4806,   0.54285717, -0.411764711, 0.0500000007
   4807,   0.54285717, -0.352941185, 0.0500000007
   4808,   0.54285717, -0.294117659, 0.0500000007
   4809,   0.54285717, -0.235294119, 0.0500000007
   4810,   0.54285717, -0.176470593, 0.0500000007
   4811,   0.54285717, -0.117647059, 0.0500000007
   4812,   0.54285717, -0.0588235296, 0.0500000007
   4813,   0.54285717,           0., 0.0500000007
   4814,   0.54285717, 0.0588235296, 0.0500000007
   4815,   0.54285717,  0.117647059, 0.0500000007
   4816,   0.54285717,  0.176470593, 0.0500000007
   4817,   0.54285717,  0.235294119, 0.0500000007
   4818,   0.54285717,  0.294117659, 0.0500000007
   4819,   0.54285717,  0.352941185, 0.0500000007
   4820,   0.54285717,  0.411764711, 0.0500000007
   4821,   0.54285717,  0.470588237, 0.0500000007
   4822,   0.54285717,  0.529411793, 0.0500000007
   4823,   0.54285717,  0.588235319, 0.0500000007
   4824,   0.54285717,  0.647058845, 0.0500000007
   4825,   0.54285717,   0.70588237, 0.0500000007
   4826,   0.54285717,  0.764705896, 0.0500000007
   4827,   0.54285717,  0.823529422, 0.0500000007
   4828,   0.54285717,  0.882352948, 0.0500000007
   4829,   0.54285717,  0.941176474, 0.0500000007
   4830,   0.54285717,           1., 0.0500000007
   4831,   0.54285717,          -1., 0.0250000004
   4832,   0.54285717, -0.941176474, 0.0250000004
   4833,   0.54285717, -0.882352948, 0.0250000004
   4834,   0.54285717, -0.823529422, 0.0250000004
   4835,   0.54285717, -0.764705896, 0.0250000004
   4836,   0.54285717,  -0.70588237, 0.0250000004
   4837,   0.54285717, -0.647058845, 0.0250000004
   4838,   0.54285717, -0.588235319, 0.0250000004
   4839,   0.54285717, -0.529411793, 0.0250000004
   4840,   0.54285717, -0.470588237, 0.0250000004
   4841,   0.54285717, -0.411764711, 0.0250000004
   4842,   0.54285717, -0.352941185, 0.0250000004
   4843,   0.54285717, -0.294117659, 0.0250000004
   4844,   0.54285717, -0.235294119, 0.0250000004
   4845,   0.54285717, -0.176470593, 0.0250000004
   4846,   0.54285717, -0.117647059, 0.0250000004
   4847,   0.54285717, -0.0588235296, 0.0250000004
   4848,   0.54285717,           0., 0.0250000004
   4849,   0.54285717, 0.0588235296, 0.0250000004
   4850,   0.54285717,  0.117647059, 0.0250000004
   4851,   0.54285717,  0.176470593, 0.0250000004
   4852,   0.54285717,  0.235294119, 0.0250000004
   4853,   0.54285717,  0.294117659, 0.0250000004
   4854,   0.54285717,  0.352941185, 0.0250000004
   4855,   0.54285717,  0.411764711, 0.0250000004
   4856,   0.54285717,  0.470588237, 0.0250000004
   4857,   0.54285717,  0.529411793, 0.0250000004
   4858,   0.54285717,  0.588235319, 0.0250000004
   4859,   0.54285717,  0.647058845, 0.0250000004
   4860,   0.54285717,   0.70588237, 0.0250000004
   4861,   0.54285717,  0.764705896, 0.0250000004
   4862,   0.54285717,  0.823529422, 0.0250000004
   4863,   0.54285717,  0.882352948, 0.0250000004
   4864,   0.54285717,  0.941176474, 0.0250000004
   4865,   0.54285717,           1., 0.0250000004
   4866,   0.54285717,          -1.,           0.
   4867,   0.54285717, -0.941176474,           0.
   4868,   0.54285717, -0.882352948,           0.
   4869,   0.54285717, -0.823529422,           0.
   4870,   0.54285717, -0.764705896,           0.
   4871,   0.54285717,  -0.70588237,           0.
   4872,   0.54285717, -0.647058845,           0.
   4873,   0.54285717, -0.588235319,           0.
   4874,   0.54285717, -0.529411793,           0.
   4875,   0.54285717, -0.470588237,           0.
   4876,   0.54285717, -0.411764711,           0.
   4877,   0.54285717, -0.352941185,           0.
   4878,   0.54285717, -0.294117659,           0.
   4879,   0.54285717, -0.235294119,           0.
   4880,   0.54285717, -0.176470593,           0.
   4881,   0.54285717, -0.117647059,           0.
   4882,   0.54285717, -0.0588235296,           0.
   4883,   0.54285717,           0.,           0.
   4884,   0.54285717, 0.0588235296,           0.
   4885,   0.54285717,  0.117647059,           0.
   4886,   0.54285717,  0.176470593,           0.
   4887,   0.54285717,  0.235294119,           0.
   4888,   0.54285717,  0.294117659,           0.
   4889,   0.54285717,  0.352941185,           0.
   4890,   0.54285717,  0.411764711,           0.
   4891,   0.54285717,  0.470588237,           0.
   4892,   0.54285717,  0.529411793,           0.
   4893,   0.54285717,  0.588235319,           0.
   4894,   0.54285717,  0.647058845,           0.
   4895,   0.54285717,   0.70588237,           0.
   4896,   0.54285717,  0.764705896,           0.
   4897,   0.54285717,  0.823529422,           0.
   4898,   0.54285717,  0.882352948,           0.
   4899,   0.54285717,  0.941176474,           0.
   4900,   0.54285717,           1.,           0.
   4901,  0.600000024,          -1.,  0.100000001
   4902,  0.600000024, -0.941176474,  0.100000001
   4903,  0.600000024, -0.882352948,  0.100000001
   4904,  0.600000024, -0.823529422,  0.100000001
   4905,  0.600000024, -0.764705896,  0.100000001
   4906,  0.600000024,  -0.70588237,  0.100000001
   4907,  0.600000024, -0.647058845,  0.100000001
   4908,  0.600000024, -0.588235319,  0.100000001
   4909,  0.600000024, -0.529411793,  0.100000001
   4910,  0.600000024, -0.470588237,  0.100000001
   4911,  0.600000024, -0.411764711,  0.100000001
   4912,  0.600000024, -0.352941185,  0.100000001
   4913,  0.600000024, -0.294117659,  0.100000001
   4914,  0.600000024, -0.235294119,  0.100000001
   4915,  0.600000024, -0.176470593,  0.100000001
   4916,  0.600000024, -0.117647059,  0.100000001
   4917,  0.600000024, -0.0588235296,  0.100000001
   4918,  0.600000024,           0.,  0.100000001
   4919,  0.600000024, 0.0588235296,  0.100000001
   4920,  0.600000024,  0.117647059,  0.100000001
   4921,  0.600000024,  0.176470593,  0.100000001
   4922,  0.600000024,  0.235294119,  0.100000001
   4923,  0.600000024,  0.294117659,  0.100000001
   4924,  0.600000024,  0.352941185,  0.100000001
   4925,  0.600000024,  0.411764711,  0.100000001
   4926,  0.600000024,  0.470588237,  0.100000001
   4927,  0.600000024,  0.529411793,  0.100000001
   4928,  0.600000024,  0.588235319,  0.100000001
   4929,  0.600000024,  0.647058845,  0.100000001
   4930,  0.600000024,   0.70588237,  0.100000001
   4931,  0.600000024,  0.764705896,  0.100000001
   4932,  0.600000024,  0.823529422,  0.100000001
   4933,  0.600000024,  0.882352948,  0.100000001
   4934,  0.600000024,  0.941176474,  0.100000001
   4935,  0.600000024,           1.,  0.100000001
   4936,  0.600000024,          -1.,  0.075000003
   4937,  0.600000024, -0.941176474,  0.075000003
   4938,  0.600000024, -0.882352948,  0.075000003
   4939,  0.600000024, -0.823529422,  0.075000003
   4940,  0.600000024, -0.764705896,  0.075000003
   4941,  0.600000024,  -0.70588237,  0.075000003
   4942,  0.600000024, -0.647058845,  0.075000003
   4943,  0.600000024, -0.588235319,  0.075000003
   4944,  0.600000024, -0.529411793,  0.075000003
   4945,  0.600000024, -0.470588237,  0.075000003
   4946,  0.600000024, -0.411764711,  0.075000003
   4947,  0.600000024, -0.352941185,  0.075000003
   4948,  0.600000024, -0.294117659,  0.075000003
   4949,  0.600000024, -0.235294119,  0.075000003
   4950,  0.600000024, -0.176470593,  0.075000003
   4951,  0.600000024, -0.117647059,  0.075000003
   4952,  0.600000024, -0.0588235296,  0.075000003
   4953,  0.600000024,           0.,  0.075000003
   4954,  0.600000024, 0.0588235296,  0.075000003
   4955,  0.600000024,  0.117647059,  0.075000003
   4956,  0.600000024,  0.176470593,  0.075000003
   4957,  0.600000024,  0.235294119,  0.075000003
   4958,  0.600000024,  0.294117659,  0.075000003
   4959,  0.600000024,  0.352941185,  0.075000003
   4960,  0.600000024,  0.411764711,  0.075000003
   4961,  0.600000024,  0.470588237,  0.075000003
   4962,  0.600000024,  0.529411793,  0.075000003
   4963,  0.600000024,  0.588235319,  0.075000003
   4964,  0.600000024,  0.647058845,  0.075000003
   4965,  0.600000024,   0.70588237,  0.075000003
   4966,  0.600000024,  0.764705896,  0.075000003
   4967,  0.600000024,  0.823529422,  0.075000003
   4968,  0.600000024,  0.882352948,  0.075000003
   4969,  0.600000024,  0.941176474,  0.075000003
   4970,  0.600000024,           1.,  0.075000003
   4971,  0.600000024,          -1., 0.0500000007
   4972,  0.600000024, -0.941176474, 0.0500000007
   4973,  0.600000024, -0.882352948, 0.0500000007
   4974,  0.600000024, -0.823529422, 0.0500000007
   4975,  0.600000024, -0.764705896, 0.0500000007
   4976,  0.600000024,  -0.70588237, 0.0500000007
   4977,  0.600000024, -0.647058845, 0.0500000007
   4978,  0.600000024, -0.588235319, 0.0500000007
   4979,  0.600000024, -0.529411793, 0.0500000007
   4980,  0.600000024, -0.470588237, 0.0500000007
   4981,  0.600000024, -0.411764711, 0.0500000007
   4982,  0.600000024, -0.352941185, 0.0500000007
   4983,  0.600000024, -0.294117659, 0.0500000007
   4984,  0.600000024, -0.235294119, 0.0500000007
   4985,  0.600000024, -0.176470593, 0.0500000007
   4986,  0.600000024, -0.117647059, 0.0500000007
   4987,  0.600000024, -0.0588235296, 0.0500000007
   4988,  0.600000024,           0., 0.0500000007
   4989,  0.600000024, 0.0588235296, 0.0500000007
   4990,  0.600000024,  0.117647059, 0.0500000007
   4991,  0.600000024,  0.176470593, 0.0500000007
   4992,  0.600000024,  0.235294119, 0.0500000007
   4993,  0.600000024,  0.294117659, 0.0500000007
   4994,  0.600000024,  0.352941185, 0.0500000007
   4995,  0.600000024,  0.411764711, 0.0500000007
   4996,  0.600000024,  0.470588237, 0.0500000007
   4997,  0.600000024,  0.529411793, 0.0500000007
   4998,  0.600000024,  0.588235319, 0.0500000007
   4999,  0.600000024,  0.647058845, 0.0500000007
   5000,  0.600000024,   0.70588237, 0.0500000007
   5001,  0.600000024,  0.764705896, 0.0500000007
   5002,  0.600000024,  0.823529422, 0.0500000007
   5003,  0.600000024,  0.882352948, 0.0500000007
   5004,  0.600000024,  0.941176474, 0.0500000007
   5005,  0.600000024,           1., 0.0500000007
   5006,  0.600000024,          -1., 0.0250000004
   5007,  0.600000024, -0.941176474, 0.0250000004
   5008,  0.600000024, -0.882352948, 0.0250000004
   5009,  0.600000024, -0.823529422, 0.0250000004
   5010,  0.600000024, -0.764705896, 0.0250000004
   5011,  0.600000024,  -0.70588237, 0.0250000004
   5012,  0.600000024, -0.647058845, 0.0250000004
   5013,  0.600000024, -0.588235319, 0.0250000004
   5014,  0.600000024, -0.529411793, 0.0250000004
   5015,  0.600000024, -0.470588237, 0.0250000004
   5016,  0.600000024, -0.411764711, 0.0250000004
   5017,  0.600000024, -0.352941185, 0.0250000004
   5018,  0.600000024, -0.294117659, 0.0250000004
   5019,  0.600000024, -0.235294119, 0.0250000004
   5020,  0.600000024, -0.176470593, 0.0250000004
   5021,  0.600000024, -0.117647059, 0.0250000004
   5022,  0.600000024, -0.0588235296, 0.0250000004
   5023,  0.600000024,           0., 0.0250000004
   5024,  0.600000024, 0.0588235296, 0.0250000004
   5025,  0.600000024,  0.117647059, 0.0250000004
   5026,  0.600000024,  0.176470593, 0.0250000004
   5027,  0.600000024,  0.235294119, 0.0250000004
   5028,  0.600000024,  0.294117659, 0.0250000004
   5029,  0.600000024,  0.352941185, 0.0250000004
   5030,  0.600000024,  0.411764711, 0.0250000004
   5031,  0.600000024,  0.470588237, 0.0250000004
   5032,  0.600000024,  0.529411793, 0.0250000004
   5033,  0.600000024,  0.588235319, 0.0250000004
   5034,  0.600000024,  0.647058845, 0.0250000004
   5035,  0.600000024,   0.70588237, 0.0250000004
   5036,  0.600000024,  0.764705896, 0.0250000004
   5037,  0.600000024,  0.823529422, 0.0250000004
   5038,  0.600000024,  0.882352948, 0.0250000004
   5039,  0.600000024,  0.941176474, 0.0250000004
   5040,  0.600000024,           1., 0.0250000004
   5041,  0.600000024,          -1.,           0.
   5042,  0.600000024, -0.941176474,           0.
   5043,  0.600000024, -0.882352948,           0.
   5044,  0.600000024, -0.823529422,           0.
   5045,  0.600000024, -0.764705896,           0.
   5046,  0.600000024,  -0.70588237,           0.
   5047,  0.600000024, -0.647058845,           0.
   5048,  0.600000024, -0.588235319,           0.
   5049,  0.600000024, -0.529411793,           0.
   5050,  0.600000024, -0.470588237,           0.
   5051,  0.600000024, -0.411764711,           0.
   5052,  0.600000024, -0.352941185,           0.
   5053,  0.600000024, -0.294117659,           0.
   5054,  0.600000024, -0.235294119,           0.
   5055,  0.600000024, -0.176470593,           0.
   5056,  0.600000024, -0.117647059,           0.
   5057,  0.600000024, -0.0588235296,           0.
   5058,  0.600000024,           0.,           0.
   5059,  0.600000024, 0.0588235296,           0.
   5060,  0.600000024,  0.117647059,           0.
   5061,  0.600000024,  0.176470593,           0.
   5062,  0.600000024,  0.235294119,           0.
   5063,  0.600000024,  0.294117659,           0.
   5064,  0.600000024,  0.352941185,           0.
   5065,  0.600000024,  0.411764711,           0.
   5066,  0.600000024,  0.470588237,           0.
   5067,  0.600000024,  0.529411793,           0.
   5068,  0.600000024,  0.588235319,           0.
   5069,  0.600000024,  0.647058845,           0.
   5070,  0.600000024,   0.70588237,           0.
   5071,  0.600000024,  0.764705896,           0.
   5072,  0.600000024,  0.823529422,           0.
   5073,  0.600000024,  0.882352948,           0.
   5074,  0.600000024,  0.941176474,           0.
   5075,  0.600000024,           1.,           0.
   5076,  0.657142878,          -1.,  0.100000001
   5077,  0.657142878, -0.941176474,  0.100000001
   5078,  0.657142878, -0.882352948,  0.100000001
   5079,  0.657142878, -0.823529422,  0.100000001
   5080,  0.657142878, -0.764705896,  0.100000001
   5081,  0.657142878,  -0.70588237,  0.100000001
   5082,  0.657142878, -0.647058845,  0.100000001
   5083,  0.657142878, -0.588235319,  0.100000001
   5084,  0.657142878, -0.529411793,  0.100000001
   5085,  0.657142878, -0.470588237,  0.100000001
   5086,  0.657142878, -0.411764711,  0.100000001
   5087,  0.657142878, -0.352941185,  0.100000001
   5088,  0.657142878, -0.294117659,  0.100000001
   5089,  0.657142878, -0.235294119,  0.100000001
   5090,  0.657142878, -0.176470593,  0.100000001
   5091,  0.657142878, -0.117647059,  0.100000001
   5092,  0.657142878, -0.0588235296,  0.100000001
   5093,  0.657142878,           0.,  0.100000001
   5094,  0.657142878, 0.0588235296,  0.100000001
   5095,  0.657142878,  0.117647059,  0.100000001
   5096,  0.657142878,  0.176470593,  0.100000001
   5097,  0.657142878,  0.235294119,  0.100000001
   5098,  0.657142878,  0.294117659,  0.100000001
   5099,  0.657142878,  0.352941185,  0.100000001
   5100,  0.657142878,  0.411764711,  0.100000001
   5101,  0.657142878,  0.470588237,  0.100000001
   5102,  0.657142878,  0.529411793,  0.100000001
   5103,  0.657142878,  0.588235319,  0.100000001
   5104,  0.657142878,  0.647058845,  0.100000001
   5105,  0.657142878,   0.70588237,  0.100000001
   5106,  0.657142878,  0.764705896,  0.100000001
   5107,  0.657142878,  0.823529422,  0.100000001
   5108,  0.657142878,  0.882352948,  0.100000001
   5109,  0.657142878,  0.941176474,  0.100000001
   5110,  0.657142878,           1.,  0.100000001
   5111,  0.657142878,          -1.,  0.075000003
   5112,  0.657142878, -0.941176474,  0.075000003
   5113,  0.657142878, -0.882352948,  0.075000003
   5114,  0.657142878, -0.823529422,  0.075000003
   5115,  0.657142878, -0.764705896,  0.075000003
   5116,  0.657142878,  -0.70588237,  0.075000003
   5117,  0.657142878, -0.647058845,  0.075000003
   5118,  0.657142878, -0.588235319,  0.075000003
   5119,  0.657142878, -0.529411793,  0.075000003
   5120,  0.657142878, -0.470588237,  0.075000003
   5121,  0.657142878, -0.411764711,  0.075000003
   5122,  0.657142878, -0.352941185,  0.075000003
   5123,  0.657142878, -0.294117659,  0.075000003
   5124,  0.657142878, -0.235294119,  0.075000003
   5125,  0.657142878, -0.176470593,  0.075000003
   5126,  0.657142878, -0.117647059,  0.075000003
   5127,  0.657142878, -0.0588235296,  0.075000003
   5128,  0.657142878,           0.,  0.075000003
   5129,  0.657142878, 0.0588235296,  0.075000003
   5130,  0.657142878,  0.117647059,  0.075000003
   5131,  0.657142878,  0.176470593,  0.075000003
   5132,  0.657142878,  0.235294119,  0.075000003
   5133,  0.657142878,  0.294117659,  0.075000003
   5134,  0.657142878,  0.352941185,  0.075000003
   5135,  0.657142878,  0.411764711,  0.075000003
   5136,  0.657142878,  0.470588237,  0.075000003
   5137,  0.657142878,  0.529411793,  0.075000003
   5138,  0.657142878,  0.588235319,  0.075000003
   5139,  0.657142878,  0.647058845,  0.075000003
   5140,  0.657142878,   0.70588237,  0.075000003
   5141,  0.657142878,  0.764705896,  0.075000003
   5142,  0.657142878,  0.823529422,  0.075000003
   5143,  0.657142878,  0.882352948,  0.075000003
   5144,  0.657142878,  0.941176474,  0.075000003
   5145,  0.657142878,           1.,  0.075000003
   5146,  0.657142878,          -1., 0.0500000007
   5147,  0.657142878, -0.941176474, 0.0500000007
   5148,  0.657142878, -0.882352948, 0.0500000007
   5149,  0.657142878, -0.823529422, 0.0500000007
   5150,  0.657142878, -0.764705896, 0.0500000007
   5151,  0.657142878,  -0.70588237, 0.0500000007
   5152,  0.657142878, -0.647058845, 0.0500000007
   5153,  0.657142878, -0.588235319, 0.0500000007
   5154,  0.657142878, -0.529411793, 0.0500000007
   5155,  0.657142878, -0.470588237, 0.0500000007
   5156,  0.657142878, -0.411764711, 0.0500000007
   5157,  0.657142878, -0.352941185, 0.0500000007
   5158,  0.657142878, -0.294117659, 0.0500000007
   5159,  0.657142878, -0.235294119, 0.0500000007
   5160,  0.657142878, -0.176470593, 0.0500000007
   5161,  0.657142878, -0.117647059, 0.0500000007
   5162,  0.657142878, -0.0588235296, 0.0500000007
   5163,  0.657142878,           0., 0.0500000007
   5164,  0.657142878, 0.0588235296, 0.0500000007
   5165,  0.657142878,  0.117647059, 0.0500000007
   5166,  0.657142878,  0.176470593, 0.0500000007
   5167,  0.657142878,  0.235294119, 0.0500000007
   5168,  0.657142878,  0.294117659, 0.0500000007
   5169,  0.657142878,  0.352941185, 0.0500000007
   5170,  0.657142878,  0.411764711, 0.0500000007
   5171,  0.657142878,  0.470588237, 0.0500000007
   5172,  0.657142878,  0.529411793, 0.0500000007
   5173,  0.657142878,  0.588235319, 0.0500000007
   5174,  0.657142878,  0.647058845, 0.0500000007
   5175,  0.657142878,   0.70588237, 0.0500000007
   5176,  0.657142878,  0.764705896, 0.0500000007
   5177,  0.657142878,  0.823529422, 0.0500000007
   5178,  0.657142878,  0.882352948, 0.0500000007
   5179,  0.657142878,  0.941176474, 0.0500000007
   5180,  0.657142878,           1., 0.0500000007
   5181,  0.657142878,          -1., 0.0250000004
   5182,  0.657142878, -0.941176474, 0.0250000004
   5183,  0.657142878, -0.882352948, 0.0250000004
   5184,  0.657142878, -0.823529422, 0.0250000004
   5185,  0.657142878, -0.764705896, 0.0250000004
   5186,  0.657142878,  -0.70588237, 0.0250000004
   5187,  0.657142878, -0.647058845, 0.0250000004
   5188,  0.657142878, -0.588235319, 0.0250000004
   5189,  0.657142878, -0.529411793, 0.0250000004
   5190,  0.657142878, -0.470588237, 0.0250000004
   5191,  0.657142878, -0.411764711, 0.0250000004
   5192,  0.657142878, -0.352941185, 0.0250000004
   5193,  0.657142878, -0.294117659, 0.0250000004
   5194,  0.657142878, -0.235294119, 0.0250000004
   5195,  0.657142878, -0.176470593, 0.0250000004
   5196,  0.657142878, -0.117647059, 0.0250000004
   5197,  0.657142878, -0.0588235296, 0.0250000004
   5198,  0.657142878,           0., 0.0250000004
   5199,  0.657142878, 0.0588235296, 0.0250000004
   5200,  0.657142878,  0.117647059, 0.0250000004
   5201,  0.657142878,  0.176470593, 0.0250000004
   5202,  0.657142878,  0.235294119, 0.0250000004
   5203,  0.657142878,  0.294117659, 0.0250000004
   5204,  0.657142878,  0.352941185, 0.0250000004
   5205,  0.657142878,  0.411764711, 0.0250000004
   5206,  0.657142878,  0.470588237, 0.0250000004
   5207,  0.657142878,  0.529411793, 0.0250000004
   5208,  0.657142878,  0.588235319, 0.0250000004
   5209,  0.657142878,  0.647058845, 0.0250000004
   5210,  0.657142878,   0.70588237, 0.0250000004
   5211,  0.657142878,  0.764705896, 0.0250000004
   5212,  0.657142878,  0.823529422, 0.0250000004
   5213,  0.657142878,  0.882352948, 0.0250000004
   5214,  0.657142878,  0.941176474, 0.0250000004
   5215,  0.657142878,           1., 0.0250000004
   5216,  0.657142878,          -1.,           0.
   5217,  0.657142878, -0.941176474,           0.
   5218,  0.657142878, -0.882352948,           0.
   5219,  0.657142878, -0.823529422,           0.
   5220,  0.657142878, -0.764705896,           0.
   5221,  0.657142878,  -0.70588237,           0.
   5222,  0.657142878, -0.647058845,           0.
   5223,  0.657142878, -0.588235319,           0.
   5224,  0.657142878, -0.529411793,           0.
   5225,  0.657142878, -0.470588237,           0.
   5226,  0.657142878, -0.411764711,           0.
   5227,  0.657142878, -0.352941185,           0.
   5228,  0.657142878, -0.294117659,           0.
   5229,  0.657142878, -0.235294119,           0.
   5230,  0.657142878, -0.176470593,           0.
   5231,  0.657142878, -0.117647059,           0.
   5232,  0.657142878, -0.0588235296,           0.
   5233,  0.657142878,           0.,           0.
   5234,  0.657142878, 0.0588235296,           0.
   5235,  0.657142878,  0.117647059,           0.
   5236,  0.657142878,  0.176470593,           0.
   5237,  0.657142878,  0.235294119,           0.
   5238,  0.657142878,  0.294117659,           0.
   5239,  0.657142878,  0.352941185,           0.
   5240,  0.657142878,  0.411764711,           0.
   5241,  0.657142878,  0.470588237,           0.
   5242,  0.657142878,  0.529411793,           0.
   5243,  0.657142878,  0.588235319,           0.
   5244,  0.657142878,  0.647058845,           0.
   5245,  0.657142878,   0.70588237,           0.
   5246,  0.657142878,  0.764705896,           0.
   5247,  0.657142878,  0.823529422,           0.
   5248,  0.657142878,  0.882352948,           0.
   5249,  0.657142878,  0.941176474,           0.
   5250,  0.657142878,           1.,           0.
   5251,  0.714285731,          -1.,  0.100000001
   5252,  0.714285731, -0.941176474,  0.100000001
   5253,  0.714285731, -0.882352948,  0.100000001
   5254,  0.714285731, -0.823529422,  0.100000001
   5255,  0.714285731, -0.764705896,  0.100000001
   5256,  0.714285731,  -0.70588237,  0.100000001
   5257,  0.714285731, -0.647058845,  0.100000001
   5258,  0.714285731, -0.588235319,  0.100000001
   5259,  0.714285731, -0.529411793,  0.100000001
   5260,  0.714285731, -0.470588237,  0.100000001
   5261,  0.714285731, -0.411764711,  0.100000001
   5262,  0.714285731, -0.352941185,  0.100000001
   5263,  0.714285731, -0.294117659,  0.100000001
   5264,  0.714285731, -0.235294119,  0.100000001
   5265,  0.714285731, -0.176470593,  0.100000001
   5266,  0.714285731, -0.117647059,  0.100000001
   5267,  0.714285731, -0.0588235296,  0.100000001
   5268,  0.714285731,           0.,  0.100000001
   5269,  0.714285731, 0.0588235296,  0.100000001
   5270,  0.714285731,  0.117647059,  0.100000001
   5271,  0.714285731,  0.176470593,  0.100000001
   5272,  0.714285731,  0.235294119,  0.100000001
   5273,  0.714285731,  0.294117659,  0.100000001
   5274,  0.714285731,  0.352941185,  0.100000001
   5275,  0.714285731,  0.411764711,  0.100000001
   5276,  0.714285731,  0.470588237,  0.100000001
   5277,  0.714285731,  0.529411793,  0.100000001
   5278,  0.714285731,  0.588235319,  0.100000001
   5279,  0.714285731,  0.647058845,  0.100000001
   5280,  0.714285731,   0.70588237,  0.100000001
   5281,  0.714285731,  0.764705896,  0.100000001
   5282,  0.714285731,  0.823529422,  0.100000001
   5283,  0.714285731,  0.882352948,  0.100000001
   5284,  0.714285731,  0.941176474,  0.100000001
   5285,  0.714285731,           1.,  0.100000001
   5286,  0.714285731,          -1.,  0.075000003
   5287,  0.714285731, -0.941176474,  0.075000003
   5288,  0.714285731, -0.882352948,  0.075000003
   5289,  0.714285731, -0.823529422,  0.075000003
   5290,  0.714285731, -0.764705896,  0.075000003
   5291,  0.714285731,  -0.70588237,  0.075000003
   5292,  0.714285731, -0.647058845,  0.075000003
   5293,  0.714285731, -0.588235319,  0.075000003
   5294,  0.714285731, -0.529411793,  0.075000003
   5295,  0.714285731, -0.470588237,  0.075000003
   5296,  0.714285731, -0.411764711,  0.075000003
   5297,  0.714285731, -0.352941185,  0.075000003
   5298,  0.714285731, -0.294117659,  0.075000003
   5299,  0.714285731, -0.235294119,  0.075000003
   5300,  0.714285731, -0.176470593,  0.075000003
   5301,  0.714285731, -0.117647059,  0.075000003
   5302,  0.714285731, -0.0588235296,  0.075000003
   5303,  0.714285731,           0.,  0.075000003
   5304,  0.714285731, 0.0588235296,  0.075000003
   5305,  0.714285731,  0.117647059,  0.075000003
   5306,  0.714285731,  0.176470593,  0.075000003
   5307,  0.714285731,  0.235294119,  0.075000003
   5308,  0.714285731,  0.294117659,  0.075000003
   5309,  0.714285731,  0.352941185,  0.075000003
   5310,  0.714285731,  0.411764711,  0.075000003
   5311,  0.714285731,  0.470588237,  0.075000003
   5312,  0.714285731,  0.529411793,  0.075000003
   5313,  0.714285731,  0.588235319,  0.075000003
   5314,  0.714285731,  0.647058845,  0.075000003
   5315,  0.714285731,   0.70588237,  0.075000003
   5316,  0.714285731,  0.764705896,  0.075000003
   5317,  0.714285731,  0.823529422,  0.075000003
   5318,  0.714285731,  0.882352948,  0.075000003
   5319,  0.714285731,  0.941176474,  0.075000003
   5320,  0.714285731,           1.,  0.075000003
   5321,  0.714285731,          -1., 0.0500000007
   5322,  0.714285731, -0.941176474, 0.0500000007
   5323,  0.714285731, -0.882352948, 0.0500000007
   5324,  0.714285731, -0.823529422, 0.0500000007
   5325,  0.714285731, -0.764705896, 0.0500000007
   5326,  0.714285731,  -0.70588237, 0.0500000007
   5327,  0.714285731, -0.647058845, 0.0500000007
   5328,  0.714285731, -0.588235319, 0.0500000007
   5329,  0.714285731, -0.529411793, 0.0500000007
   5330,  0.714285731, -0.470588237, 0.0500000007
   5331,  0.714285731, -0.411764711, 0.0500000007
   5332,  0.714285731, -0.352941185, 0.0500000007
   5333,  0.714285731, -0.294117659, 0.0500000007
   5334,  0.714285731, -0.235294119, 0.0500000007
   5335,  0.714285731, -0.176470593, 0.0500000007
   5336,  0.714285731, -0.117647059, 0.0500000007
   5337,  0.714285731, -0.0588235296, 0.0500000007
   5338,  0.714285731,           0., 0.0500000007
   5339,  0.714285731, 0.0588235296, 0.0500000007
   5340,  0.714285731,  0.117647059, 0.0500000007
   5341,  0.714285731,  0.176470593, 0.0500000007
   5342,  0.714285731,  0.235294119, 0.0500000007
   5343,  0.714285731,  0.294117659, 0.0500000007
   5344,  0.714285731,  0.352941185, 0.0500000007
   5345,  0.714285731,  0.411764711, 0.0500000007
   5346,  0.714285731,  0.470588237, 0.0500000007
   5347,  0.714285731,  0.529411793, 0.0500000007
   5348,  0.714285731,  0.588235319, 0.0500000007
   5349,  0.714285731,  0.647058845, 0.0500000007
   5350,  0.714285731,   0.70588237, 0.0500000007
   5351,  0.714285731,  0.764705896, 0.0500000007
   5352,  0.714285731,  0.823529422, 0.0500000007
   5353,  0.714285731,  0.882352948, 0.0500000007
   5354,  0.714285731,  0.941176474, 0.0500000007
   5355,  0.714285731,           1., 0.0500000007
   5356,  0.714285731,          -1., 0.0250000004
   5357,  0.714285731, -0.941176474, 0.0250000004
   5358,  0.714285731, -0.882352948, 0.0250000004
   5359,  0.714285731, -0.823529422, 0.0250000004
   5360,  0.714285731, -0.764705896, 0.0250000004
   5361,  0.714285731,  -0.70588237, 0.0250000004
   5362,  0.714285731, -0.647058845, 0.0250000004
   5363,  0.714285731, -0.588235319, 0.0250000004
   5364,  0.714285731, -0.529411793, 0.0250000004
   5365,  0.714285731, -0.470588237, 0.0250000004
   5366,  0.714285731, -0.411764711, 0.0250000004
   5367,  0.714285731, -0.352941185, 0.0250000004
   5368,  0.714285731, -0.294117659, 0.0250000004
   5369,  0.714285731, -0.235294119, 0.0250000004
   5370,  0.714285731, -0.176470593, 0.0250000004
   5371,  0.714285731, -0.117647059, 0.0250000004
   5372,  0.714285731, -0.0588235296, 0.0250000004
   5373,  0.714285731,           0., 0.0250000004
   5374,  0.714285731, 0.0588235296, 0.0250000004
   5375,  0.714285731,  0.117647059, 0.0250000004
   5376,  0.714285731,  0.176470593, 0.0250000004
   5377,  0.714285731,  0.235294119, 0.0250000004
   5378,  0.714285731,  0.294117659, 0.0250000004
   5379,  0.714285731,  0.352941185, 0.0250000004
   5380,  0.714285731,  0.411764711, 0.0250000004
   5381,  0.714285731,  0.470588237, 0.0250000004
   5382,  0.714285731,  0.529411793, 0.0250000004
   5383,  0.714285731,  0.588235319, 0.0250000004
   5384,  0.714285731,  0.647058845, 0.0250000004
   5385,  0.714285731,   0.70588237, 0.0250000004
   5386,  0.714285731,  0.764705896, 0.0250000004
   5387,  0.714285731,  0.823529422, 0.0250000004
   5388,  0.714285731,  0.882352948, 0.0250000004
   5389,  0.714285731,  0.941176474, 0.0250000004
   5390,  0.714285731,           1., 0.0250000004
   5391,  0.714285731,          -1.,           0.
   5392,  0.714285731, -0.941176474,           0.
   5393,  0.714285731, -0.882352948,           0.
   5394,  0.714285731, -0.823529422,           0.
   5395,  0.714285731, -0.764705896,           0.
   5396,  0.714285731,  -0.70588237,           0.
   5397,  0.714285731, -0.647058845,           0.
   5398,  0.714285731, -0.588235319,           0.
   5399,  0.714285731, -0.529411793,           0.
   5400,  0.714285731, -0.470588237,           0.
   5401,  0.714285731, -0.411764711,           0.
   5402,  0.714285731, -0.352941185,           0.
   5403,  0.714285731, -0.294117659,           0.
   5404,  0.714285731, -0.235294119,           0.
   5405,  0.714285731, -0.176470593,           0.
   5406,  0.714285731, -0.117647059,           0.
   5407,  0.714285731, -0.0588235296,           0.
   5408,  0.714285731,           0.,           0.
   5409,  0.714285731, 0.0588235296,           0.
   5410,  0.714285731,  0.117647059,           0.
   5411,  0.714285731,  0.176470593,           0.
   5412,  0.714285731,  0.235294119,           0.
   5413,  0.714285731,  0.294117659,           0.
   5414,  0.714285731,  0.352941185,           0.
   5415,  0.714285731,  0.411764711,           0.
   5416,  0.714285731,  0.470588237,           0.
   5417,  0.714285731,  0.529411793,           0.
   5418,  0.714285731,  0.588235319,           0.
   5419,  0.714285731,  0.647058845,           0.
   5420,  0.714285731,   0.70588237,           0.
   5421,  0.714285731,  0.764705896,           0.
   5422,  0.714285731,  0.823529422,           0.
   5423,  0.714285731,  0.882352948,           0.
   5424,  0.714285731,  0.941176474,           0.
   5425,  0.714285731,           1.,           0.
   5426,  0.771428585,          -1.,  0.100000001
   5427,  0.771428585, -0.941176474,  0.100000001
   5428,  0.771428585, -0.882352948,  0.100000001
   5429,  0.771428585, -0.823529422,  0.100000001
   5430,  0.771428585, -0.764705896,  0.100000001
   5431,  0.771428585,  -0.70588237,  0.100000001
   5432,  0.771428585, -0.647058845,  0.100000001
   5433,  0.771428585, -0.588235319,  0.100000001
   5434,  0.771428585, -0.529411793,  0.100000001
   5435,  0.771428585, -0.470588237,  0.100000001
   5436,  0.771428585, -0.411764711,  0.100000001
   5437,  0.771428585, -0.352941185,  0.100000001
   5438,  0.771428585, -0.294117659,  0.100000001
   5439,  0.771428585, -0.235294119,  0.100000001
   5440,  0.771428585, -0.176470593,  0.100000001
   5441,  0.771428585, -0.117647059,  0.100000001
   5442,  0.771428585, -0.0588235296,  0.100000001
   5443,  0.771428585,           0.,  0.100000001
   5444,  0.771428585, 0.0588235296,  0.100000001
   5445,  0.771428585,  0.117647059,  0.100000001
   5446,  0.771428585,  0.176470593,  0.100000001
   5447,  0.771428585,  0.235294119,  0.100000001
   5448,  0.771428585,  0.294117659,  0.100000001
   5449,  0.771428585,  0.352941185,  0.100000001
   5450,  0.771428585,  0.411764711,  0.100000001
   5451,  0.771428585,  0.470588237,  0.100000001
   5452,  0.771428585,  0.529411793,  0.100000001
   5453,  0.771428585,  0.588235319,  0.100000001
   5454,  0.771428585,  0.647058845,  0.100000001
   5455,  0.771428585,   0.70588237,  0.100000001
   5456,  0.771428585,  0.764705896,  0.100000001
   5457,  0.771428585,  0.823529422,  0.100000001
   5458,  0.771428585,  0.882352948,  0.100000001
   5459,  0.771428585,  0.941176474,  0.100000001
   5460,  0.771428585,           1.,  0.100000001
   5461,  0.771428585,          -1.,  0.075000003
   5462,  0.771428585, -0.941176474,  0.075000003
   5463,  0.771428585, -0.882352948,  0.075000003
   5464,  0.771428585, -0.823529422,  0.075000003
   5465,  0.771428585, -0.764705896,  0.075000003
   5466,  0.771428585,  -0.70588237,  0.075000003
   5467,  0.771428585, -0.647058845,  0.075000003
   5468,  0.771428585, -0.588235319,  0.075000003
   5469,  0.771428585, -0.529411793,  0.075000003
   5470,  0.771428585, -0.470588237,  0.075000003
   5471,  0.771428585, -0.411764711,  0.075000003
   5472,  0.771428585, -0.352941185,  0.075000003
   5473,  0.771428585, -0.294117659,  0.075000003
   5474,  0.771428585, -0.235294119,  0.075000003
   5475,  0.771428585, -0.176470593,  0.075000003
   5476,  0.771428585, -0.117647059,  0.075000003
   5477,  0.771428585, -0.0588235296,  0.075000003
   5478,  0.771428585,           0.,  0.075000003
   5479,  0.771428585, 0.0588235296,  0.075000003
   5480,  0.771428585,  0.117647059,  0.075000003
   5481,  0.771428585,  0.176470593,  0.075000003
   5482,  0.771428585,  0.235294119,  0.075000003
   5483,  0.771428585,  0.294117659,  0.075000003
   5484,  0.771428585,  0.352941185,  0.075000003
   5485,  0.771428585,  0.411764711,  0.075000003
   5486,  0.771428585,  0.470588237,  0.075000003
   5487,  0.771428585,  0.529411793,  0.075000003
   5488,  0.771428585,  0.588235319,  0.075000003
   5489,  0.771428585,  0.647058845,  0.075000003
   5490,  0.771428585,   0.70588237,  0.075000003
   5491,  0.771428585,  0.764705896,  0.075000003
   5492,  0.771428585,  0.823529422,  0.075000003
   5493,  0.771428585,  0.882352948,  0.075000003
   5494,  0.771428585,  0.941176474,  0.075000003
   5495,  0.771428585,           1.,  0.075000003
   5496,  0.771428585,          -1., 0.0500000007
   5497,  0.771428585, -0.941176474, 0.0500000007
   5498,  0.771428585, -0.882352948, 0.0500000007
   5499,  0.771428585, -0.823529422, 0.0500000007
   5500,  0.771428585, -0.764705896, 0.0500000007
   5501,  0.771428585,  -0.70588237, 0.0500000007
   5502,  0.771428585, -0.647058845, 0.0500000007
   5503,  0.771428585, -0.588235319, 0.0500000007
   5504,  0.771428585, -0.529411793, 0.0500000007
   5505,  0.771428585, -0.470588237, 0.0500000007
   5506,  0.771428585, -0.411764711, 0.0500000007
   5507,  0.771428585, -0.352941185, 0.0500000007
   5508,  0.771428585, -0.294117659, 0.0500000007
   5509,  0.771428585, -0.235294119, 0.0500000007
   5510,  0.771428585, -0.176470593, 0.0500000007
   5511,  0.771428585, -0.117647059, 0.0500000007
   5512,  0.771428585, -0.0588235296, 0.0500000007
   5513,  0.771428585,           0., 0.0500000007
   5514,  0.771428585, 0.0588235296, 0.0500000007
   5515,  0.771428585,  0.117647059, 0.0500000007
   5516,  0.771428585,  0.176470593, 0.0500000007
   5517,  0.771428585,  0.235294119, 0.0500000007
   5518,  0.771428585,  0.294117659, 0.0500000007
   5519,  0.771428585,  0.352941185, 0.0500000007
   5520,  0.771428585,  0.411764711, 0.0500000007
   5521,  0.771428585,  0.470588237, 0.0500000007
   5522,  0.771428585,  0.529411793, 0.0500000007
   5523,  0.771428585,  0.588235319, 0.0500000007
   5524,  0.771428585,  0.647058845, 0.0500000007
   5525,  0.771428585,   0.70588237, 0.0500000007
   5526,  0.771428585,  0.764705896, 0.0500000007
   5527,  0.771428585,  0.823529422, 0.0500000007
   5528,  0.771428585,  0.882352948, 0.0500000007
   5529,  0.771428585,  0.941176474, 0.0500000007
   5530,  0.771428585,           1., 0.0500000007
   5531,  0.771428585,          -1., 0.0250000004
   5532,  0.771428585, -0.941176474, 0.0250000004
   5533,  0.771428585, -0.882352948, 0.0250000004
   5534,  0.771428585, -0.823529422, 0.0250000004
   5535,  0.771428585, -0.764705896, 0.0250000004
   5536,  0.771428585,  -0.70588237, 0.0250000004
   5537,  0.771428585, -0.647058845, 0.0250000004
   5538,  0.771428585, -0.588235319, 0.0250000004
   5539,  0.771428585, -0.529411793, 0.0250000004
   5540,  0.771428585, -0.470588237, 0.0250000004
   5541,  0.771428585, -0.411764711, 0.0250000004
   5542,  0.771428585, -0.352941185, 0.0250000004
   5543,  0.771428585, -0.294117659, 0.0250000004
   5544,  0.771428585, -0.235294119, 0.0250000004
   5545,  0.771428585, -0.176470593, 0.0250000004
   5546,  0.771428585, -0.117647059, 0.0250000004
   5547,  0.771428585, -0.0588235296, 0.0250000004
   5548,  0.771428585,           0., 0.0250000004
   5549,  0.771428585, 0.0588235296, 0.0250000004
   5550,  0.771428585,  0.117647059, 0.0250000004
   5551,  0.771428585,  0.176470593, 0.0250000004
   5552,  0.771428585,  0.235294119, 0.0250000004
   5553,  0.771428585,  0.294117659, 0.0250000004
   5554,  0.771428585,  0.352941185, 0.0250000004
   5555,  0.771428585,  0.411764711, 0.0250000004
   5556,  0.771428585,  0.470588237, 0.0250000004
   5557,  0.771428585,  0.529411793, 0.0250000004
   5558,  0.771428585,  0.588235319, 0.0250000004
   5559,  0.771428585,  0.647058845, 0.0250000004
   5560,  0.771428585,   0.70588237, 0.0250000004
   5561,  0.771428585,  0.764705896, 0.0250000004
   5562,  0.771428585,  0.823529422, 0.0250000004
   5563,  0.771428585,  0.882352948, 0.0250000004
   5564,  0.771428585,  0.941176474, 0.0250000004
   5565,  0.771428585,           1., 0.0250000004
   5566,  0.771428585,          -1.,           0.
   5567,  0.771428585, -0.941176474,           0.
   5568,  0.771428585, -0.882352948,           0.
   5569,  0.771428585, -0.823529422,           0.
   5570,  0.771428585, -0.764705896,           0.
   5571,  0.771428585,  -0.70588237,           0.
   5572,  0.771428585, -0.647058845,           0.
   5573,  0.771428585, -0.588235319,           0.
   5574,  0.771428585, -0.529411793,           0.
   5575,  0.771428585, -0.470588237,           0.
   5576,  0.771428585, -0.411764711,           0.
   5577,  0.771428585, -0.352941185,           0.
   5578,  0.771428585, -0.294117659,           0.
   5579,  0.771428585, -0.235294119,           0.
   5580,  0.771428585, -0.176470593,           0.
   5581,  0.771428585, -0.117647059,           0.
   5582,  0.771428585, -0.0588235296,           0.
   5583,  0.771428585,           0.,           0.
   5584,  0.771428585, 0.0588235296,           0.
   5585,  0.771428585,  0.117647059,           0.
   5586,  0.771428585,  0.176470593,           0.
   5587,  0.771428585,  0.235294119,           0.
   5588,  0.771428585,  0.294117659,           0.
   5589,  0.771428585,  0.352941185,           0.
   5590,  0.771428585,  0.411764711,           0.
   5591,  0.771428585,  0.470588237,           0.
   5592,  0.771428585,  0.529411793,           0.
   5593,  0.771428585,  0.588235319,           0.
   5594,  0.771428585,  0.647058845,           0.
   5595,  0.771428585,   0.70588237,           0.
   5596,  0.771428585,  0.764705896,           0.
   5597,  0.771428585,  0.823529422,           0.
   5598,  0.771428585,  0.882352948,           0.
   5599,  0.771428585,  0.941176474,           0.
   5600,  0.771428585,           1.,           0.
   5601,  0.828571439,          -1.,  0.100000001
   5602,  0.828571439, -0.941176474,  0.100000001
   5603,  0.828571439, -0.882352948,  0.100000001
   5604,  0.828571439, -0.823529422,  0.100000001
   5605,  0.828571439, -0.764705896,  0.100000001
   5606,  0.828571439,  -0.70588237,  0.100000001
   5607,  0.828571439, -0.647058845,  0.100000001
   5608,  0.828571439, -0.588235319,  0.100000001
   5609,  0.828571439, -0.529411793,  0.100000001
   5610,  0.828571439, -0.470588237,  0.100000001
   5611,  0.828571439, -0.411764711,  0.100000001
   5612,  0.828571439, -0.352941185,  0.100000001
   5613,  0.828571439, -0.294117659,  0.100000001
   5614,  0.828571439, -0.235294119,  0.100000001
   5615,  0.828571439, -0.176470593,  0.100000001
   5616,  0.828571439, -0.117647059,  0.100000001
   5617,  0.828571439, -0.0588235296,  0.100000001
   5618,  0.828571439,           0.,  0.100000001
   5619,  0.828571439, 0.0588235296,  0.100000001
   5620,  0.828571439,  0.117647059,  0.100000001
   5621,  0.828571439,  0.176470593,  0.100000001
   5622,  0.828571439,  0.235294119,  0.100000001
   5623,  0.828571439,  0.294117659,  0.100000001
   5624,  0.828571439,  0.352941185,  0.100000001
   5625,  0.828571439,  0.411764711,  0.100000001
   5626,  0.828571439,  0.470588237,  0.100000001
   5627,  0.828571439,  0.529411793,  0.100000001
   5628,  0.828571439,  0.588235319,  0.100000001
   5629,  0.828571439,  0.647058845,  0.100000001
   5630,  0.828571439,   0.70588237,  0.100000001
   5631,  0.828571439,  0.764705896,  0.100000001
   5632,  0.828571439,  0.823529422,  0.100000001
   5633,  0.828571439,  0.882352948,  0.100000001
   5634,  0.828571439,  0.941176474,  0.100000001
   5635,  0.828571439,           1.,  0.100000001
   5636,  0.828571439,          -1.,  0.075000003
   5637,  0.828571439, -0.941176474,  0.075000003
   5638,  0.828571439, -0.882352948,  0.075000003
   5639,  0.828571439, -0.823529422,  0.075000003
   5640,  0.828571439, -0.764705896,  0.075000003
   5641,  0.828571439,  -0.70588237,  0.075000003
   5642,  0.828571439, -0.647058845,  0.075000003
   5643,  0.828571439, -0.588235319,  0.075000003
   5644,  0.828571439, -0.529411793,  0.075000003
   5645,  0.828571439, -0.470588237,  0.075000003
   5646,  0.828571439, -0.411764711,  0.075000003
   5647,  0.828571439, -0.352941185,  0.075000003
   5648,  0.828571439, -0.294117659,  0.075000003
   5649,  0.828571439, -0.235294119,  0.075000003
   5650,  0.828571439, -0.176470593,  0.075000003
   5651,  0.828571439, -0.117647059,  0.075000003
   5652,  0.828571439, -0.0588235296,  0.075000003
   5653,  0.828571439,           0.,  0.075000003
   5654,  0.828571439, 0.0588235296,  0.075000003
   5655,  0.828571439,  0.117647059,  0.075000003
   5656,  0.828571439,  0.176470593,  0.075000003
   5657,  0.828571439,  0.235294119,  0.075000003
   5658,  0.828571439,  0.294117659,  0.075000003
   5659,  0.828571439,  0.352941185,  0.075000003
   5660,  0.828571439,  0.411764711,  0.075000003
   5661,  0.828571439,  0.470588237,  0.075000003
   5662,  0.828571439,  0.529411793,  0.075000003
   5663,  0.828571439,  0.588235319,  0.075000003
   5664,  0.828571439,  0.647058845,  0.075000003
   5665,  0.828571439,   0.70588237,  0.075000003
   5666,  0.828571439,  0.764705896,  0.075000003
   5667,  0.828571439,  0.823529422,  0.075000003
   5668,  0.828571439,  0.882352948,  0.075000003
   5669,  0.828571439,  0.941176474,  0.075000003
   5670,  0.828571439,           1.,  0.075000003
   5671,  0.828571439,          -1., 0.0500000007
   5672,  0.828571439, -0.941176474, 0.0500000007
   5673,  0.828571439, -0.882352948, 0.0500000007
   5674,  0.828571439, -0.823529422, 0.0500000007
   5675,  0.828571439, -0.764705896, 0.0500000007
   5676,  0.828571439,  -0.70588237, 0.0500000007
   5677,  0.828571439, -0.647058845, 0.0500000007
   5678,  0.828571439, -0.588235319, 0.0500000007
   5679,  0.828571439, -0.529411793, 0.0500000007
   5680,  0.828571439, -0.470588237, 0.0500000007
   5681,  0.828571439, -0.411764711, 0.0500000007
   5682,  0.828571439, -0.352941185, 0.0500000007
   5683,  0.828571439, -0.294117659, 0.0500000007
   5684,  0.828571439, -0.235294119, 0.0500000007
   5685,  0.828571439, -0.176470593, 0.0500000007
   5686,  0.828571439, -0.117647059, 0.0500000007
   5687,  0.828571439, -0.0588235296, 0.0500000007
   5688,  0.828571439,           0., 0.0500000007
   5689,  0.828571439, 0.0588235296, 0.0500000007
   5690,  0.828571439,  0.117647059, 0.0500000007
   5691,  0.828571439,  0.176470593, 0.0500000007
   5692,  0.828571439,  0.235294119, 0.0500000007
   5693,  0.828571439,  0.294117659, 0.0500000007
   5694,  0.828571439,  0.352941185, 0.0500000007
   5695,  0.828571439,  0.411764711, 0.0500000007
   5696,  0.828571439,  0.470588237, 0.0500000007
   5697,  0.828571439,  0.529411793, 0.0500000007
   5698,  0.828571439,  0.588235319, 0.0500000007
   5699,  0.828571439,  0.647058845, 0.0500000007
   5700,  0.828571439,   0.70588237, 0.0500000007
   5701,  0.828571439,  0.764705896, 0.0500000007
   5702,  0.828571439,  0.823529422, 0.0500000007
   5703,  0.828571439,  0.882352948, 0.0500000007
   5704,  0.828571439,  0.941176474, 0.0500000007
   5705,  0.828571439,           1., 0.0500000007
   5706,  0.828571439,          -1., 0.0250000004
   5707,  0.828571439, -0.941176474, 0.0250000004
   5708,  0.828571439, -0.882352948, 0.0250000004
   5709,  0.828571439, -0.823529422, 0.0250000004
   5710,  0.828571439, -0.764705896, 0.0250000004
   5711,  0.828571439,  -0.70588237, 0.0250000004
   5712,  0.828571439, -0.647058845, 0.0250000004
   5713,  0.828571439, -0.588235319, 0.0250000004
   5714,  0.828571439, -0.529411793, 0.0250000004
   5715,  0.828571439, -0.470588237, 0.0250000004
   5716,  0.828571439, -0.411764711, 0.0250000004
   5717,  0.828571439, -0.352941185, 0.0250000004
   5718,  0.828571439, -0.294117659, 0.0250000004
   5719,  0.828571439, -0.235294119, 0.0250000004
   5720,  0.828571439, -0.176470593, 0.0250000004
   5721,  0.828571439, -0.117647059, 0.0250000004
   5722,  0.828571439, -0.0588235296, 0.0250000004
   5723,  0.828571439,           0., 0.0250000004
   5724,  0.828571439, 0.0588235296, 0.0250000004
   5725,  0.828571439,  0.117647059, 0.0250000004
   5726,  0.828571439,  0.176470593, 0.0250000004
   5727,  0.828571439,  0.235294119, 0.0250000004
   5728,  0.828571439,  0.294117659, 0.0250000004
   5729,  0.828571439,  0.352941185, 0.0250000004
   5730,  0.828571439,  0.411764711, 0.0250000004
   5731,  0.828571439,  0.470588237, 0.0250000004
   5732,  0.828571439,  0.529411793, 0.0250000004
   5733,  0.828571439,  0.588235319, 0.0250000004
   5734,  0.828571439,  0.647058845, 0.0250000004
   5735,  0.828571439,   0.70588237, 0.0250000004
   5736,  0.828571439,  0.764705896, 0.0250000004
   5737,  0.828571439,  0.823529422, 0.0250000004
   5738,  0.828571439,  0.882352948, 0.0250000004
   5739,  0.828571439,  0.941176474, 0.0250000004
   5740,  0.828571439,           1., 0.0250000004
   5741,  0.828571439,          -1.,           0.
   5742,  0.828571439, -0.941176474,           0.
   5743,  0.828571439, -0.882352948,           0.
   5744,  0.828571439, -0.823529422,           0.
   5745,  0.828571439, -0.764705896,           0.
   5746,  0.828571439,  -0.70588237,           0.
   5747,  0.828571439, -0.647058845,           0.
   5748,  0.828571439, -0.588235319,           0.
   5749,  0.828571439, -0.529411793,           0.
   5750,  0.828571439, -0.470588237,           0.
   5751,  0.828571439, -0.411764711,           0.
   5752,  0.828571439, -0.352941185,           0.
   5753,  0.828571439, -0.294117659,           0.
   5754,  0.828571439, -0.235294119,           0.
   5755,  0.828571439, -0.176470593,           0.
   5756,  0.828571439, -0.117647059,           0.
   5757,  0.828571439, -0.0588235296,           0.
   5758,  0.828571439,           0.,           0.
   5759,  0.828571439, 0.0588235296,           0.
   5760,  0.828571439,  0.117647059,           0.
   5761,  0.828571439,  0.176470593,           0.
   5762,  0.828571439,  0.235294119,           0.
   5763,  0.828571439,  0.294117659,           0.
   5764,  0.828571439,  0.352941185,           0.
   5765,  0.828571439,  0.411764711,           0.
   5766,  0.828571439,  0.470588237,           0.
   5767,  0.828571439,  0.529411793,           0.
   5768,  0.828571439,  0.588235319,           0.
   5769,  0.828571439,  0.647058845,           0.
   5770,  0.828571439,   0.70588237,           0.
   5771,  0.828571439,  0.764705896,           0.
   5772,  0.828571439,  0.823529422,           0.
   5773,  0.828571439,  0.882352948,           0.
   5774,  0.828571439,  0.941176474,           0.
   5775,  0.828571439,           1.,           0.
   5776,  0.885714293,          -1.,  0.100000001
   5777,  0.885714293, -0.941176474,  0.100000001
   5778,  0.885714293, -0.882352948,  0.100000001
   5779,  0.885714293, -0.823529422,  0.100000001
   5780,  0.885714293, -0.764705896,  0.100000001
   5781,  0.885714293,  -0.70588237,  0.100000001
   5782,  0.885714293, -0.647058845,  0.100000001
   5783,  0.885714293, -0.588235319,  0.100000001
   5784,  0.885714293, -0.529411793,  0.100000001
   5785,  0.885714293, -0.470588237,  0.100000001
   5786,  0.885714293, -0.411764711,  0.100000001
   5787,  0.885714293, -0.352941185,  0.100000001
   5788,  0.885714293, -0.294117659,  0.100000001
   5789,  0.885714293, -0.235294119,  0.100000001
   5790,  0.885714293, -0.176470593,  0.100000001
   5791,  0.885714293, -0.117647059,  0.100000001
   5792,  0.885714293, -0.0588235296,  0.100000001
   5793,  0.885714293,           0.,  0.100000001
   5794,  0.885714293, 0.0588235296,  0.100000001
   5795,  0.885714293,  0.117647059,  0.100000001
   5796,  0.885714293,  0.176470593,  0.100000001
   5797,  0.885714293,  0.235294119,  0.100000001
   5798,  0.885714293,  0.294117659,  0.100000001
   5799,  0.885714293,  0.352941185,  0.100000001
   5800,  0.885714293,  0.411764711,  0.100000001
   5801,  0.885714293,  0.470588237,  0.100000001
   5802,  0.885714293,  0.529411793,  0.100000001
   5803,  0.885714293,  0.588235319,  0.100000001
   5804,  0.885714293,  0.647058845,  0.100000001
   5805,  0.885714293,   0.70588237,  0.100000001
   5806,  0.885714293,  0.764705896,  0.100000001
   5807,  0.885714293,  0.823529422,  0.100000001
   5808,  0.885714293,  0.882352948,  0.100000001
   5809,  0.885714293,  0.941176474,  0.100000001
   5810,  0.885714293,           1.,  0.100000001
   5811,  0.885714293,          -1.,  0.075000003
   5812,  0.885714293, -0.941176474,  0.075000003
   5813,  0.885714293, -0.882352948,  0.075000003
   5814,  0.885714293, -0.823529422,  0.075000003
   5815,  0.885714293, -0.764705896,  0.075000003
   5816,  0.885714293,  -0.70588237,  0.075000003
   5817,  0.885714293, -0.647058845,  0.075000003
   5818,  0.885714293, -0.588235319,  0.075000003
   5819,  0.885714293, -0.529411793,  0.075000003
   5820,  0.885714293, -0.470588237,  0.075000003
   5821,  0.885714293, -0.411764711,  0.075000003
   5822,  0.885714293, -0.352941185,  0.075000003
   5823,  0.885714293, -0.294117659,  0.075000003
   5824,  0.885714293, -0.235294119,  0.075000003
   5825,  0.885714293, -0.176470593,  0.075000003
   5826,  0.885714293, -0.117647059,  0.075000003
   5827,  0.885714293, -0.0588235296,  0.075000003
   5828,  0.885714293,           0.,  0.075000003
   5829,  0.885714293, 0.0588235296,  0.075000003
   5830,  0.885714293,  0.117647059,  0.075000003
   5831,  0.885714293,  0.176470593,  0.075000003
   5832,  0.885714293,  0.235294119,  0.075000003
   5833,  0.885714293,  0.294117659,  0.075000003
   5834,  0.885714293,  0.352941185,  0.075000003
   5835,  0.885714293,  0.411764711,  0.075000003
   5836,  0.885714293,  0.470588237,  0.075000003
   5837,  0.885714293,  0.529411793,  0.075000003
   5838,  0.885714293,  0.588235319,  0.075000003
   5839,  0.885714293,  0.647058845,  0.075000003
   5840,  0.885714293,   0.70588237,  0.075000003
   5841,  0.885714293,  0.764705896,  0.075000003
   5842,  0.885714293,  0.823529422,  0.075000003
   5843,  0.885714293,  0.882352948,  0.075000003
   5844,  0.885714293,  0.941176474,  0.075000003
   5845,  0.885714293,           1.,  0.075000003
   5846,  0.885714293,          -1., 0.0500000007
   5847,  0.885714293, -0.941176474, 0.0500000007
   5848,  0.885714293, -0.882352948, 0.0500000007
   5849,  0.885714293, -0.823529422, 0.0500000007
   5850,  0.885714293, -0.764705896, 0.0500000007
   5851,  0.885714293,  -0.70588237, 0.0500000007
   5852,  0.885714293, -0.647058845, 0.0500000007
   5853,  0.885714293, -0.588235319, 0.0500000007
   5854,  0.885714293, -0.529411793, 0.0500000007
   5855,  0.885714293, -0.470588237, 0.0500000007
   5856,  0.885714293, -0.411764711, 0.0500000007
   5857,  0.885714293, -0.352941185, 0.0500000007
   5858,  0.885714293, -0.294117659, 0.0500000007
   5859,  0.885714293, -0.235294119, 0.0500000007
   5860,  0.885714293, -0.176470593, 0.0500000007
   5861,  0.885714293, -0.117647059, 0.0500000007
   5862,  0.885714293, -0.0588235296, 0.0500000007
   5863,  0.885714293,           0., 0.0500000007
   5864,  0.885714293, 0.0588235296, 0.0500000007
   5865,  0.885714293,  0.117647059, 0.0500000007
   5866,  0.885714293,  0.176470593, 0.0500000007
   5867,  0.885714293,  0.235294119, 0.0500000007
   5868,  0.885714293,  0.294117659, 0.0500000007
   5869,  0.885714293,  0.352941185, 0.0500000007
   5870,  0.885714293,  0.411764711, 0.0500000007
   5871,  0.885714293,  0.470588237, 0.0500000007
   5872,  0.885714293,  0.529411793, 0.0500000007
   5873,  0.885714293,  0.588235319, 0.0500000007
   5874,  0.885714293,  0.647058845, 0.0500000007
   5875,  0.885714293,   0.70588237, 0.0500000007
   5876,  0.885714293,  0.764705896, 0.0500000007
   5877,  0.885714293,  0.823529422, 0.0500000007
   5878,  0.885714293,  0.882352948, 0.0500000007
   5879,  0.885714293,  0.941176474, 0.0500000007
   5880,  0.885714293,           1., 0.0500000007
   5881,  0.885714293,          -1., 0.0250000004
   5882,  0.885714293, -0.941176474, 0.0250000004
   5883,  0.885714293, -0.882352948, 0.0250000004
   5884,  0.885714293, -0.823529422, 0.0250000004
   5885,  0.885714293, -0.764705896, 0.0250000004
   5886,  0.885714293,  -0.70588237, 0.0250000004
   5887,  0.885714293, -0.647058845, 0.0250000004
   5888,  0.885714293, -0.588235319, 0.0250000004
   5889,  0.885714293, -0.529411793, 0.0250000004
   5890,  0.885714293, -0.470588237, 0.0250000004
   5891,  0.885714293, -0.411764711, 0.0250000004
   5892,  0.885714293, -0.352941185, 0.0250000004
   5893,  0.885714293, -0.294117659, 0.0250000004
   5894,  0.885714293, -0.235294119, 0.0250000004
   5895,  0.885714293, -0.176470593, 0.0250000004
   5896,  0.885714293, -0.117647059, 0.0250000004
   5897,  0.885714293, -0.0588235296, 0.0250000004
   5898,  0.885714293,           0., 0.0250000004
   5899,  0.885714293, 0.0588235296, 0.0250000004
   5900,  0.885714293,  0.117647059, 0.0250000004
   5901,  0.885714293,  0.176470593, 0.0250000004
   5902,  0.885714293,  0.235294119, 0.0250000004
   5903,  0.885714293,  0.294117659, 0.0250000004
   5904,  0.885714293,  0.352941185, 0.0250000004
   5905,  0.885714293,  0.411764711, 0.0250000004
   5906,  0.885714293,  0.470588237, 0.0250000004
   5907,  0.885714293,  0.529411793, 0.0250000004
   5908,  0.885714293,  0.588235319, 0.0250000004
   5909,  0.885714293,  0.647058845, 0.0250000004
   5910,  0.885714293,   0.70588237, 0.0250000004
   5911,  0.885714293,  0.764705896, 0.0250000004
   5912,  0.885714293,  0.823529422, 0.0250000004
   5913,  0.885714293,  0.882352948, 0.0250000004
   5914,  0.885714293,  0.941176474, 0.0250000004
   5915,  0.885714293,           1., 0.0250000004
   5916,  0.885714293,          -1.,           0.
   5917,  0.885714293, -0.941176474,           0.
   5918,  0.885714293, -0.882352948,           0.
   5919,  0.885714293, -0.823529422,           0.
   5920,  0.885714293, -0.764705896,           0.
   5921,  0.885714293,  -0.70588237,           0.
   5922,  0.885714293, -0.647058845,           0.
   5923,  0.885714293, -0.588235319,           0.
   5924,  0.885714293, -0.529411793,           0.
   5925,  0.885714293, -0.470588237,           0.
   5926,  0.885714293, -0.411764711,           0.
   5927,  0.885714293, -0.352941185,           0.
   5928,  0.885714293, -0.294117659,           0.
   5929,  0.885714293, -0.235294119,           0.
   5930,  0.885714293, -0.176470593,           0.
   5931,  0.885714293, -0.117647059,           0.
   5932,  0.885714293, -0.0588235296,           0.
   5933,  0.885714293,           0.,           0.
   5934,  0.885714293, 0.0588235296,           0.
   5935,  0.885714293,  0.117647059,           0.
   5936,  0.885714293,  0.176470593,           0.
   5937,  0.885714293,  0.235294119,           0.
   5938,  0.885714293,  0.294117659,           0.
   5939,  0.885714293,  0.352941185,           0.
   5940,  0.885714293,  0.411764711,           0.
   5941,  0.885714293,  0.470588237,           0.
   5942,  0.885714293,  0.529411793,           0.
   5943,  0.885714293,  0.588235319,           0.
   5944,  0.885714293,  0.647058845,           0.
   5945,  0.885714293,   0.70588237,           0.
   5946,  0.885714293,  0.764705896,           0.
   5947,  0.885714293,  0.823529422,           0.
   5948,  0.885714293,  0.882352948,           0.
   5949,  0.885714293,  0.941176474,           0.
   5950,  0.885714293,           1.,           0.
   5951,  0.942857146,          -1.,  0.100000001
   5952,  0.942857146, -0.941176474,  0.100000001
   5953,  0.942857146, -0.882352948,  0.100000001
   5954,  0.942857146, -0.823529422,  0.100000001
   5955,  0.942857146, -0.764705896,  0.100000001
   5956,  0.942857146,  -0.70588237,  0.100000001
   5957,  0.942857146, -0.647058845,  0.100000001
   5958,  0.942857146, -0.588235319,  0.100000001
   5959,  0.942857146, -0.529411793,  0.100000001
   5960,  0.942857146, -0.470588237,  0.100000001
   5961,  0.942857146, -0.411764711,  0.100000001
   5962,  0.942857146, -0.352941185,  0.100000001
   5963,  0.942857146, -0.294117659,  0.100000001
   5964,  0.942857146, -0.235294119,  0.100000001
   5965,  0.942857146, -0.176470593,  0.100000001
   5966,  0.942857146, -0.117647059,  0.100000001
   5967,  0.942857146, -0.0588235296,  0.100000001
   5968,  0.942857146,           0.,  0.100000001
   5969,  0.942857146, 0.0588235296,  0.100000001
   5970,  0.942857146,  0.117647059,  0.100000001
   5971,  0.942857146,  0.176470593,  0.100000001
   5972,  0.942857146,  0.235294119,  0.100000001
   5973,  0.942857146,  0.294117659,  0.100000001
   5974,  0.942857146,  0.352941185,  0.100000001
   5975,  0.942857146,  0.411764711,  0.100000001
   5976,  0.942857146,  0.470588237,  0.100000001
   5977,  0.942857146,  0.529411793,  0.100000001
   5978,  0.942857146,  0.588235319,  0.100000001
   5979,  0.942857146,  0.647058845,  0.100000001
   5980,  0.942857146,   0.70588237,  0.100000001
   5981,  0.942857146,  0.764705896,  0.100000001
   5982,  0.942857146,  0.823529422,  0.100000001
   5983,  0.942857146,  0.882352948,  0.100000001
   5984,  0.942857146,  0.941176474,  0.100000001
   5985,  0.942857146,           1.,  0.100000001
   5986,  0.942857146,          -1.,  0.075000003
   5987,  0.942857146, -0.941176474,  0.075000003
   5988,  0.942857146, -0.882352948,  0.075000003
   5989,  0.942857146, -0.823529422,  0.075000003
   5990,  0.942857146, -0.764705896,  0.075000003
   5991,  0.942857146,  -0.70588237,  0.075000003
   5992,  0.942857146, -0.647058845,  0.075000003
   5993,  0.942857146, -0.588235319,  0.075000003
   5994,  0.942857146, -0.529411793,  0.075000003
   5995,  0.942857146, -0.470588237,  0.075000003
   5996,  0.942857146, -0.411764711,  0.075000003
   5997,  0.942857146, -0.352941185,  0.075000003
   5998,  0.942857146, -0.294117659,  0.075000003
   5999,  0.942857146, -0.235294119,  0.075000003
   6000,  0.942857146, -0.176470593,  0.075000003
   6001,  0.942857146, -0.117647059,  0.075000003
   6002,  0.942857146, -0.0588235296,  0.075000003
   6003,  0.942857146,           0.,  0.075000003
   6004,  0.942857146, 0.0588235296,  0.075000003
   6005,  0.942857146,  0.117647059,  0.075000003
   6006,  0.942857146,  0.176470593,  0.075000003
   6007,  0.942857146,  0.235294119,  0.075000003
   6008,  0.942857146,  0.294117659,  0.075000003
   6009,  0.942857146,  0.352941185,  0.075000003
   6010,  0.942857146,  0.411764711,  0.075000003
   6011,  0.942857146,  0.470588237,  0.075000003
   6012,  0.942857146,  0.529411793,  0.075000003
   6013,  0.942857146,  0.588235319,  0.075000003
   6014,  0.942857146,  0.647058845,  0.075000003
   6015,  0.942857146,   0.70588237,  0.075000003
   6016,  0.942857146,  0.764705896,  0.075000003
   6017,  0.942857146,  0.823529422,  0.075000003
   6018,  0.942857146,  0.882352948,  0.075000003
   6019,  0.942857146,  0.941176474,  0.075000003
   6020,  0.942857146,           1.,  0.075000003
   6021,  0.942857146,          -1., 0.0500000007
   6022,  0.942857146, -0.941176474, 0.0500000007
   6023,  0.942857146, -0.882352948, 0.0500000007
   6024,  0.942857146, -0.823529422, 0.0500000007
   6025,  0.942857146, -0.764705896, 0.0500000007
   6026,  0.942857146,  -0.70588237, 0.0500000007
   6027,  0.942857146, -0.647058845, 0.0500000007
   6028,  0.942857146, -0.588235319, 0.0500000007
   6029,  0.942857146, -0.529411793, 0.0500000007
   6030,  0.942857146, -0.470588237, 0.0500000007
   6031,  0.942857146, -0.411764711, 0.0500000007
   6032,  0.942857146, -0.352941185, 0.0500000007
   6033,  0.942857146, -0.294117659, 0.0500000007
   6034,  0.942857146, -0.235294119, 0.0500000007
   6035,  0.942857146, -0.176470593, 0.0500000007
   6036,  0.942857146, -0.117647059, 0.0500000007
   6037,  0.942857146, -0.0588235296, 0.0500000007
   6038,  0.942857146,           0., 0.0500000007
   6039,  0.942857146, 0.0588235296, 0.0500000007
   6040,  0.942857146,  0.117647059, 0.0500000007
   6041,  0.942857146,  0.176470593, 0.0500000007
   6042,  0.942857146,  0.235294119, 0.0500000007
   6043,  0.942857146,  0.294117659, 0.0500000007
   6044,  0.942857146,  0.352941185, 0.0500000007
   6045,  0.942857146,  0.411764711, 0.0500000007
   6046,  0.942857146,  0.470588237, 0.0500000007
   6047,  0.942857146,  0.529411793, 0.0500000007
   6048,  0.942857146,  0.588235319, 0.0500000007
   6049,  0.942857146,  0.647058845, 0.0500000007
   6050,  0.942857146,   0.70588237, 0.0500000007
   6051,  0.942857146,  0.764705896, 0.0500000007
   6052,  0.942857146,  0.823529422, 0.0500000007
   6053,  0.942857146,  0.882352948, 0.0500000007
   6054,  0.942857146,  0.941176474, 0.0500000007
   6055,  0.942857146,           1., 0.0500000007
   6056,  0.942857146,          -1., 0.0250000004
   6057,  0.942857146, -0.941176474, 0.0250000004
   6058,  0.942857146, -0.882352948, 0.0250000004
   6059,  0.942857146, -0.823529422, 0.0250000004
   6060,  0.942857146, -0.764705896, 0.0250000004
   6061,  0.942857146,  -0.70588237, 0.0250000004
   6062,  0.942857146, -0.647058845, 0.0250000004
   6063,  0.942857146, -0.588235319, 0.0250000004
   6064,  0.942857146, -0.529411793, 0.0250000004
   6065,  0.942857146, -0.470588237, 0.0250000004
   6066,  0.942857146, -0.411764711, 0.0250000004
   6067,  0.942857146, -0.352941185, 0.0250000004
   6068,  0.942857146, -0.294117659, 0.0250000004
   6069,  0.942857146, -0.235294119, 0.0250000004
   6070,  0.942857146, -0.176470593, 0.0250000004
   6071,  0.942857146, -0.117647059, 0.0250000004
   6072,  0.942857146, -0.0588235296, 0.0250000004
   6073,  0.942857146,           0., 0.0250000004
   6074,  0.942857146, 0.0588235296, 0.0250000004
   6075,  0.942857146,  0.117647059, 0.0250000004
   6076,  0.942857146,  0.176470593, 0.0250000004
   6077,  0.942857146,  0.235294119, 0.0250000004
   6078,  0.942857146,  0.294117659, 0.0250000004
   6079,  0.942857146,  0.352941185, 0.0250000004
   6080,  0.942857146,  0.411764711, 0.0250000004
   6081,  0.942857146,  0.470588237, 0.0250000004
   6082,  0.942857146,  0.529411793, 0.0250000004
   6083,  0.942857146,  0.588235319, 0.0250000004
   6084,  0.942857146,  0.647058845, 0.0250000004
   6085,  0.942857146,   0.70588237, 0.0250000004
   6086,  0.942857146,  0.764705896, 0.0250000004
   6087,  0.942857146,  0.823529422, 0.0250000004
   6088,  0.942857146,  0.882352948, 0.0250000004
   6089,  0.942857146,  0.941176474, 0.0250000004
   6090,  0.942857146,           1., 0.0250000004
   6091,  0.942857146,          -1.,           0.
   6092,  0.942857146, -0.941176474,           0.
   6093,  0.942857146, -0.882352948,           0.
   6094,  0.942857146, -0.823529422,           0.
   6095,  0.942857146, -0.764705896,           0.
   6096,  0.942857146,  -0.70588237,           0.
   6097,  0.942857146, -0.647058845,           0.
   6098,  0.942857146, -0.588235319,           0.
   6099,  0.942857146, -0.529411793,           0.
   6100,  0.942857146, -0.470588237,           0.
   6101,  0.942857146, -0.411764711,           0.
   6102,  0.942857146, -0.352941185,           0.
   6103,  0.942857146, -0.294117659,           0.
   6104,  0.942857146, -0.235294119,           0.
   6105,  0.942857146, -0.176470593,           0.
   6106,  0.942857146, -0.117647059,           0.
   6107,  0.942857146, -0.0588235296,           0.
   6108,  0.942857146,           0.,           0.
   6109,  0.942857146, 0.0588235296,           0.
   6110,  0.942857146,  0.117647059,           0.
   6111,  0.942857146,  0.176470593,           0.
   6112,  0.942857146,  0.235294119,           0.
   6113,  0.942857146,  0.294117659,           0.
   6114,  0.942857146,  0.352941185,           0.
   6115,  0.942857146,  0.411764711,           0.
   6116,  0.942857146,  0.470588237,           0.
   6117,  0.942857146,  0.529411793,           0.
   6118,  0.942857146,  0.588235319,           0.
   6119,  0.942857146,  0.647058845,           0.
   6120,  0.942857146,   0.70588237,           0.
   6121,  0.942857146,  0.764705896,           0.
   6122,  0.942857146,  0.823529422,           0.
   6123,  0.942857146,  0.882352948,           0.
   6124,  0.942857146,  0.941176474,           0.
   6125,  0.942857146,           1.,           0.
   6126,           1.,          -1.,  0.100000001
   6127,           1., -0.941176474,  0.100000001
   6128,           1., -0.882352948,  0.100000001
   6129,           1., -0.823529422,  0.100000001
   6130,           1., -0.764705896,  0.100000001
   6131,           1.,  -0.70588237,  0.100000001
   6132,           1., -0.647058845,  0.100000001
   6133,           1., -0.588235319,  0.100000001
   6134,           1., -0.529411793,  0.100000001
   6135,           1., -0.470588237,  0.100000001
   6136,           1., -0.411764711,  0.100000001
   6137,           1., -0.352941185,  0.100000001
   6138,           1., -0.294117659,  0.100000001
   6139,           1., -0.235294119,  0.100000001
   6140,           1., -0.176470593,  0.100000001
   6141,           1., -0.117647059,  0.100000001
   6142,           1., -0.0588235296,  0.100000001
   6143,           1.,           0.,  0.100000001
   6144,           1., 0.0588235296,  0.100000001
   6145,           1.,  0.117647059,  0.100000001
   6146,           1.,  0.176470593,  0.100000001
   6147,           1.,  0.235294119,  0.100000001
   6148,           1.,  0.294117659,  0.100000001
   6149,           1.,  0.352941185,  0.100000001
   6150,           1.,  0.411764711,  0.100000001
   6151,           1.,  0.470588237,  0.100000001
   6152,           1.,  0.529411793,  0.100000001
   6153,           1.,  0.588235319,  0.100000001
   6154,           1.,  0.647058845,  0.100000001
   6155,           1.,   0.70588237,  0.100000001
   6156,           1.,  0.764705896,  0.100000001
   6157,           1.,  0.823529422,  0.100000001
   6158,           1.,  0.882352948,  0.100000001
   6159,           1.,  0.941176474,  0.100000001
   6160,           1.,           1.,  0.100000001
   6161,           1.,          -1.,  0.075000003
   6162,           1., -0.941176474,  0.075000003
   6163,           1., -0.882352948,  0.075000003
   6164,           1., -0.823529422,  0.075000003
   6165,           1., -0.764705896,  0.075000003
   6166,           1.,  -0.70588237,  0.075000003
   6167,           1., -0.647058845,  0.075000003
   6168,           1., -0.588235319,  0.075000003
   6169,           1., -0.529411793,  0.075000003
   6170,           1., -0.470588237,  0.075000003
   6171,           1., -0.411764711,  0.075000003
   6172,           1., -0.352941185,  0.075000003
   6173,           1., -0.294117659,  0.075000003
   6174,           1., -0.235294119,  0.075000003
   6175,           1., -0.176470593,  0.075000003
   6176,           1., -0.117647059,  0.075000003
   6177,           1., -0.0588235296,  0.075000003
   6178,           1.,           0.,  0.075000003
   6179,           1., 0.0588235296,  0.075000003
   6180,           1.,  0.117647059,  0.075000003
   6181,           1.,  0.176470593,  0.075000003
   6182,           1.,  0.235294119,  0.075000003
   6183,           1.,  0.294117659,  0.075000003
   6184,           1.,  0.352941185,  0.075000003
   6185,           1.,  0.411764711,  0.075000003
   6186,           1.,  0.470588237,  0.075000003
   6187,           1.,  0.529411793,  0.075000003
   6188,           1.,  0.588235319,  0.075000003
   6189,           1.,  0.647058845,  0.075000003
   6190,           1.,   0.70588237,  0.075000003
   6191,           1.,  0.764705896,  0.075000003
   6192,           1.,  0.823529422,  0.075000003
   6193,           1.,  0.882352948,  0.075000003
   6194,           1.,  0.941176474,  0.075000003
   6195,           1.,           1.,  0.075000003
   6196,           1.,          -1., 0.0500000007
   6197,           1., -0.941176474, 0.0500000007
   6198,           1., -0.882352948, 0.0500000007
   6199,           1., -0.823529422, 0.0500000007
   6200,           1., -0.764705896, 0.0500000007
   6201,           1.,  -0.70588237, 0.0500000007
   6202,           1., -0.647058845, 0.0500000007
   6203,           1., -0.588235319, 0.0500000007
   6204,           1., -0.529411793, 0.0500000007
   6205,           1., -0.470588237, 0.0500000007
   6206,           1., -0.411764711, 0.0500000007
   6207,           1., -0.352941185, 0.0500000007
   6208,           1., -0.294117659, 0.0500000007
   6209,           1., -0.235294119, 0.0500000007
   6210,           1., -0.176470593, 0.0500000007
   6211,           1., -0.117647059, 0.0500000007
   6212,           1., -0.0588235296, 0.0500000007
   6213,           1.,           0., 0.0500000007
   6214,           1., 0.0588235296, 0.0500000007
   6215,           1.,  0.117647059, 0.0500000007
   6216,           1.,  0.176470593, 0.0500000007
   6217,           1.,  0.235294119, 0.0500000007
   6218,           1.,  0.294117659, 0.0500000007
   6219,           1.,  0.352941185, 0.0500000007
   6220,           1.,  0.411764711, 0.0500000007
   6221,           1.,  0.470588237, 0.0500000007
   6222,           1.,  0.529411793, 0.0500000007
   6223,           1.,  0.588235319, 0.0500000007
   6224,           1.,  0.647058845, 0.0500000007
   6225,           1.,   0.70588237, 0.0500000007
   6226,           1.,  0.764705896, 0.0500000007
   6227,           1.,  0.823529422, 0.0500000007
   6228,           1.,  0.882352948, 0.0500000007
   6229,           1.,  0.941176474, 0.0500000007
   6230,           1.,           1., 0.0500000007
   6231,           1.,          -1., 0.0250000004
   6232,           1., -0.941176474, 0.0250000004
   6233,           1., -0.882352948, 0.0250000004
   6234,           1., -0.823529422, 0.0250000004
   6235,           1., -0.764705896, 0.0250000004
   6236,           1.,  -0.70588237, 0.0250000004
   6237,           1., -0.647058845, 0.0250000004
   6238,           1., -0.588235319, 0.0250000004
   6239,           1., -0.529411793, 0.0250000004
   6240,           1., -0.470588237, 0.0250000004
   6241,           1., -0.411764711, 0.0250000004
   6242,           1., -0.352941185, 0.0250000004
   6243,           1., -0.294117659, 0.0250000004
   6244,           1., -0.235294119, 0.0250000004
   6245,           1., -0.176470593, 0.0250000004
   6246,           1., -0.117647059, 0.0250000004
   6247,           1., -0.0588235296, 0.0250000004
   6248,           1.,           0., 0.0250000004
   6249,           1., 0.0588235296, 0.0250000004
   6250,           1.,  0.117647059, 0.0250000004
   6251,           1.,  0.176470593, 0.0250000004
   6252,           1.,  0.235294119, 0.0250000004
   6253,           1.,  0.294117659, 0.0250000004
   6254,           1.,  0.352941185, 0.0250000004
   6255,           1.,  0.411764711, 0.0250000004
   6256,           1.,  0.470588237, 0.0250000004
   6257,           1.,  0.529411793, 0.0250000004
   6258,           1.,  0.588235319, 0.0250000004
   6259,           1.,  0.647058845, 0.0250000004
   6260,           1.,   0.70588237, 0.0250000004
   6261,           1.,  0.764705896, 0.0250000004
   6262,           1.,  0.823529422, 0.0250000004
   6263,           1.,  0.882352948, 0.0250000004
   6264,           1.,  0.941176474, 0.0250000004
   6265,           1.,           1., 0.0250000004
   6266,           1.,          -1.,           0.
   6267,           1., -0.941176474,           0.
   6268,           1., -0.882352948,           0.
   6269,           1., -0.823529422,           0.
   6270,           1., -0.764705896,           0.
   6271,           1.,  -0.70588237,           0.
   6272,           1., -0.647058845,           0.
   6273,           1., -0.588235319,           0.
   6274,           1., -0.529411793,           0.
   6275,           1., -0.470588237,           0.
   6276,           1., -0.411764711,           0.
   6277,           1., -0.352941185,           0.
   6278,           1., -0.294117659,           0.
   6279,           1., -0.235294119,           0.
   6280,           1., -0.176470593,           0.
   6281,           1., -0.117647059,           0.
   6282,           1., -0.0588235296,           0.
   6283,           1.,           0.,           0.
   6284,           1., 0.0588235296,           0.
   6285,           1.,  0.117647059,           0.
   6286,           1.,  0.176470593,           0.
   6287,           1.,  0.235294119,           0.
   6288,           1.,  0.294117659,           0.
   6289,           1.,  0.352941185,           0.
   6290,           1.,  0.411764711,           0.
   6291,           1.,  0.470588237,           0.
   6292,           1.,  0.529411793,           0.
   6293,           1.,  0.588235319,           0.
   6294,           1.,  0.647058845,           0.
   6295,           1.,   0.70588237,           0.
   6296,           1.,  0.764705896,           0.
   6297,           1.,  0.823529422,           0.
   6298,           1.,  0.882352948,           0.
   6299,           1.,  0.941176474,           0.
   6300,           1.,           1.,           0.
*Element, type=C3D8R
   1,  176,  177,  212,  211,    1,    2,   37,   36
   2,  177,  178,  213,  212,    2,    3,   38,   37
   3,  178,  179,  214,  213,    3,    4,   39,   38
   4,  179,  180,  215,  214,    4,    5,   40,   39
   5,  180,  181,  216,  215,    5,    6,   41,   40
   6,  181,  182,  217,  216,    6,    7,   42,   41
   7,  182,  183,  218,  217,    7,    8,   43,   42
   8,  183,  184,  219,  218,    8,    9,   44,   43
   9,  184,  185,  220,  219,    9,   10,   45,   44
  10,  185,  186,  221,  220,   10,   11,   46,   45
  11,  186,  187,  222,  221,   11,   12,   47,   46
  12,  187,  188,  223,  222,   12,   13,   48,   47
  13,  188,  189,  224,  223,   13,   14,   49,   48
  14,  189,  190,  225,  224,   14,   15,   50,   49
  15,  190,  191,  226,  225,   15,   16,   51,   50
  16,  191,  192,  227,  226,   16,   17,   52,   51
  17,  192,  193,  228,  227,   17,   18,   53,   52
  18,  193,  194,  229,  228,   18,   19,   54,   53
  19,  194,  195,  230,  229,   19,   20,   55,   54
  20,  195,  196,  231,  230,   20,   21,   56,   55
  21,  196,  197,  232,  231,   21,   22,   57,   56
  22,  197,  198,  233,  232,   22,   23,   58,   57
  23,  198,  199,  234,  233,   23,   24,   59,   58
  24,  199,  200,  235,  234,   24,   25,   60,   59
  25,  200,  201,  236,  235,   25,   26,   61,   60
  26,  201,  202,  237,  236,   26,   27,   62,   61
  27,  202,  203,  238,  237,   27,   28,   63,   62
  28,  203,  204,  239,  238,   28,   29,   64,   63
  29,  204,  205,  240,  239,   29,   30,   65,   64
  30,  205,  206,  241,  240,   30,   31,   66,   65
  31,  206,  207,  242,  241,   31,   32,   67,   66
  32,  207,  208,  243,  242,   32,   33,   68,   67
  33,  208,  209,  244,  243,   33,   34,   69,   68
  34,  209,  210,  245,  244,   34,   35,   70,   69
  35,  211,  212,  247,  246,   36,   37,   72,   71
  36,  212,  213,  248,  247,   37,   38,   73,   72
  37,  213,  214,  249,  248,   38,   39,   74,   73
  38,  214,  215,  250,  249,   39,   40,   75,   74
  39,  215,  216,  251,  250,   40,   41,   76,   75
  40,  216,  217,  252,  251,   41,   42,   77,   76
  41,  217,  218,  253,  252,   42,   43,   78,   77
  42,  218,  219,  254,  253,   43,   44,   79,   78
  43,  219,  220,  255,  254,   44,   45,   80,   79
  44,  220,  221,  256,  255,   45,   46,   81,   80
  45,  221,  222,  257,  256,   46,   47,   82,   81
  46,  222,  223,  258,  257,   47,   48,   83,   82
  47,  223,  224,  259,  258,   48,   49,   84,   83
  48,  224,  225,  260,  259,   49,   50,   85,   84
  49,  225,  226,  261,  260,   50,   51,   86,   85
  50,  226,  227,  262,  261,   51,   52,   87,   86
  51,  227,  228,  263,  262,   52,   53,   88,   87
  52,  228,  229,  264,  263,   53,   54,   89,   88
  53,  229,  230,  265,  264,   54,   55,   90,   89
  54,  230,  231,  266,  265,   55,   56,   91,   90
  55,  231,  232,  267,  266,   56,   57,   92,   91
  56,  232,  233,  268,  267,   57,   58,   93,   92
  57,  233,  234,  269,  268,   58,   59,   94,   93
  58,  234,  235,  270,  269,   59,   60,   95,   94
  59,  235,  236,  271,  270,   60,   61,   96,   95
  60,  236,  237,  272,  271,   61,   62,   97,   96
  61,  237,  238,  273,  272,   62,   63,   98,   97
  62,  238,  239,  274,  273,   63,   64,   99,   98
  63,  239,  240,  275,  274,   64,   65,  100,   99
  64,  240,  241,  276,  275,   65,   66,  101,  100
  65,  241,  242,  277,  276,   66,   67,  102,  101
  66,  242,  243,  278,  277,   67,   68,  103,  102
  67,  243,  244,  279,  278,   68,   69,  104,  103
  68,  244,  245,  280,  279,   69,   70,  105,  104
  69,  246,  247,  282,  281,   71,   72,  107,  106
  70,  247,  248,  283,  282,   72,   73,  108,  107
  71,  248,  249,  284,  283,   73,   74,  109,  108
  72,  249,  250,  285,  284,   74,   75,  110,  109
  73,  250,  251,  286,  285,   75,   76,  111,  110
  74,  251,  252,  287,  286,   76,   77,  112,  111
  75,  252,  253,  288,  287,   77,   78,  113,  112
  76,  253,  254,  289,  288,   78,   79,  114,  113
  77,  254,  255,  290,  289,   79,   80,  115,  114
  78,  255,  256,  291,  290,   80,   81,  116,  115
  79,  256,  257,  292,  291,   81,   82,  117,  116
  80,  257,  258,  293,  292,   82,   83,  118,  117
  81,  258,  259,  294,  293,   83,   84,  119,  118
  82,  259,  260,  295,  294,   84,   85,  120,  119
  83,  260,  261,  296,  295,   85,   86,  121,  120
  84,  261,  262,  297,  296,   86,   87,  122,  121
  85,  262,  263,  298,  297,   87,   88,  123,  122
  86,  263,  264,  299,  298,   88,   89,  124,  123
  87,  264,  265,  300,  299,   89,   90,  125,  124
  88,  265,  266,  301,  300,   90,   91,  126,  125
  89,  266,  267,  302,  301,   91,   92,  127,  126
  90,  267,  268,  303,  302,   92,   93,  128,  127
  91,  268,  269,  304,  303,   93,   94,  129,  128
  92,  269,  270,  305,  304,   94,   95,  130,  129
  93,  270,  271,  306,  305,   95,   96,  131,  130
  94,  271,  272,  307,  306,   96,   97,  132,  131
  95,  272,  273,  308,  307,   97,   98,  133,  132
  96,  273,  274,  309,  308,   98,   99,  134,  133
  97,  274,  275,  310,  309,   99,  100,  135,  134
  98,  275,  276,  311,  310,  100,  101,  136,  135
  99,  276,  277,  312,  311,  101,  102,  137,  136
 100,  277,  278,  313,  312,  102,  103,  138,  137
 101,  278,  279,  314,  313,  103,  104,  139,  138
 102,  279,  280,  315,  314,  104,  105,  140,  139
 103,  281,  282,  317,  316,  106,  107,  142,  141
 104,  282,  283,  318,  317,  107,  108,  143,  142
 105,  283,  284,  319,  318,  108,  109,  144,  143
 106,  284,  285,  320,  319,  109,  110,  145,  144
 107,  285,  286,  321,  320,  110,  111,  146,  145
 108,  286,  287,  322,  321,  111,  112,  147,  146
 109,  287,  288,  323,  322,  112,  113,  148,  147
 110,  288,  289,  324,  323,  113,  114,  149,  148
 111,  289,  290,  325,  324,  114,  115,  150,  149
 112,  290,  291,  326,  325,  115,  116,  151,  150
 113,  291,  292,  327,  326,  116,  117,  152,  151
 114,  292,  293,  328,  327,  117,  118,  153,  152
 115,  293,  294,  329,  328,  118,  119,  154,  153
 116,  294,  295,  330,  329,  119,  120,  155,  154
 117,  295,  296,  331,  330,  120,  121,  156,  155
 118,  296,  297,  332,  331,  121,  122,  157,  156
 119,  297,  298,  333,  332,  122,  123,  158,  157
 120,  298,  299,  334,  333,  123,  124,  159,  158
 121,  299,  300,  335,  334,  124,  125,  160,  159
 122,  300,  301,  336,  335,  125,  126,  161,  160
 123,  301,  302,  337,  336,  126,  127,  162,  161
 124,  302,  303,  338,  337,  127,  128,  163,  162
 125,  303,  304,  339,  338,  128,  129,  164,  163
 126,  304,  305,  340,  339,  129,  130,  165,  164
 127,  305,  306,  341,  340,  130,  131,  166,  165
 128,  306,  307,  342,  341,  131,  132,  167,  166
 129,  307,  308,  343,  342,  132,  133,  168,  167
 130,  308,  309,  344,  343,  133,  134,  169,  168
 131,  309,  310,  345,  344,  134,  135,  170,  169
 132,  310,  311,  346,  345,  135,  136,  171,  170
 133,  311,  312,  347,  346,  136,  137,  172,  171
 134,  312,  313,  348,  347,  137,  138,  173,  172
 135,  313,  314,  349,  348,  138,  139,  174,  173
 136,  314,  315,  350,  349,  139,  140,  175,  174
 137,  351,  352,  387,  386,  176,  177,  212,  211
 138,  352,  353,  388,  387,  177,  178,  213,  212
 139,  353,  354,  389,  388,  178,  179,  214,  213
 140,  354,  355,  390,  389,  179,  180,  215,  214
 141,  355,  356,  391,  390,  180,  181,  216,  215
 142,  356,  357,  392,  391,  181,  182,  217,  216
 143,  357,  358,  393,  392,  182,  183,  218,  217
 144,  358,  359,  394,  393,  183,  184,  219,  218
 145,  359,  360,  395,  394,  184,  185,  220,  219
 146,  360,  361,  396,  395,  185,  186,  221,  220
 147,  361,  362,  397,  396,  186,  187,  222,  221
 148,  362,  363,  398,  397,  187,  188,  223,  222
 149,  363,  364,  399,  398,  188,  189,  224,  223
 150,  364,  365,  400,  399,  189,  190,  225,  224
 151,  365,  366,  401,  400,  190,  191,  226,  225
 152,  366,  367,  402,  401,  191,  192,  227,  226
 153,  367,  368,  403,  402,  192,  193,  228,  227
 154,  368,  369,  404,  403,  193,  194,  229,  228
 155,  369,  370,  405,  404,  194,  195,  230,  229
 156,  370,  371,  406,  405,  195,  196,  231,  230
 157,  371,  372,  407,  406,  196,  197,  232,  231
 158,  372,  373,  408,  407,  197,  198,  233,  232
 159,  373,  374,  409,  408,  198,  199,  234,  233
 160,  374,  375,  410,  409,  199,  200,  235,  234
 161,  375,  376,  411,  410,  200,  201,  236,  235
 162,  376,  377,  412,  411,  201,  202,  237,  236
 163,  377,  378,  413,  412,  202,  203,  238,  237
 164,  378,  379,  414,  413,  203,  204,  239,  238
 165,  379,  380,  415,  414,  204,  205,  240,  239
 166,  380,  381,  416,  415,  205,  206,  241,  240
 167,  381,  382,  417,  416,  206,  207,  242,  241
 168,  382,  383,  418,  417,  207,  208,  243,  242
 169,  383,  384,  419,  418,  208,  209,  244,  243
 170,  384,  385,  420,  419,  209,  210,  245,  244
 171,  386,  387,  422,  421,  211,  212,  247,  246
 172,  387,  388,  423,  422,  212,  213,  248,  247
 173,  388,  389,  424,  423,  213,  214,  249,  248
 174,  389,  390,  425,  424,  214,  215,  250,  249
 175,  390,  391,  426,  425,  215,  216,  251,  250
 176,  391,  392,  427,  426,  216,  217,  252,  251
 177,  392,  393,  428,  427,  217,  218,  253,  252
 178,  393,  394,  429,  428,  218,  219,  254,  253
 179,  394,  395,  430,  429,  219,  220,  255,  254
 180,  395,  396,  431,  430,  220,  221,  256,  255
 181,  396,  397,  432,  431,  221,  222,  257,  256
 182,  397,  398,  433,  432,  222,  223,  258,  257
 183,  398,  399,  434,  433,  223,  224,  259,  258
 184,  399,  400,  435,  434,  224,  225,  260,  259
 185,  400,  401,  436,  435,  225,  226,  261,  260
 186,  401,  402,  437,  436,  226,  227,  262,  261
 187,  402,  403,  438,  437,  227,  228,  263,  262
 188,  403,  404,  439,  438,  228,  229,  264,  263
 189,  404,  405,  440,  439,  229,  230,  265,  264
 190,  405,  406,  441,  440,  230,  231,  266,  265
 191,  406,  407,  442,  441,  231,  232,  267,  266
 192,  407,  408,  443,  442,  232,  233,  268,  267
 193,  408,  409,  444,  443,  233,  234,  269,  268
 194,  409,  410,  445,  444,  234,  235,  270,  269
 195,  410,  411,  446,  445,  235,  236,  271,  270
 196,  411,  412,  447,  446,  236,  237,  272,  271
 197,  412,  413,  448,  447,  237,  238,  273,  272
 198,  413,  414,  449,  448,  238,  239,  274,  273
 199,  414,  415,  450,  449,  239,  240,  275,  274
 200,  415,  416,  451,  450,  240,  241,  276,  275
 201,  416,  417,  452,  451,  241,  242,  277,  276
 202,  417,  418,  453,  452,  242,  243,  278,  277
 203,  418,  419,  454,  453,  243,  244,  279,  278
 204,  419,  420,  455,  454,  244,  245,  280,  279
 205,  421,  422,  457,  456,  246,  247,  282,  281
 206,  422,  423,  458,  457,  247,  248,  283,  282
 207,  423,  424,  459,  458,  248,  249,  284,  283
 208,  424,  425,  460,  459,  249,  250,  285,  284
 209,  425,  426,  461,  460,  250,  251,  286,  285
 210,  426,  427,  462,  461,  251,  252,  287,  286
 211,  427,  428,  463,  462,  252,  253,  288,  287
 212,  428,  429,  464,  463,  253,  254,  289,  288
 213,  429,  430,  465,  464,  254,  255,  290,  289
 214,  430,  431,  466,  465,  255,  256,  291,  290
 215,  431,  432,  467,  466,  256,  257,  292,  291
 216,  432,  433,  468,  467,  257,  258,  293,  292
 217,  433,  434,  469,  468,  258,  259,  294,  293
 218,  434,  435,  470,  469,  259,  260,  295,  294
 219,  435,  436,  471,  470,  260,  261,  296,  295
 220,  436,  437,  472,  471,  261,  262,  297,  296
 221,  437,  438,  473,  472,  262,  263,  298,  297
 222,  438,  439,  474,  473,  263,  264,  299,  298
 223,  439,  440,  475,  474,  264,  265,  300,  299
 224,  440,  441,  476,  475,  265,  266,  301,  300
 225,  441,  442,  477,  476,  266,  267,  302,  301
 226,  442,  443,  478,  477,  267,  268,  303,  302
 227,  443,  444,  479,  478,  268,  269,  304,  303
 228,  444,  445,  480,  479,  269,  270,  305,  304
 229,  445,  446,  481,  480,  270,  271,  306,  305
 230,  446,  447,  482,  481,  271,  272,  307,  306
 231,  447,  448,  483,  482,  272,  273,  308,  307
 232,  448,  449,  484,  483,  273,  274,  309,  308
 233,  449,  450,  485,  484,  274,  275,  310,  309
 234,  450,  451,  486,  485,  275,  276,  311,  310
 235,  451,  452,  487,  486,  276,  277,  312,  311
 236,  452,  453,  488,  487,  277,  278,  313,  312
 237,  453,  454,  489,  488,  278,  279,  314,  313
 238,  454,  455,  490,  489,  279,  280,  315,  314
 239,  456,  457,  492,  491,  281,  282,  317,  316
 240,  457,  458,  493,  492,  282,  283,  318,  317
 241,  458,  459,  494,  493,  283,  284,  319,  318
 242,  459,  460,  495,  494,  284,  285,  320,  319
 243,  460,  461,  496,  495,  285,  286,  321,  320
 244,  461,  462,  497,  496,  286,  287,  322,  321
 245,  462,  463,  498,  497,  287,  288,  323,  322
 246,  463,  464,  499,  498,  288,  289,  324,  323
 247,  464,  465,  500,  499,  289,  290,  325,  324
 248,  465,  466,  501,  500,  290,  291,  326,  325
 249,  466,  467,  502,  501,  291,  292,  327,  326
 250,  467,  468,  503,  502,  292,  293,  328,  327
 251,  468,  469,  504,  503,  293,  294,  329,  328
 252,  469,  470,  505,  504,  294,  295,  330,  329
 253,  470,  471,  506,  505,  295,  296,  331,  330
 254,  471,  472,  507,  506,  296,  297,  332,  331
 255,  472,  473,  508,  507,  297,  298,  333,  332
 256,  473,  474,  509,  508,  298,  299,  334,  333
 257,  474,  475,  510,  509,  299,  300,  335,  334
 258,  475,  476,  511,  510,  300,  301,  336,  335
 259,  476,  477,  512,  511,  301,  302,  337,  336
 260,  477,  478,  513,  512,  302,  303,  338,  337
 261,  478,  479,  514,  513,  303,  304,  339,  338
 262,  479,  480,  515,  514,  304,  305,  340,  339
 263,  480,  481,  516,  515,  305,  306,  341,  340
 264,  481,  482,  517,  516,  306,  307,  342,  341
 265,  482,  483,  518,  517,  307,  308,  343,  342
 266,  483,  484,  519,  518,  308,  309,  344,  343
 267,  484,  485,  520,  519,  309,  310,  345,  344
 268,  485,  486,  521,  520,  310,  311,  346,  345
 269,  486,  487,  522,  521,  311,  312,  347,  346
 270,  487,  488,  523,  522,  312,  313,  348,  347
 271,  488,  489,  524,  523,  313,  314,  349,  348
 272,  489,  490,  525,  524,  314,  315,  350,  349
 273,  526,  527,  562,  561,  351,  352,  387,  386
 274,  527,  528,  563,  562,  352,  353,  388,  387
 275,  528,  529,  564,  563,  353,  354,  389,  388
 276,  529,  530,  565,  564,  354,  355,  390,  389
 277,  530,  531,  566,  565,  355,  356,  391,  390
 278,  531,  532,  567,  566,  356,  357,  392,  391
 279,  532,  533,  568,  567,  357,  358,  393,  392
 280,  533,  534,  569,  568,  358,  359,  394,  393
 281,  534,  535,  570,  569,  359,  360,  395,  394
 282,  535,  536,  571,  570,  360,  361,  396,  395
 283,  536,  537,  572,  571,  361,  362,  397,  396
 284,  537,  538,  573,  572,  362,  363,  398,  397
 285,  538,  539,  574,  573,  363,  364,  399,  398
 286,  539,  540,  575,  574,  364,  365,  400,  399
 287,  540,  541,  576,  575,  365,  366,  401,  400
 288,  541,  542,  577,  576,  366,  367,  402,  401
 289,  542,  543,  578,  577,  367,  368,  403,  402
 290,  543,  544,  579,  578,  368,  369,  404,  403
 291,  544,  545,  580,  579,  369,  370,  405,  404
 292,  545,  546,  581,  580,  370,  371,  406,  405
 293,  546,  547,  582,  581,  371,  372,  407,  406
 294,  547,  548,  583,  582,  372,  373,  408,  407
 295,  548,  549,  584,  583,  373,  374,  409,  408
 296,  549,  550,  585,  584,  374,  375,  410,  409
 297,  550,  551,  586,  585,  375,  376,  411,  410
 298,  551,  552,  587,  586,  376,  377,  412,  411
 299,  552,  553,  588,  587,  377,  378,  413,  412
 300,  553,  554,  589,  588,  378,  379,  414,  413
 301,  554,  555,  590,  589,  379,  380,  415,  414
 302,  555,  556,  591,  590,  380,  381,  416,  415
 303,  556,  557,  592,  591,  381,  382,  417,  416
 304,  557,  558,  593,  592,  382,  383,  418,  417
 305,  558,  559,  594,  593,  383,  384,  419,  418
 306,  559,  560,  595,  594,  384,  385,  420,  419
 307,  561,  562,  597,  596,  386,  387,  422,  421
 308,  562,  563,  598,  597,  387,  388,  423,  422
 309,  563,  564,  599,  598,  388,  389,  424,  423
 310,  564,  565,  600,  599,  389,  390,  425,  424
 311,  565,  566,  601,  600,  390,  391,  426,  425
 312,  566,  567,  602,  601,  391,  392,  427,  426
 313,  567,  568,  603,  602,  392,  393,  428,  427
 314,  568,  569,  604,  603,  393,  394,  429,  428
 315,  569,  570,  605,  604,  394,  395,  430,  429
 316,  570,  571,  606,  605,  395,  396,  431,  430
 317,  571,  572,  607,  606,  396,  397,  432,  431
 318,  572,  573,  608,  607,  397,  398,  433,  432
 319,  573,  574,  609,  608,  398,  399,  434,  433
 320,  574,  575,  610,  609,  399,  400,  435,  434
 321,  575,  576,  611,  610,  400,  401,  436,  435
 322,  576,  577,  612,  611,  401,  402,  437,  436
 323,  577,  578,  613,  612,  402,  403,  438,  437
 324,  578,  579,  614,  613,  403,  404,  439,  438
 325,  579,  580,  615,  614,  404,  405,  440,  439
 326,  580,  581,  616,  615,  405,  406,  441,  440
 327,  581,  582,  617,  616,  406,  407,  442,  441
 328,  582,  583,  618,  617,  407,  408,  443,  442
 329,  583,  584,  619,  618,  408,  409,  444,  443
 330,  584,  585,  620,  619,  409,  410,  445,  444
 331,  585,  586,  621,  620,  410,  411,  446,  445
 332,  586,  587,  622,  621,  411,  412,  447,  446
 333,  587,  588,  623,  622,  412,  413,  448,  447
 334,  588,  589,  624,  623,  413,  414,  449,  448
 335,  589,  590,  625,  624,  414,  415,  450,  449
 336,  590,  591,  626,  625,  415,  416,  451,  450
 337,  591,  592,  627,  626,  416,  417,  452,  451
 338,  592,  593,  628,  627,  417,  418,  453,  452
 339,  593,  594,  629,  628,  418,  419,  454,  453
 340,  594,  595,  630,  629,  419,  420,  455,  454
 341,  596,  597,  632,  631,  421,  422,  457,  456
 342,  597,  598,  633,  632,  422,  423,  458,  457
 343,  598,  599,  634,  633,  423,  424,  459,  458
 344,  599,  600,  635,  634,  424,  425,  460,  459
 345,  600,  601,  636,  635,  425,  426,  461,  460
 346,  601,  602,  637,  636,  426,  427,  462,  461
 347,  602,  603,  638,  637,  427,  428,  463,  462
 348,  603,  604,  639,  638,  428,  429,  464,  463
 349,  604,  605,  640,  639,  429,  430,  465,  464
 350,  605,  606,  641,  640,  430,  431,  466,  465
 351,  606,  607,  642,  641,  431,  432,  467,  466
 352,  607,  608,  643,  642,  432,  433,  468,  467
 353,  608,  609,  644,  643,  433,  434,  469,  468
 354,  609,  610,  645,  644,  434,  435,  470,  469
 355,  610,  611,  646,  645,  435,  436,  471,  470
 356,  611,  612,  647,  646,  436,  437,  472,  471
 357,  612,  613,  648,  647,  437,  438,  473,  472
 358,  613,  614,  649,  648,  438,  439,  474,  473
 359,  614,  615,  650,  649,  439,  440,  475,  474
 360,  615,  616,  651,  650,  440,  441,  476,  475
 361,  616,  617,  652,  651,  441,  442,  477,  476
 362,  617,  618,  653,  652,  442,  443,  478,  477
 363,  618,  619,  654,  653,  443,  444,  479,  478
 364,  619,  620,  655,  654,  444,  445,  480,  479
 365,  620,  621,  656,  655,  445,  446,  481,  480
 366,  621,  622,  657,  656,  446,  447,  482,  481
 367,  622,  623,  658,  657,  447,  448,  483,  482
 368,  623,  624,  659,  658,  448,  449,  484,  483
 369,  624,  625,  660,  659,  449,  450,  485,  484
 370,  625,  626,  661,  660,  450,  451,  486,  485
 371,  626,  627,  662,  661,  451,  452,  487,  486
 372,  627,  628,  663,  662,  452,  453,  488,  487
 373,  628,  629,  664,  663,  453,  454,  489,  488
 374,  629,  630,  665,  664,  454,  455,  490,  489
 375,  631,  632,  667,  666,  456,  457,  492,  491
 376,  632,  633,  668,  667,  457,  458,  493,  492
 377,  633,  634,  669,  668,  458,  459,  494,  493
 378,  634,  635,  670,  669,  459,  460,  495,  494
 379,  635,  636,  671,  670,  460,  461,  496,  495
 380,  636,  637,  672,  671,  461,  462,  497,  496
 381,  637,  638,  673,  672,  462,  463,  498,  497
 382,  638,  639,  674,  673,  463,  464,  499,  498
 383,  639,  640,  675,  674,  464,  465,  500,  499
 384,  640,  641,  676,  675,  465,  466,  501,  500
 385,  641,  642,  677,  676,  466,  467,  502,  501
 386,  642,  643,  678,  677,  467,  468,  503,  502
 387,  643,  644,  679,  678,  468,  469,  504,  503
 388,  644,  645,  680,  679,  469,  470,  505,  504
 389,  645,  646,  681,  680,  470,  471,  506,  505
 390,  646,  647,  682,  681,  471,  472,  507,  506
 391,  647,  648,  683,  682,  472,  473,  508,  507
 392,  648,  649,  684,  683,  473,  474,  509,  508
 393,  649,  650,  685,  684,  474,  475,  510,  509
 394,  650,  651,  686,  685,  475,  476,  511,  510
 395,  651,  652,  687,  686,  476,  477,  512,  511
 396,  652,  653,  688,  687,  477,  478,  513,  512
 397,  653,  654,  689,  688,  478,  479,  514,  513
 398,  654,  655,  690,  689,  479,  480,  515,  514
 399,  655,  656,  691,  690,  480,  481,  516,  515
 400,  656,  657,  692,  691,  481,  482,  517,  516
 401,  657,  658,  693,  692,  482,  483,  518,  517
 402,  658,  659,  694,  693,  483,  484,  519,  518
 403,  659,  660,  695,  694,  484,  485,  520,  519
 404,  660,  661,  696,  695,  485,  486,  521,  520
 405,  661,  662,  697,  696,  486,  487,  522,  521
 406,  662,  663,  698,  697,  487,  488,  523,  522
 407,  663,  664,  699,  698,  488,  489,  524,  523
 408,  664,  665,  700,  699,  489,  490,  525,  524
 409,  701,  702,  737,  736,  526,  527,  562,  561
 410,  702,  703,  738,  737,  527,  528,  563,  562
 411,  703,  704,  739,  738,  528,  529,  564,  563
 412,  704,  705,  740,  739,  529,  530,  565,  564
 413,  705,  706,  741,  740,  530,  531,  566,  565
 414,  706,  707,  742,  741,  531,  532,  567,  566
 415,  707,  708,  743,  742,  532,  533,  568,  567
 416,  708,  709,  744,  743,  533,  534,  569,  568
 417,  709,  710,  745,  744,  534,  535,  570,  569
 418,  710,  711,  746,  745,  535,  536,  571,  570
 419,  711,  712,  747,  746,  536,  537,  572,  571
 420,  712,  713,  748,  747,  537,  538,  573,  572
 421,  713,  714,  749,  748,  538,  539,  574,  573
 422,  714,  715,  750,  749,  539,  540,  575,  574
 423,  715,  716,  751,  750,  540,  541,  576,  575
 424,  716,  717,  752,  751,  541,  542,  577,  576
 425,  717,  718,  753,  752,  542,  543,  578,  577
 426,  718,  719,  754,  753,  543,  544,  579,  578
 427,  719,  720,  755,  754,  544,  545,  580,  579
 428,  720,  721,  756,  755,  545,  546,  581,  580
 429,  721,  722,  757,  756,  546,  547,  582,  581
 430,  722,  723,  758,  757,  547,  548,  583,  582
 431,  723,  724,  759,  758,  548,  549,  584,  583
 432,  724,  725,  760,  759,  549,  550,  585,  584
 433,  725,  726,  761,  760,  550,  551,  586,  585
 434,  726,  727,  762,  761,  551,  552,  587,  586
 435,  727,  728,  763,  762,  552,  553,  588,  587
 436,  728,  729,  764,  763,  553,  554,  589,  588
 437,  729,  730,  765,  764,  554,  555,  590,  589
 438,  730,  731,  766,  765,  555,  556,  591,  590
 439,  731,  732,  767,  766,  556,  557,  592,  591
 440,  732,  733,  768,  767,  557,  558,  593,  592
 441,  733,  734,  769,  768,  558,  559,  594,  593
 442,  734,  735,  770,  769,  559,  560,  595,  594
 443,  736,  737,  772,  771,  561,  562,  597,  596
 444,  737,  738,  773,  772,  562,  563,  598,  597
 445,  738,  739,  774,  773,  563,  564,  599,  598
 446,  739,  740,  775,  774,  564,  565,  600,  599
 447,  740,  741,  776,  775,  565,  566,  601,  600
 448,  741,  742,  777,  776,  566,  567,  602,  601
 449,  742,  743,  778,  777,  567,  568,  603,  602
 450,  743,  744,  779,  778,  568,  569,  604,  603
 451,  744,  745,  780,  779,  569,  570,  605,  604
 452,  745,  746,  781,  780,  570,  571,  606,  605
 453,  746,  747,  782,  781,  571,  572,  607,  606
 454,  747,  748,  783,  782,  572,  573,  608,  607
 455,  748,  749,  784,  783,  573,  574,  609,  608
 456,  749,  750,  785,  784,  574,  575,  610,  609
 457,  750,  751,  786,  785,  575,  576,  611,  610
 458,  751,  752,  787,  786,  576,  577,  612,  611
 459,  752,  753,  788,  787,  577,  578,  613,  612
 460,  753,  754,  789,  788,  578,  579,  614,  613
 461,  754,  755,  790,  789,  579,  580,  615,  614
 462,  755,  756,  791,  790,  580,  581,  616,  615
 463,  756,  757,  792,  791,  581,  582,  617,  616
 464,  757,  758,  793,  792,  582,  583,  618,  617
 465,  758,  759,  794,  793,  583,  584,  619,  618
 466,  759,  760,  795,  794,  584,  585,  620,  619
 467,  760,  761,  796,  795,  585,  586,  621,  620
 468,  761,  762,  797,  796,  586,  587,  622,  621
 469,  762,  763,  798,  797,  587,  588,  623,  622
 470,  763,  764,  799,  798,  588,  589,  624,  623
 471,  764,  765,  800,  799,  589,  590,  625,  624
 472,  765,  766,  801,  800,  590,  591,  626,  625
 473,  766,  767,  802,  801,  591,  592,  627,  626
 474,  767,  768,  803,  802,  592,  593,  628,  627
 475,  768,  769,  804,  803,  593,  594,  629,  628
 476,  769,  770,  805,  804,  594,  595,  630,  629
 477,  771,  772,  807,  806,  596,  597,  632,  631
 478,  772,  773,  808,  807,  597,  598,  633,  632
 479,  773,  774,  809,  808,  598,  599,  634,  633
 480,  774,  775,  810,  809,  599,  600,  635,  634
 481,  775,  776,  811,  810,  600,  601,  636,  635
 482,  776,  777,  812,  811,  601,  602,  637,  636
 483,  777,  778,  813,  812,  602,  603,  638,  637
 484,  778,  779,  814,  813,  603,  604,  639,  638
 485,  779,  780,  815,  814,  604,  605,  640,  639
 486,  780,  781,  816,  815,  605,  606,  641,  640
 487,  781,  782,  817,  816,  606,  607,  642,  641
 488,  782,  783,  818,  817,  607,  608,  643,  642
 489,  783,  784,  819,  818,  608,  609,  644,  643
 490,  784,  785,  820,  819,  609,  610,  645,  644
 491,  785,  786,  821,  820,  610,  611,  646,  645
 492,  786,  787,  822,  821,  611,  612,  647,  646
 493,  787,  788,  823,  822,  612,  613,  648,  647
 494,  788,  789,  824,  823,  613,  614,  649,  648
 495,  789,  790,  825,  824,  614,  615,  650,  649
 496,  790,  791,  826,  825,  615,  616,  651,  650
 497,  791,  792,  827,  826,  616,  617,  652,  651
 498,  792,  793,  828,  827,  617,  618,  653,  652
 499,  793,  794,  829,  828,  618,  619,  654,  653
 500,  794,  795,  830,  829,  619,  620,  655,  654
 501,  795,  796,  831,  830,  620,  621,  656,  655
 502,  796,  797,  832,  831,  621,  622,  657,  656
 503,  797,  798,  833,  832,  622,  623,  658,  657
 504,  798,  799,  834,  833,  623,  624,  659,  658
 505,  799,  800,  835,  834,  624,  625,  660,  659
 506,  800,  801,  836,  835,  625,  626,  661,  660
 507,  801,  802,  837,  836,  626,  627,  662,  661
 508,  802,  803,  838,  837,  627,  628,  663,  662
 509,  803,  804,  839,  838,  628,  629,  664,  663
 510,  804,  805,  840,  839,  629,  630,  665,  664
 511,  806,  807,  842,  841,  631,  632,  667,  666
 512,  807,  808,  843,  842,  632,  633,  668,  667
 513,  808,  809,  844,  843,  633,  634,  669,  668
 514,  809,  810,  845,  844,  634,  635,  670,  669
 515,  810,  811,  846,  845,  635,  636,  671,  670
 516,  811,  812,  847,  846,  636,  637,  672,  671
 517,  812,  813,  848,  847,  637,  638,  673,  672
 518,  813,  814,  849,  848,  638,  639,  674,  673
 519,  814,  815,  850,  849,  639,  640,  675,  674
 520,  815,  816,  851,  850,  640,  641,  676,  675
 521,  816,  817,  852,  851,  641,  642,  677,  676
 522,  817,  818,  853,  852,  642,  643,  678,  677
 523,  818,  819,  854,  853,  643,  644,  679,  678
 524,  819,  820,  855,  854,  644,  645,  680,  679
 525,  820,  821,  856,  855,  645,  646,  681,  680
 526,  821,  822,  857,  856,  646,  647,  682,  681
 527,  822,  823,  858,  857,  647,  648,  683,  682
 528,  823,  824,  859,  858,  648,  649,  684,  683
 529,  824,  825,  860,  859,  649,  650,  685,  684
 530,  825,  826,  861,  860,  650,  651,  686,  685
 531,  826,  827,  862,  861,  651,  652,  687,  686
 532,  827,  828,  863,  862,  652,  653,  688,  687
 533,  828,  829,  864,  863,  653,  654,  689,  688
 534,  829,  830,  865,  864,  654,  655,  690,  689
 535,  830,  831,  866,  865,  655,  656,  691,  690
 536,  831,  832,  867,  866,  656,  657,  692,  691
 537,  832,  833,  868,  867,  657,  658,  693,  692
 538,  833,  834,  869,  868,  658,  659,  694,  693
 539,  834,  835,  870,  869,  659,  660,  695,  694
 540,  835,  836,  871,  870,  660,  661,  696,  695
 541,  836,  837,  872,  871,  661,  662,  697,  696
 542,  837,  838,  873,  872,  662,  663,  698,  697
 543,  838,  839,  874,  873,  663,  664,  699,  698
 544,  839,  840,  875,  874,  664,  665,  700,  699
 545,  876,  877,  912,  911,  701,  702,  737,  736
 546,  877,  878,  913,  912,  702,  703,  738,  737
 547,  878,  879,  914,  913,  703,  704,  739,  738
 548,  879,  880,  915,  914,  704,  705,  740,  739
 549,  880,  881,  916,  915,  705,  706,  741,  740
 550,  881,  882,  917,  916,  706,  707,  742,  741
 551,  882,  883,  918,  917,  707,  708,  743,  742
 552,  883,  884,  919,  918,  708,  709,  744,  743
 553,  884,  885,  920,  919,  709,  710,  745,  744
 554,  885,  886,  921,  920,  710,  711,  746,  745
 555,  886,  887,  922,  921,  711,  712,  747,  746
 556,  887,  888,  923,  922,  712,  713,  748,  747
 557,  888,  889,  924,  923,  713,  714,  749,  748
 558,  889,  890,  925,  924,  714,  715,  750,  749
 559,  890,  891,  926,  925,  715,  716,  751,  750
 560,  891,  892,  927,  926,  716,  717,  752,  751
 561,  892,  893,  928,  927,  717,  718,  753,  752
 562,  893,  894,  929,  928,  718,  719,  754,  753
 563,  894,  895,  930,  929,  719,  720,  755,  754
 564,  895,  896,  931,  930,  720,  721,  756,  755
 565,  896,  897,  932,  931,  721,  722,  757,  756
 566,  897,  898,  933,  932,  722,  723,  758,  757
 567,  898,  899,  934,  933,  723,  724,  759,  758
 568,  899,  900,  935,  934,  724,  725,  760,  759
 569,  900,  901,  936,  935,  725,  726,  761,  760
 570,  901,  902,  937,  936,  726,  727,  762,  761
 571,  902,  903,  938,  937,  727,  728,  763,  762
 572,  903,  904,  939,  938,  728,  729,  764,  763
 573,  904,  905,  940,  939,  729,  730,  765,  764
 574,  905,  906,  941,  940,  730,  731,  766,  765
 575,  906,  907,  942,  941,  731,  732,  767,  766
 576,  907,  908,  943,  942,  732,  733,  768,  767
 577,  908,  909,  944,  943,  733,  734,  769,  768
 578,  909,  910,  945,  944,  734,  735,  770,  769
 579,  911,  912,  947,  946,  736,  737,  772,  771
 580,  912,  913,  948,  947,  737,  738,  773,  772
 581,  913,  914,  949,  948,  738,  739,  774,  773
 582,  914,  915,  950,  949,  739,  740,  775,  774
 583,  915,  916,  951,  950,  740,  741,  776,  775
 584,  916,  917,  952,  951,  741,  742,  777,  776
 585,  917,  918,  953,  952,  742,  743,  778,  777
 586,  918,  919,  954,  953,  743,  744,  779,  778
 587,  919,  920,  955,  954,  744,  745,  780,  779
 588,  920,  921,  956,  955,  745,  746,  781,  780
 589,  921,  922,  957,  956,  746,  747,  782,  781
 590,  922,  923,  958,  957,  747,  748,  783,  782
 591,  923,  924,  959,  958,  748,  749,  784,  783
 592,  924,  925,  960,  959,  749,  750,  785,  784
 593,  925,  926,  961,  960,  750,  751,  786,  785
 594,  926,  927,  962,  961,  751,  752,  787,  786
 595,  927,  928,  963,  962,  752,  753,  788,  787
 596,  928,  929,  964,  963,  753,  754,  789,  788
 597,  929,  930,  965,  964,  754,  755,  790,  789
 598,  930,  931,  966,  965,  755,  756,  791,  790
 599,  931,  932,  967,  966,  756,  757,  792,  791
 600,  932,  933,  968,  967,  757,  758,  793,  792
 601,  933,  934,  969,  968,  758,  759,  794,  793
 602,  934,  935,  970,  969,  759,  760,  795,  794
 603,  935,  936,  971,  970,  760,  761,  796,  795
 604,  936,  937,  972,  971,  761,  762,  797,  796
 605,  937,  938,  973,  972,  762,  763,  798,  797
 606,  938,  939,  974,  973,  763,  764,  799,  798
 607,  939,  940,  975,  974,  764,  765,  800,  799
 608,  940,  941,  976,  975,  765,  766,  801,  800
 609,  941,  942,  977,  976,  766,  767,  802,  801
 610,  942,  943,  978,  977,  767,  768,  803,  802
 611,  943,  944,  979,  978,  768,  769,  804,  803
 612,  944,  945,  980,  979,  769,  770,  805,  804
 613,  946,  947,  982,  981,  771,  772,  807,  806
 614,  947,  948,  983,  982,  772,  773,  808,  807
 615,  948,  949,  984,  983,  773,  774,  809,  808
 616,  949,  950,  985,  984,  774,  775,  810,  809
 617,  950,  951,  986,  985,  775,  776,  811,  810
 618,  951,  952,  987,  986,  776,  777,  812,  811
 619,  952,  953,  988,  987,  777,  778,  813,  812
 620,  953,  954,  989,  988,  778,  779,  814,  813
 621,  954,  955,  990,  989,  779,  780,  815,  814
 622,  955,  956,  991,  990,  780,  781,  816,  815
 623,  956,  957,  992,  991,  781,  782,  817,  816
 624,  957,  958,  993,  992,  782,  783,  818,  817
 625,  958,  959,  994,  993,  783,  784,  819,  818
 626,  959,  960,  995,  994,  784,  785,  820,  819
 627,  960,  961,  996,  995,  785,  786,  821,  820
 628,  961,  962,  997,  996,  786,  787,  822,  821
 629,  962,  963,  998,  997,  787,  788,  823,  822
 630,  963,  964,  999,  998,  788,  789,  824,  823
 631,  964,  965, 1000,  999,  789,  790,  825,  824
 632,  965,  966, 1001, 1000,  790,  791,  826,  825
 633,  966,  967, 1002, 1001,  791,  792,  827,  826
 634,  967,  968, 1003, 1002,  792,  793,  828,  827
 635,  968,  969, 1004, 1003,  793,  794,  829,  828
 636,  969,  970, 1005, 1004,  794,  795,  830,  829
 637,  970,  971, 1006, 1005,  795,  796,  831,  830
 638,  971,  972, 1007, 1006,  796,  797,  832,  831
 639,  972,  973, 1008, 1007,  797,  798,  833,  832
 640,  973,  974, 1009, 1008,  798,  799,  834,  833
 641,  974,  975, 1010, 1009,  799,  800,  835,  834
 642,  975,  976, 1011, 1010,  800,  801,  836,  835
 643,  976,  977, 1012, 1011,  801,  802,  837,  836
 644,  977,  978, 1013, 1012,  802,  803,  838,  837
 645,  978,  979, 1014, 1013,  803,  804,  839,  838
 646,  979,  980, 1015, 1014,  804,  805,  840,  839
 647,  981,  982, 1017, 1016,  806,  807,  842,  841
 648,  982,  983, 1018, 1017,  807,  808,  843,  842
 649,  983,  984, 1019, 1018,  808,  809,  844,  843
 650,  984,  985, 1020, 1019,  809,  810,  845,  844
 651,  985,  986, 1021, 1020,  810,  811,  846,  845
 652,  986,  987, 1022, 1021,  811,  812,  847,  846
 653,  987,  988, 1023, 1022,  812,  813,  848,  847
 654,  988,  989, 1024, 1023,  813,  814,  849,  848
 655,  989,  990, 1025, 1024,  814,  815,  850,  849
 656,  990,  991, 1026, 1025,  815,  816,  851,  850
 657,  991,  992, 1027, 1026,  816,  817,  852,  851
 658,  992,  993, 1028, 1027,  817,  818,  853,  852
 659,  993,  994, 1029, 1028,  818,  819,  854,  853
 660,  994,  995, 1030, 1029,  819,  820,  855,  854
 661,  995,  996, 1031, 1030,  820,  821,  856,  855
 662,  996,  997, 1032, 1031,  821,  822,  857,  856
 663,  997,  998, 1033, 1032,  822,  823,  858,  857
 664,  998,  999, 1034, 1033,  823,  824,  859,  858
 665,  999, 1000, 1035, 1034,  824,  825,  860,  859
 666, 1000, 1001, 1036, 1035,  825,  826,  861,  860
 667, 1001, 1002, 1037, 1036,  826,  827,  862,  861
 668, 1002, 1003, 1038, 1037,  827,  828,  863,  862
 669, 1003, 1004, 1039, 1038,  828,  829,  864,  863
 670, 1004, 1005, 1040, 1039,  829,  830,  865,  864
 671, 1005, 1006, 1041, 1040,  830,  831,  866,  865
 672, 1006, 1007, 1042, 1041,  831,  832,  867,  866
 673, 1007, 1008, 1043, 1042,  832,  833,  868,  867
 674, 1008, 1009, 1044, 1043,  833,  834,  869,  868
 675, 1009, 1010, 1045, 1044,  834,  835,  870,  869
 676, 1010, 1011, 1046, 1045,  835,  836,  871,  870
 677, 1011, 1012, 1047, 1046,  836,  837,  872,  871
 678, 1012, 1013, 1048, 1047,  837,  838,  873,  872
 679, 1013, 1014, 1049, 1048,  838,  839,  874,  873
 680, 1014, 1015, 1050, 1049,  839,  840,  875,  874
 681, 1051, 1052, 1087, 1086,  876,  877,  912,  911
 682, 1052, 1053, 1088, 1087,  877,  878,  913,  912
 683, 1053, 1054, 1089, 1088,  878,  879,  914,  913
 684, 1054, 1055, 1090, 1089,  879,  880,  915,  914
 685, 1055, 1056, 1091, 1090,  880,  881,  916,  915
 686, 1056, 1057, 1092, 1091,  881,  882,  917,  916
 687, 1057, 1058, 1093, 1092,  882,  883,  918,  917
 688, 1058, 1059, 1094, 1093,  883,  884,  919,  918
 689, 1059, 1060, 1095, 1094,  884,  885,  920,  919
 690, 1060, 1061, 1096, 1095,  885,  886,  921,  920
 691, 1061, 1062, 1097, 1096,  886,  887,  922,  921
 692, 1062, 1063, 1098, 1097,  887,  888,  923,  922
 693, 1063, 1064, 1099, 1098,  888,  889,  924,  923
 694, 1064, 1065, 1100, 1099,  889,  890,  925,  924
 695, 1065, 1066, 1101, 1100,  890,  891,  926,  925
 696, 1066, 1067, 1102, 1101,  891,  892,  927,  926
 697, 1067, 1068, 1103, 1102,  892,  893,  928,  927
 698, 1068, 1069, 1104, 1103,  893,  894,  929,  928
 699, 1069, 1070, 1105, 1104,  894,  895,  930,  929
 700, 1070, 1071, 1106, 1105,  895,  896,  931,  930
 701, 1071, 1072, 1107, 1106,  896,  897,  932,  931
 702, 1072, 1073, 1108, 1107,  897,  898,  933,  932
 703, 1073, 1074, 1109, 1108,  898,  899,  934,  933
 704, 1074, 1075, 1110, 1109,  899,  900,  935,  934
 705, 1075, 1076, 1111, 1110,  900,  901,  936,  935
 706, 1076, 1077, 1112, 1111,  901,  902,  937,  936
 707, 1077, 1078, 1113, 1112,  902,  903,  938,  937
 708, 1078, 1079, 1114, 1113,  903,  904,  939,  938
 709, 1079, 1080, 1115, 1114,  904,  905,  940,  939
 710, 1080, 1081, 1116, 1115,  905,  906,  941,  940
 711, 1081, 1082, 1117, 1116,  906,  907,  942,  941
 712, 1082, 1083, 1118, 1117,  907,  908,  943,  942
 713, 1083, 1084, 1119, 1118,  908,  909,  944,  943
 714, 1084, 1085, 1120, 1119,  909,  910,  945,  944
 715, 1086, 1087, 1122, 1121,  911,  912,  947,  946
 716, 1087, 1088, 1123, 1122,  912,  913,  948,  947
 717, 1088, 1089, 1124, 1123,  913,  914,  949,  948
 718, 1089, 1090, 1125, 1124,  914,  915,  950,  949
 719, 1090, 1091, 1126, 1125,  915,  916,  951,  950
 720, 1091, 1092, 1127, 1126,  916,  917,  952,  951
 721, 1092, 1093, 1128, 1127,  917,  918,  953,  952
 722, 1093, 1094, 1129, 1128,  918,  919,  954,  953
 723, 1094, 1095, 1130, 1129,  919,  920,  955,  954
 724, 1095, 1096, 1131, 1130,  920,  921,  956,  955
 725, 1096, 1097, 1132, 1131,  921,  922,  957,  956
 726, 1097, 1098, 1133, 1132,  922,  923,  958,  957
 727, 1098, 1099, 1134, 1133,  923,  924,  959,  958
 728, 1099, 1100, 1135, 1134,  924,  925,  960,  959
 729, 1100, 1101, 1136, 1135,  925,  926,  961,  960
 730, 1101, 1102, 1137, 1136,  926,  927,  962,  961
 731, 1102, 1103, 1138, 1137,  927,  928,  963,  962
 732, 1103, 1104, 1139, 1138,  928,  929,  964,  963
 733, 1104, 1105, 1140, 1139,  929,  930,  965,  964
 734, 1105, 1106, 1141, 1140,  930,  931,  966,  965
 735, 1106, 1107, 1142, 1141,  931,  932,  967,  966
 736, 1107, 1108, 1143, 1142,  932,  933,  968,  967
 737, 1108, 1109, 1144, 1143,  933,  934,  969,  968
 738, 1109, 1110, 1145, 1144,  934,  935,  970,  969
 739, 1110, 1111, 1146, 1145,  935,  936,  971,  970
 740, 1111, 1112, 1147, 1146,  936,  937,  972,  971
 741, 1112, 1113, 1148, 1147,  937,  938,  973,  972
 742, 1113, 1114, 1149, 1148,  938,  939,  974,  973
 743, 1114, 1115, 1150, 1149,  939,  940,  975,  974
 744, 1115, 1116, 1151, 1150,  940,  941,  976,  975
 745, 1116, 1117, 1152, 1151,  941,  942,  977,  976
 746, 1117, 1118, 1153, 1152,  942,  943,  978,  977
 747, 1118, 1119, 1154, 1153,  943,  944,  979,  978
 748, 1119, 1120, 1155, 1154,  944,  945,  980,  979
 749, 1121, 1122, 1157, 1156,  946,  947,  982,  981
 750, 1122, 1123, 1158, 1157,  947,  948,  983,  982
 751, 1123, 1124, 1159, 1158,  948,  949,  984,  983
 752, 1124, 1125, 1160, 1159,  949,  950,  985,  984
 753, 1125, 1126, 1161, 1160,  950,  951,  986,  985
 754, 1126, 1127, 1162, 1161,  951,  952,  987,  986
 755, 1127, 1128, 1163, 1162,  952,  953,  988,  987
 756, 1128, 1129, 1164, 1163,  953,  954,  989,  988
 757, 1129, 1130, 1165, 1164,  954,  955,  990,  989
 758, 1130, 1131, 1166, 1165,  955,  956,  991,  990
 759, 1131, 1132, 1167, 1166,  956,  957,  992,  991
 760, 1132, 1133, 1168, 1167,  957,  958,  993,  992
 761, 1133, 1134, 1169, 1168,  958,  959,  994,  993
 762, 1134, 1135, 1170, 1169,  959,  960,  995,  994
 763, 1135, 1136, 1171, 1170,  960,  961,  996,  995
 764, 1136, 1137, 1172, 1171,  961,  962,  997,  996
 765, 1137, 1138, 1173, 1172,  962,  963,  998,  997
 766, 1138, 1139, 1174, 1173,  963,  964,  999,  998
 767, 1139, 1140, 1175, 1174,  964,  965, 1000,  999
 768, 1140, 1141, 1176, 1175,  965,  966, 1001, 1000
 769, 1141, 1142, 1177, 1176,  966,  967, 1002, 1001
 770, 1142, 1143, 1178, 1177,  967,  968, 1003, 1002
 771, 1143, 1144, 1179, 1178,  968,  969, 1004, 1003
 772, 1144, 1145, 1180, 1179,  969,  970, 1005, 1004
 773, 1145, 1146, 1181, 1180,  970,  971, 1006, 1005
 774, 1146, 1147, 1182, 1181,  971,  972, 1007, 1006
 775, 1147, 1148, 1183, 1182,  972,  973, 1008, 1007
 776, 1148, 1149, 1184, 1183,  973,  974, 1009, 1008
 777, 1149, 1150, 1185, 1184,  974,  975, 1010, 1009
 778, 1150, 1151, 1186, 1185,  975,  976, 1011, 1010
 779, 1151, 1152, 1187, 1186,  976,  977, 1012, 1011
 780, 1152, 1153, 1188, 1187,  977,  978, 1013, 1012
 781, 1153, 1154, 1189, 1188,  978,  979, 1014, 1013
 782, 1154, 1155, 1190, 1189,  979,  980, 1015, 1014
 783, 1156, 1157, 1192, 1191,  981,  982, 1017, 1016
 784, 1157, 1158, 1193, 1192,  982,  983, 1018, 1017
 785, 1158, 1159, 1194, 1193,  983,  984, 1019, 1018
 786, 1159, 1160, 1195, 1194,  984,  985, 1020, 1019
 787, 1160, 1161, 1196, 1195,  985,  986, 1021, 1020
 788, 1161, 1162, 1197, 1196,  986,  987, 1022, 1021
 789, 1162, 1163, 1198, 1197,  987,  988, 1023, 1022
 790, 1163, 1164, 1199, 1198,  988,  989, 1024, 1023
 791, 1164, 1165, 1200, 1199,  989,  990, 1025, 1024
 792, 1165, 1166, 1201, 1200,  990,  991, 1026, 1025
 793, 1166, 1167, 1202, 1201,  991,  992, 1027, 1026
 794, 1167, 1168, 1203, 1202,  992,  993, 1028, 1027
 795, 1168, 1169, 1204, 1203,  993,  994, 1029, 1028
 796, 1169, 1170, 1205, 1204,  994,  995, 1030, 1029
 797, 1170, 1171, 1206, 1205,  995,  996, 1031, 1030
 798, 1171, 1172, 1207, 1206,  996,  997, 1032, 1031
 799, 1172, 1173, 1208, 1207,  997,  998, 1033, 1032
 800, 1173, 1174, 1209, 1208,  998,  999, 1034, 1033
 801, 1174, 1175, 1210, 1209,  999, 1000, 1035, 1034
 802, 1175, 1176, 1211, 1210, 1000, 1001, 1036, 1035
 803, 1176, 1177, 1212, 1211, 1001, 1002, 1037, 1036
 804, 1177, 1178, 1213, 1212, 1002, 1003, 1038, 1037
 805, 1178, 1179, 1214, 1213, 1003, 1004, 1039, 1038
 806, 1179, 1180, 1215, 1214, 1004, 1005, 1040, 1039
 807, 1180, 1181, 1216, 1215, 1005, 1006, 1041, 1040
 808, 1181, 1182, 1217, 1216, 1006, 1007, 1042, 1041
 809, 1182, 1183, 1218, 1217, 1007, 1008, 1043, 1042
 810, 1183, 1184, 1219, 1218, 1008, 1009, 1044, 1043
 811, 1184, 1185, 1220, 1219, 1009, 1010, 1045, 1044
 812, 1185, 1186, 1221, 1220, 1010, 1011, 1046, 1045
 813, 1186, 1187, 1222, 1221, 1011, 1012, 1047, 1046
 814, 1187, 1188, 1223, 1222, 1012, 1013, 1048, 1047
 815, 1188, 1189, 1224, 1223, 1013, 1014, 1049, 1048
 816, 1189, 1190, 1225, 1224, 1014, 1015, 1050, 1049
 817, 1226, 1227, 1262, 1261, 1051, 1052, 1087, 1086
 818, 1227, 1228, 1263, 1262, 1052, 1053, 1088, 1087
 819, 1228, 1229, 1264, 1263, 1053, 1054, 1089, 1088
 820, 1229, 1230, 1265, 1264, 1054, 1055, 1090, 1089
 821, 1230, 1231, 1266, 1265, 1055, 1056, 1091, 1090
 822, 1231, 1232, 1267, 1266, 1056, 1057, 1092, 1091
 823, 1232, 1233, 1268, 1267, 1057, 1058, 1093, 1092
 824, 1233, 1234, 1269, 1268, 1058, 1059, 1094, 1093
 825, 1234, 1235, 1270, 1269, 1059, 1060, 1095, 1094
 826, 1235, 1236, 1271, 1270, 1060, 1061, 1096, 1095
 827, 1236, 1237, 1272, 1271, 1061, 1062, 1097, 1096
 828, 1237, 1238, 1273, 1272, 1062, 1063, 1098, 1097
 829, 1238, 1239, 1274, 1273, 1063, 1064, 1099, 1098
 830, 1239, 1240, 1275, 1274, 1064, 1065, 1100, 1099
 831, 1240, 1241, 1276, 1275, 1065, 1066, 1101, 1100
 832, 1241, 1242, 1277, 1276, 1066, 1067, 1102, 1101
 833, 1242, 1243, 1278, 1277, 1067, 1068, 1103, 1102
 834, 1243, 1244, 1279, 1278, 1068, 1069, 1104, 1103
 835, 1244, 1245, 1280, 1279, 1069, 1070, 1105, 1104
 836, 1245, 1246, 1281, 1280, 1070, 1071, 1106, 1105
 837, 1246, 1247, 1282, 1281, 1071, 1072, 1107, 1106
 838, 1247, 1248, 1283, 1282, 1072, 1073, 1108, 1107
 839, 1248, 1249, 1284, 1283, 1073, 1074, 1109, 1108
 840, 1249, 1250, 1285, 1284, 1074, 1075, 1110, 1109
 841, 1250, 1251, 1286, 1285, 1075, 1076, 1111, 1110
 842, 1251, 1252, 1287, 1286, 1076, 1077, 1112, 1111
 843, 1252, 1253, 1288, 1287, 1077, 1078, 1113, 1112
 844, 1253, 1254, 1289, 1288, 1078, 1079, 1114, 1113
 845, 1254, 1255, 1290, 1289, 1079, 1080, 1115, 1114
 846, 1255, 1256, 1291, 1290, 1080, 1081, 1116, 1115
 847, 1256, 1257, 1292, 1291, 1081, 1082, 1117, 1116
 848, 1257, 1258, 1293, 1292, 1082, 1083, 1118, 1117
 849, 1258, 1259, 1294, 1293, 1083, 1084, 1119, 1118
 850, 1259, 1260, 1295, 1294, 1084, 1085, 1120, 1119
 851, 1261, 1262, 1297, 1296, 1086, 1087, 1122, 1121
 852, 1262, 1263, 1298, 1297, 1087, 1088, 1123, 1122
 853, 1263, 1264, 1299, 1298, 1088, 1089, 1124, 1123
 854, 1264, 1265, 1300, 1299, 1089, 1090, 1125, 1124
 855, 1265, 1266, 1301, 1300, 1090, 1091, 1126, 1125
 856, 1266, 1267, 1302, 1301, 1091, 1092, 1127, 1126
 857, 1267, 1268, 1303, 1302, 1092, 1093, 1128, 1127
 858, 1268, 1269, 1304, 1303, 1093, 1094, 1129, 1128
 859, 1269, 1270, 1305, 1304, 1094, 1095, 1130, 1129
 860, 1270, 1271, 1306, 1305, 1095, 1096, 1131, 1130
 861, 1271, 1272, 1307, 1306, 1096, 1097, 1132, 1131
 862, 1272, 1273, 1308, 1307, 1097, 1098, 1133, 1132
 863, 1273, 1274, 1309, 1308, 1098, 1099, 1134, 1133
 864, 1274, 1275, 1310, 1309, 1099, 1100, 1135, 1134
 865, 1275, 1276, 1311, 1310, 1100, 1101, 1136, 1135
 866, 1276, 1277, 1312, 1311, 1101, 1102, 1137, 1136
 867, 1277, 1278, 1313, 1312, 1102, 1103, 1138, 1137
 868, 1278, 1279, 1314, 1313, 1103, 1104, 1139, 1138
 869, 1279, 1280, 1315, 1314, 1104, 1105, 1140, 1139
 870, 1280, 1281, 1316, 1315, 1105, 1106, 1141, 1140
 871, 1281, 1282, 1317, 1316, 1106, 1107, 1142, 1141
 872, 1282, 1283, 1318, 1317, 1107, 1108, 1143, 1142
 873, 1283, 1284, 1319, 1318, 1108, 1109, 1144, 1143
 874, 1284, 1285, 1320, 1319, 1109, 1110, 1145, 1144
 875, 1285, 1286, 1321, 1320, 1110, 1111, 1146, 1145
 876, 1286, 1287, 1322, 1321, 1111, 1112, 1147, 1146
 877, 1287, 1288, 1323, 1322, 1112, 1113, 1148, 1147
 878, 1288, 1289, 1324, 1323, 1113, 1114, 1149, 1148
 879, 1289, 1290, 1325, 1324, 1114, 1115, 1150, 1149
 880, 1290, 1291, 1326, 1325, 1115, 1116, 1151, 1150
 881, 1291, 1292, 1327, 1326, 1116, 1117, 1152, 1151
 882, 1292, 1293, 1328, 1327, 1117, 1118, 1153, 1152
 883, 1293, 1294, 1329, 1328, 1118, 1119, 1154, 1153
 884, 1294, 1295, 1330, 1329, 1119, 1120, 1155, 1154
 885, 1296, 1297, 1332, 1331, 1121, 1122, 1157, 1156
 886, 1297, 1298, 1333, 1332, 1122, 1123, 1158, 1157
 887, 1298, 1299, 1334, 1333, 1123, 1124, 1159, 1158
 888, 1299, 1300, 1335, 1334, 1124, 1125, 1160, 1159
 889, 1300, 1301, 1336, 1335, 1125, 1126, 1161, 1160
 890, 1301, 1302, 1337, 1336, 1126, 1127, 1162, 1161
 891, 1302, 1303, 1338, 1337, 1127, 1128, 1163, 1162
 892, 1303, 1304, 1339, 1338, 1128, 1129, 1164, 1163
 893, 1304, 1305, 1340, 1339, 1129, 1130, 1165, 1164
 894, 1305, 1306, 1341, 1340, 1130, 1131, 1166, 1165
 895, 1306, 1307, 1342, 1341, 1131, 1132, 1167, 1166
 896, 1307, 1308, 1343, 1342, 1132, 1133, 1168, 1167
 897, 1308, 1309, 1344, 1343, 1133, 1134, 1169, 1168
 898, 1309, 1310, 1345, 1344, 1134, 1135, 1170, 1169
 899, 1310, 1311, 1346, 1345, 1135, 1136, 1171, 1170
 900, 1311, 1312, 1347, 1346, 1136, 1137, 1172, 1171
 901, 1312, 1313, 1348, 1347, 1137, 1138, 1173, 1172
 902, 1313, 1314, 1349, 1348, 1138, 1139, 1174, 1173
 903, 1314, 1315, 1350, 1349, 1139, 1140, 1175, 1174
 904, 1315, 1316, 1351, 1350, 1140, 1141, 1176, 1175
 905, 1316, 1317, 1352, 1351, 1141, 1142, 1177, 1176
 906, 1317, 1318, 1353, 1352, 1142, 1143, 1178, 1177
 907, 1318, 1319, 1354, 1353, 1143, 1144, 1179, 1178
 908, 1319, 1320, 1355, 1354, 1144, 1145, 1180, 1179
 909, 1320, 1321, 1356, 1355, 1145, 1146, 1181, 1180
 910, 1321, 1322, 1357, 1356, 1146, 1147, 1182, 1181
 911, 1322, 1323, 1358, 1357, 1147, 1148, 1183, 1182
 912, 1323, 1324, 1359, 1358, 1148, 1149, 1184, 1183
 913, 1324, 1325, 1360, 1359, 1149, 1150, 1185, 1184
 914, 1325, 1326, 1361, 1360, 1150, 1151, 1186, 1185
 915, 1326, 1327, 1362, 1361, 1151, 1152, 1187, 1186
 916, 1327, 1328, 1363, 1362, 1152, 1153, 1188, 1187
 917, 1328, 1329, 1364, 1363, 1153, 1154, 1189, 1188
 918, 1329, 1330, 1365, 1364, 1154, 1155, 1190, 1189
 919, 1331, 1332, 1367, 1366, 1156, 1157, 1192, 1191
 920, 1332, 1333, 1368, 1367, 1157, 1158, 1193, 1192
 921, 1333, 1334, 1369, 1368, 1158, 1159, 1194, 1193
 922, 1334, 1335, 1370, 1369, 1159, 1160, 1195, 1194
 923, 1335, 1336, 1371, 1370, 1160, 1161, 1196, 1195
 924, 1336, 1337, 1372, 1371, 1161, 1162, 1197, 1196
 925, 1337, 1338, 1373, 1372, 1162, 1163, 1198, 1197
 926, 1338, 1339, 1374, 1373, 1163, 1164, 1199, 1198
 927, 1339, 1340, 1375, 1374, 1164, 1165, 1200, 1199
 928, 1340, 1341, 1376, 1375, 1165, 1166, 1201, 1200
 929, 1341, 1342, 1377, 1376, 1166, 1167, 1202, 1201
 930, 1342, 1343, 1378, 1377, 1167, 1168, 1203, 1202
 931, 1343, 1344, 1379, 1378, 1168, 1169, 1204, 1203
 932, 1344, 1345, 1380, 1379, 1169, 1170, 1205, 1204
 933, 1345, 1346, 1381, 1380, 1170, 1171, 1206, 1205
 934, 1346, 1347, 1382, 1381, 1171, 1172, 1207, 1206
 935, 1347, 1348, 1383, 1382, 1172, 1173, 1208, 1207
 936, 1348, 1349, 1384, 1383, 1173, 1174, 1209, 1208
 937, 1349, 1350, 1385, 1384, 1174, 1175, 1210, 1209
 938, 1350, 1351, 1386, 1385, 1175, 1176, 1211, 1210
 939, 1351, 1352, 1387, 1386, 1176, 1177, 1212, 1211
 940, 1352, 1353, 1388, 1387, 1177, 1178, 1213, 1212
 941, 1353, 1354, 1389, 1388, 1178, 1179, 1214, 1213
 942, 1354, 1355, 1390, 1389, 1179, 1180, 1215, 1214
 943, 1355, 1356, 1391, 1390, 1180, 1181, 1216, 1215
 944, 1356, 1357, 1392, 1391, 1181, 1182, 1217, 1216
 945, 1357, 1358, 1393, 1392, 1182, 1183, 1218, 1217
 946, 1358, 1359, 1394, 1393, 1183, 1184, 1219, 1218
 947, 1359, 1360, 1395, 1394, 1184, 1185, 1220, 1219
 948, 1360, 1361, 1396, 1395, 1185, 1186, 1221, 1220
 949, 1361, 1362, 1397, 1396, 1186, 1187, 1222, 1221
 950, 1362, 1363, 1398, 1397, 1187, 1188, 1223, 1222
 951, 1363, 1364, 1399, 1398, 1188, 1189, 1224, 1223
 952, 1364, 1365, 1400, 1399, 1189, 1190, 1225, 1224
 953, 1401, 1402, 1437, 1436, 1226, 1227, 1262, 1261
 954, 1402, 1403, 1438, 1437, 1227, 1228, 1263, 1262
 955, 1403, 1404, 1439, 1438, 1228, 1229, 1264, 1263
 956, 1404, 1405, 1440, 1439, 1229, 1230, 1265, 1264
 957, 1405, 1406, 1441, 1440, 1230, 1231, 1266, 1265
 958, 1406, 1407, 1442, 1441, 1231, 1232, 1267, 1266
 959, 1407, 1408, 1443, 1442, 1232, 1233, 1268, 1267
 960, 1408, 1409, 1444, 1443, 1233, 1234, 1269, 1268
 961, 1409, 1410, 1445, 1444, 1234, 1235, 1270, 1269
 962, 1410, 1411, 1446, 1445, 1235, 1236, 1271, 1270
 963, 1411, 1412, 1447, 1446, 1236, 1237, 1272, 1271
 964, 1412, 1413, 1448, 1447, 1237, 1238, 1273, 1272
 965, 1413, 1414, 1449, 1448, 1238, 1239, 1274, 1273
 966, 1414, 1415, 1450, 1449, 1239, 1240, 1275, 1274
 967, 1415, 1416, 1451, 1450, 1240, 1241, 1276, 1275
 968, 1416, 1417, 1452, 1451, 1241, 1242, 1277, 1276
 969, 1417, 1418, 1453, 1452, 1242, 1243, 1278, 1277
 970, 1418, 1419, 1454, 1453, 1243, 1244, 1279, 1278
 971, 1419, 1420, 1455, 1454, 1244, 1245, 1280, 1279
 972, 1420, 1421, 1456, 1455, 1245, 1246, 1281, 1280
 973, 1421, 1422, 1457, 1456, 1246, 1247, 1282, 1281
 974, 1422, 1423, 1458, 1457, 1247, 1248, 1283, 1282
 975, 1423, 1424, 1459, 1458, 1248, 1249, 1284, 1283
 976, 1424, 1425, 1460, 1459, 1249, 1250, 1285, 1284
 977, 1425, 1426, 1461, 1460, 1250, 1251, 1286, 1285
 978, 1426, 1427, 1462, 1461, 1251, 1252, 1287, 1286
 979, 1427, 1428, 1463, 1462, 1252, 1253, 1288, 1287
 980, 1428, 1429, 1464, 1463, 1253, 1254, 1289, 1288
 981, 1429, 1430, 1465, 1464, 1254, 1255, 1290, 1289
 982, 1430, 1431, 1466, 1465, 1255, 1256, 1291, 1290
 983, 1431, 1432, 1467, 1466, 1256, 1257, 1292, 1291
 984, 1432, 1433, 1468, 1467, 1257, 1258, 1293, 1292
 985, 1433, 1434, 1469, 1468, 1258, 1259, 1294, 1293
 986, 1434, 1435, 1470, 1469, 1259, 1260, 1295, 1294
 987, 1436, 1437, 1472, 1471, 1261, 1262, 1297, 1296
 988, 1437, 1438, 1473, 1472, 1262, 1263, 1298, 1297
 989, 1438, 1439, 1474, 1473, 1263, 1264, 1299, 1298
 990, 1439, 1440, 1475, 1474, 1264, 1265, 1300, 1299
 991, 1440, 1441, 1476, 1475, 1265, 1266, 1301, 1300
 992, 1441, 1442, 1477, 1476, 1266, 1267, 1302, 1301
 993, 1442, 1443, 1478, 1477, 1267, 1268, 1303, 1302
 994, 1443, 1444, 1479, 1478, 1268, 1269, 1304, 1303
 995, 1444, 1445, 1480, 1479, 1269, 1270, 1305, 1304
 996, 1445, 1446, 1481, 1480, 1270, 1271, 1306, 1305
 997, 1446, 1447, 1482, 1481, 1271, 1272, 1307, 1306
 998, 1447, 1448, 1483, 1482, 1272, 1273, 1308, 1307
 999, 1448, 1449, 1484, 1483, 1273, 1274, 1309, 1308
1000, 1449, 1450, 1485, 1484, 1274, 1275, 1310, 1309
1001, 1450, 1451, 1486, 1485, 1275, 1276, 1311, 1310
1002, 1451, 1452, 1487, 1486, 1276, 1277, 1312, 1311
1003, 1452, 1453, 1488, 1487, 1277, 1278, 1313, 1312
1004, 1453, 1454, 1489, 1488, 1278, 1279, 1314, 1313
1005, 1454, 1455, 1490, 1489, 1279, 1280, 1315, 1314
1006, 1455, 1456, 1491, 1490, 1280, 1281, 1316, 1315
1007, 1456, 1457, 1492, 1491, 1281, 1282, 1317, 1316
1008, 1457, 1458, 1493, 1492, 1282, 1283, 1318, 1317
1009, 1458, 1459, 1494, 1493, 1283, 1284, 1319, 1318
1010, 1459, 1460, 1495, 1494, 1284, 1285, 1320, 1319
1011, 1460, 1461, 1496, 1495, 1285, 1286, 1321, 1320
1012, 1461, 1462, 1497, 1496, 1286, 1287, 1322, 1321
1013, 1462, 1463, 1498, 1497, 1287, 1288, 1323, 1322
1014, 1463, 1464, 1499, 1498, 1288, 1289, 1324, 1323
1015, 1464, 1465, 1500, 1499, 1289, 1290, 1325, 1324
1016, 1465, 1466, 1501, 1500, 1290, 1291, 1326, 1325
1017, 1466, 1467, 1502, 1501, 1291, 1292, 1327, 1326
1018, 1467, 1468, 1503, 1502, 1292, 1293, 1328, 1327
1019, 1468, 1469, 1504, 1503, 1293, 1294, 1329, 1328
1020, 1469, 1470, 1505, 1504, 1294, 1295, 1330, 1329
1021, 1471, 1472, 1507, 1506, 1296, 1297, 1332, 1331
1022, 1472, 1473, 1508, 1507, 1297, 1298, 1333, 1332
1023, 1473, 1474, 1509, 1508, 1298, 1299, 1334, 1333
1024, 1474, 1475, 1510, 1509, 1299, 1300, 1335, 1334
1025, 1475, 1476, 1511, 1510, 1300, 1301, 1336, 1335
1026, 1476, 1477, 1512, 1511, 1301, 1302, 1337, 1336
1027, 1477, 1478, 1513, 1512, 1302, 1303, 1338, 1337
1028, 1478, 1479, 1514, 1513, 1303, 1304, 1339, 1338
1029, 1479, 1480, 1515, 1514, 1304, 1305, 1340, 1339
1030, 1480, 1481, 1516, 1515, 1305, 1306, 1341, 1340
1031, 1481, 1482, 1517, 1516, 1306, 1307, 1342, 1341
1032, 1482, 1483, 1518, 1517, 1307, 1308, 1343, 1342
1033, 1483, 1484, 1519, 1518, 1308, 1309, 1344, 1343
1034, 1484, 1485, 1520, 1519, 1309, 1310, 1345, 1344
1035, 1485, 1486, 1521, 1520, 1310, 1311, 1346, 1345
1036, 1486, 1487, 1522, 1521, 1311, 1312, 1347, 1346
1037, 1487, 1488, 1523, 1522, 1312, 1313, 1348, 1347
1038, 1488, 1489, 1524, 1523, 1313, 1314, 1349, 1348
1039, 1489, 1490, 1525, 1524, 1314, 1315, 1350, 1349
1040, 1490, 1491, 1526, 1525, 1315, 1316, 1351, 1350
1041, 1491, 1492, 1527, 1526, 1316, 1317, 1352, 1351
1042, 1492, 1493, 1528, 1527, 1317, 1318, 1353, 1352
1043, 1493, 1494, 1529, 1528, 1318, 1319, 1354, 1353
1044, 1494, 1495, 1530, 1529, 1319, 1320, 1355, 1354
1045, 1495, 1496, 1531, 1530, 1320, 1321, 1356, 1355
1046, 1496, 1497, 1532, 1531, 1321, 1322, 1357, 1356
1047, 1497, 1498, 1533, 1532, 1322, 1323, 1358, 1357
1048, 1498, 1499, 1534, 1533, 1323, 1324, 1359, 1358
1049, 1499, 1500, 1535, 1534, 1324, 1325, 1360, 1359
1050, 1500, 1501, 1536, 1535, 1325, 1326, 1361, 1360
1051, 1501, 1502, 1537, 1536, 1326, 1327, 1362, 1361
1052, 1502, 1503, 1538, 1537, 1327, 1328, 1363, 1362
1053, 1503, 1504, 1539, 1538, 1328, 1329, 1364, 1363
1054, 1504, 1505, 1540, 1539, 1329, 1330, 1365, 1364
1055, 1506, 1507, 1542, 1541, 1331, 1332, 1367, 1366
1056, 1507, 1508, 1543, 1542, 1332, 1333, 1368, 1367
1057, 1508, 1509, 1544, 1543, 1333, 1334, 1369, 1368
1058, 1509, 1510, 1545, 1544, 1334, 1335, 1370, 1369
1059, 1510, 1511, 1546, 1545, 1335, 1336, 1371, 1370
1060, 1511, 1512, 1547, 1546, 1336, 1337, 1372, 1371
1061, 1512, 1513, 1548, 1547, 1337, 1338, 1373, 1372
1062, 1513, 1514, 1549, 1548, 1338, 1339, 1374, 1373
1063, 1514, 1515, 1550, 1549, 1339, 1340, 1375, 1374
1064, 1515, 1516, 1551, 1550, 1340, 1341, 1376, 1375
1065, 1516, 1517, 1552, 1551, 1341, 1342, 1377, 1376
1066, 1517, 1518, 1553, 1552, 1342, 1343, 1378, 1377
1067, 1518, 1519, 1554, 1553, 1343, 1344, 1379, 1378
1068, 1519, 1520, 1555, 1554, 1344, 1345, 1380, 1379
1069, 1520, 1521, 1556, 1555, 1345, 1346, 1381, 1380
1070, 1521, 1522, 1557, 1556, 1346, 1347, 1382, 1381
1071, 1522, 1523, 1558, 1557, 1347, 1348, 1383, 1382
1072, 1523, 1524, 1559, 1558, 1348, 1349, 1384, 1383
1073, 1524, 1525, 1560, 1559, 1349, 1350, 1385, 1384
1074, 1525, 1526, 1561, 1560, 1350, 1351, 1386, 1385
1075, 1526, 1527, 1562, 1561, 1351, 1352, 1387, 1386
1076, 1527, 1528, 1563, 1562, 1352, 1353, 1388, 1387
1077, 1528, 1529, 1564, 1563, 1353, 1354, 1389, 1388
1078, 1529, 1530, 1565, 1564, 1354, 1355, 1390, 1389
1079, 1530, 1531, 1566, 1565, 1355, 1356, 1391, 1390
1080, 1531, 1532, 1567, 1566, 1356, 1357, 1392, 1391
1081, 1532, 1533, 1568, 1567, 1357, 1358, 1393, 1392
1082, 1533, 1534, 1569, 1568, 1358, 1359, 1394, 1393
1083, 1534, 1535, 1570, 1569, 1359, 1360, 1395, 1394
1084, 1535, 1536, 1571, 1570, 1360, 1361, 1396, 1395
1085, 1536, 1537, 1572, 1571, 1361, 1362, 1397, 1396
1086, 1537, 1538, 1573, 1572, 1362, 1363, 1398, 1397
1087, 1538, 1539, 1574, 1573, 1363, 1364, 1399, 1398
1088, 1539, 1540, 1575, 1574, 1364, 1365, 1400, 1399
1089, 1576, 1577, 1612, 1611, 1401, 1402, 1437, 1436
1090, 1577, 1578, 1613, 1612, 1402, 1403, 1438, 1437
1091, 1578, 1579, 1614, 1613, 1403, 1404, 1439, 1438
1092, 1579, 1580, 1615, 1614, 1404, 1405, 1440, 1439
1093, 1580, 1581, 1616, 1615, 1405, 1406, 1441, 1440
1094, 1581, 1582, 1617, 1616, 1406, 1407, 1442, 1441
1095, 1582, 1583, 1618, 1617, 1407, 1408, 1443, 1442
1096, 1583, 1584, 1619, 1618, 1408, 1409, 1444, 1443
1097, 1584, 1585, 1620, 1619, 1409, 1410, 1445, 1444
1098, 1585, 1586, 1621, 1620, 1410, 1411, 1446, 1445
1099, 1586, 1587, 1622, 1621, 1411, 1412, 1447, 1446
1100, 1587, 1588, 1623, 1622, 1412, 1413, 1448, 1447
1101, 1588, 1589, 1624, 1623, 1413, 1414, 1449, 1448
1102, 1589, 1590, 1625, 1624, 1414, 1415, 1450, 1449
1103, 1590, 1591, 1626, 1625, 1415, 1416, 1451, 1450
1104, 1591, 1592, 1627, 1626, 1416, 1417, 1452, 1451
1105, 1592, 1593, 1628, 1627, 1417, 1418, 1453, 1452
1106, 1593, 1594, 1629, 1628, 1418, 1419, 1454, 1453
1107, 1594, 1595, 1630, 1629, 1419, 1420, 1455, 1454
1108, 1595, 1596, 1631, 1630, 1420, 1421, 1456, 1455
1109, 1596, 1597, 1632, 1631, 1421, 1422, 1457, 1456
1110, 1597, 1598, 1633, 1632, 1422, 1423, 1458, 1457
1111, 1598, 1599, 1634, 1633, 1423, 1424, 1459, 1458
1112, 1599, 1600, 1635, 1634, 1424, 1425, 1460, 1459
1113, 1600, 1601, 1636, 1635, 1425, 1426, 1461, 1460
1114, 1601, 1602, 1637, 1636, 1426, 1427, 1462, 1461
1115, 1602, 1603, 1638, 1637, 1427, 1428, 1463, 1462
1116, 1603, 1604, 1639, 1638, 1428, 1429, 1464, 1463
1117, 1604, 1605, 1640, 1639, 1429, 1430, 1465, 1464
1118, 1605, 1606, 1641, 1640, 1430, 1431, 1466, 1465
1119, 1606, 1607, 1642, 1641, 1431, 1432, 1467, 1466
1120, 1607, 1608, 1643, 1642, 1432, 1433, 1468, 1467
1121, 1608, 1609, 1644, 1643, 1433, 1434, 1469, 1468
1122, 1609, 1610, 1645, 1644, 1434, 1435, 1470, 1469
1123, 1611, 1612, 1647, 1646, 1436, 1437, 1472, 1471
1124, 1612, 1613, 1648, 1647, 1437, 1438, 1473, 1472
1125, 1613, 1614, 1649, 1648, 1438, 1439, 1474, 1473
1126, 1614, 1615, 1650, 1649, 1439, 1440, 1475, 1474
1127, 1615, 1616, 1651, 1650, 1440, 1441, 1476, 1475
1128, 1616, 1617, 1652, 1651, 1441, 1442, 1477, 1476
1129, 1617, 1618, 1653, 1652, 1442, 1443, 1478, 1477
1130, 1618, 1619, 1654, 1653, 1443, 1444, 1479, 1478
1131, 1619, 1620, 1655, 1654, 1444, 1445, 1480, 1479
1132, 1620, 1621, 1656, 1655, 1445, 1446, 1481, 1480
1133, 1621, 1622, 1657, 1656, 1446, 1447, 1482, 1481
1134, 1622, 1623, 1658, 1657, 1447, 1448, 1483, 1482
1135, 1623, 1624, 1659, 1658, 1448, 1449, 1484, 1483
1136, 1624, 1625, 1660, 1659, 1449, 1450, 1485, 1484
1137, 1625, 1626, 1661, 1660, 1450, 1451, 1486, 1485
1138, 1626, 1627, 1662, 1661, 1451, 1452, 1487, 1486
1139, 1627, 1628, 1663, 1662, 1452, 1453, 1488, 1487
1140, 1628, 1629, 1664, 1663, 1453, 1454, 1489, 1488
1141, 1629, 1630, 1665, 1664, 1454, 1455, 1490, 1489
1142, 1630, 1631, 1666, 1665, 1455, 1456, 1491, 1490
1143, 1631, 1632, 1667, 1666, 1456, 1457, 1492, 1491
1144, 1632, 1633, 1668, 1667, 1457, 1458, 1493, 1492
1145, 1633, 1634, 1669, 1668, 1458, 1459, 1494, 1493
1146, 1634, 1635, 1670, 1669, 1459, 1460, 1495, 1494
1147, 1635, 1636, 1671, 1670, 1460, 1461, 1496, 1495
1148, 1636, 1637, 1672, 1671, 1461, 1462, 1497, 1496
1149, 1637, 1638, 1673, 1672, 1462, 1463, 1498, 1497
1150, 1638, 1639, 1674, 1673, 1463, 1464, 1499, 1498
1151, 1639, 1640, 1675, 1674, 1464, 1465, 1500, 1499
1152, 1640, 1641, 1676, 1675, 1465, 1466, 1501, 1500
1153, 1641, 1642, 1677, 1676, 1466, 1467, 1502, 1501
1154, 1642, 1643, 1678, 1677, 1467, 1468, 1503, 1502
1155, 1643, 1644, 1679, 1678, 1468, 1469, 1504, 1503
1156, 1644, 1645, 1680, 1679, 1469, 1470, 1505, 1504
1157, 1646, 1647, 1682, 1681, 1471, 1472, 1507, 1506
1158, 1647, 1648, 1683, 1682, 1472, 1473, 1508, 1507
1159, 1648, 1649, 1684, 1683, 1473, 1474, 1509, 1508
1160, 1649, 1650, 1685, 1684, 1474, 1475, 1510, 1509
1161, 1650, 1651, 1686, 1685, 1475, 1476, 1511, 1510
1162, 1651, 1652, 1687, 1686, 1476, 1477, 1512, 1511
1163, 1652, 1653, 1688, 1687, 1477, 1478, 1513, 1512
1164, 1653, 1654, 1689, 1688, 1478, 1479, 1514, 1513
1165, 1654, 1655, 1690, 1689, 1479, 1480, 1515, 1514
1166, 1655, 1656, 1691, 1690, 1480, 1481, 1516, 1515
1167, 1656, 1657, 1692, 1691, 1481, 1482, 1517, 1516
1168, 1657, 1658, 1693, 1692, 1482, 1483, 1518, 1517
1169, 1658, 1659, 1694, 1693, 1483, 1484, 1519, 1518
1170, 1659, 1660, 1695, 1694, 1484, 1485, 1520, 1519
1171, 1660, 1661, 1696, 1695, 1485, 1486, 1521, 1520
1172, 1661, 1662, 1697, 1696, 1486, 1487, 1522, 1521
1173, 1662, 1663, 1698, 1697, 1487, 1488, 1523, 1522
1174, 1663, 1664, 1699, 1698, 1488, 1489, 1524, 1523
1175, 1664, 1665, 1700, 1699, 1489, 1490, 1525, 1524
1176, 1665, 1666, 1701, 1700, 1490, 1491, 1526, 1525
1177, 1666, 1667, 1702, 1701, 1491, 1492, 1527, 1526
1178, 1667, 1668, 1703, 1702, 1492, 1493, 1528, 1527
1179, 1668, 1669, 1704, 1703, 1493, 1494, 1529, 1528
1180, 1669, 1670, 1705, 1704, 1494, 1495, 1530, 1529
1181, 1670, 1671, 1706, 1705, 1495, 1496, 1531, 1530
1182, 1671, 1672, 1707, 1706, 1496, 1497, 1532, 1531
1183, 1672, 1673, 1708, 1707, 1497, 1498, 1533, 1532
1184, 1673, 1674, 1709, 1708, 1498, 1499, 1534, 1533
1185, 1674, 1675, 1710, 1709, 1499, 1500, 1535, 1534
1186, 1675, 1676, 1711, 1710, 1500, 1501, 1536, 1535
1187, 1676, 1677, 1712, 1711, 1501, 1502, 1537, 1536
1188, 1677, 1678, 1713, 1712, 1502, 1503, 1538, 1537
1189, 1678, 1679, 1714, 1713, 1503, 1504, 1539, 1538
1190, 1679, 1680, 1715, 1714, 1504, 1505, 1540, 1539
1191, 1681, 1682, 1717, 1716, 1506, 1507, 1542, 1541
1192, 1682, 1683, 1718, 1717, 1507, 1508, 1543, 1542
1193, 1683, 1684, 1719, 1718, 1508, 1509, 1544, 1543
1194, 1684, 1685, 1720, 1719, 1509, 1510, 1545, 1544
1195, 1685, 1686, 1721, 1720, 1510, 1511, 1546, 1545
1196, 1686, 1687, 1722, 1721, 1511, 1512, 1547, 1546
1197, 1687, 1688, 1723, 1722, 1512, 1513, 1548, 1547
1198, 1688, 1689, 1724, 1723, 1513, 1514, 1549, 1548
1199, 1689, 1690, 1725, 1724, 1514, 1515, 1550, 1549
1200, 1690, 1691, 1726, 1725, 1515, 1516, 1551, 1550
1201, 1691, 1692, 1727, 1726, 1516, 1517, 1552, 1551
1202, 1692, 1693, 1728, 1727, 1517, 1518, 1553, 1552
1203, 1693, 1694, 1729, 1728, 1518, 1519, 1554, 1553
1204, 1694, 1695, 1730, 1729, 1519, 1520, 1555, 1554
1205, 1695, 1696, 1731, 1730, 1520, 1521, 1556, 1555
1206, 1696, 1697, 1732, 1731, 1521, 1522, 1557, 1556
1207, 1697, 1698, 1733, 1732, 1522, 1523, 1558, 1557
1208, 1698, 1699, 1734, 1733, 1523, 1524, 1559, 1558
1209, 1699, 1700, 1735, 1734, 1524, 1525, 1560, 1559
1210, 1700, 1701, 1736, 1735, 1525, 1526, 1561, 1560
1211, 1701, 1702, 1737, 1736, 1526, 1527, 1562, 1561
1212, 1702, 1703, 1738, 1737, 1527, 1528, 1563, 1562
1213, 1703, 1704, 1739, 1738, 1528, 1529, 1564, 1563
1214, 1704, 1705, 1740, 1739, 1529, 1530, 1565, 1564
1215, 1705, 1706, 1741, 1740, 1530, 1531, 1566, 1565
1216, 1706, 1707, 1742, 1741, 1531, 1532, 1567, 1566
1217, 1707, 1708, 1743, 1742, 1532, 1533, 1568, 1567
1218, 1708, 1709, 1744, 1743, 1533, 1534, 1569, 1568
1219, 1709, 1710, 1745, 1744, 1534, 1535, 1570, 1569
1220, 1710, 1711, 1746, 1745, 1535, 1536, 1571, 1570
1221, 1711, 1712, 1747, 1746, 1536, 1537, 1572, 1571
1222, 1712, 1713, 1748, 1747, 1537, 1538, 1573, 1572
1223, 1713, 1714, 1749, 1748, 1538, 1539, 1574, 1573
1224, 1714, 1715, 1750, 1749, 1539, 1540, 1575, 1574
1225, 1751, 1752, 1787, 1786, 1576, 1577, 1612, 1611
1226, 1752, 1753, 1788, 1787, 1577, 1578, 1613, 1612
1227, 1753, 1754, 1789, 1788, 1578, 1579, 1614, 1613
1228, 1754, 1755, 1790, 1789, 1579, 1580, 1615, 1614
1229, 1755, 1756, 1791, 1790, 1580, 1581, 1616, 1615
1230, 1756, 1757, 1792, 1791, 1581, 1582, 1617, 1616
1231, 1757, 1758, 1793, 1792, 1582, 1583, 1618, 1617
1232, 1758, 1759, 1794, 1793, 1583, 1584, 1619, 1618
1233, 1759, 1760, 1795, 1794, 1584, 1585, 1620, 1619
1234, 1760, 1761, 1796, 1795, 1585, 1586, 1621, 1620
1235, 1761, 1762, 1797, 1796, 1586, 1587, 1622, 1621
1236, 1762, 1763, 1798, 1797, 1587, 1588, 1623, 1622
1237, 1763, 1764, 1799, 1798, 1588, 1589, 1624, 1623
1238, 1764, 1765, 1800, 1799, 1589, 1590, 1625, 1624
1239, 1765, 1766, 1801, 1800, 1590, 1591, 1626, 1625
1240, 1766, 1767, 1802, 1801, 1591, 1592, 1627, 1626
1241, 1767, 1768, 1803, 1802, 1592, 1593, 1628, 1627
1242, 1768, 1769, 1804, 1803, 1593, 1594, 1629, 1628
1243, 1769, 1770, 1805, 1804, 1594, 1595, 1630, 1629
1244, 1770, 1771, 1806, 1805, 1595, 1596, 1631, 1630
1245, 1771, 1772, 1807, 1806, 1596, 1597, 1632, 1631
1246, 1772, 1773, 1808, 1807, 1597, 1598, 1633, 1632
1247, 1773, 1774, 1809, 1808, 1598, 1599, 1634, 1633
1248, 1774, 1775, 1810, 1809, 1599, 1600, 1635, 1634
1249, 1775, 1776, 1811, 1810, 1600, 1601, 1636, 1635
1250, 1776, 1777, 1812, 1811, 1601, 1602, 1637, 1636
1251, 1777, 1778, 1813, 1812, 1602, 1603, 1638, 1637
1252, 1778, 1779, 1814, 1813, 1603, 1604, 1639, 1638
1253, 1779, 1780, 1815, 1814, 1604, 1605, 1640, 1639
1254, 1780, 1781, 1816, 1815, 1605, 1606, 1641, 1640
1255, 1781, 1782, 1817, 1816, 1606, 1607, 1642, 1641
1256, 1782, 1783, 1818, 1817, 1607, 1608, 1643, 1642
1257, 1783, 1784, 1819, 1818, 1608, 1609, 1644, 1643
1258, 1784, 1785, 1820, 1819, 1609, 1610, 1645, 1644
1259, 1786, 1787, 1822, 1821, 1611, 1612, 1647, 1646
1260, 1787, 1788, 1823, 1822, 1612, 1613, 1648, 1647
1261, 1788, 1789, 1824, 1823, 1613, 1614, 1649, 1648
1262, 1789, 1790, 1825, 1824, 1614, 1615, 1650, 1649
1263, 1790, 1791, 1826, 1825, 1615, 1616, 1651, 1650
1264, 1791, 1792, 1827, 1826, 1616, 1617, 1652, 1651
1265, 1792, 1793, 1828, 1827, 1617, 1618, 1653, 1652
1266, 1793, 1794, 1829, 1828, 1618, 1619, 1654, 1653
1267, 1794, 1795, 1830, 1829, 1619, 1620, 1655, 1654
1268, 1795, 1796, 1831, 1830, 1620, 1621, 1656, 1655
1269, 1796, 1797, 1832, 1831, 1621, 1622, 1657, 1656
1270, 1797, 1798, 1833, 1832, 1622, 1623, 1658, 1657
1271, 1798, 1799, 1834, 1833, 1623, 1624, 1659, 1658
1272, 1799, 1800, 1835, 1834, 1624, 1625, 1660, 1659
1273, 1800, 1801, 1836, 1835, 1625, 1626, 1661, 1660
1274, 1801, 1802, 1837, 1836, 1626, 1627, 1662, 1661
1275, 1802, 1803, 1838, 1837, 1627, 1628, 1663, 1662
1276, 1803, 1804, 1839, 1838, 1628, 1629, 1664, 1663
1277, 1804, 1805, 1840, 1839, 1629, 1630, 1665, 1664
1278, 1805, 1806, 1841, 1840, 1630, 1631, 1666, 1665
1279, 1806, 1807, 1842, 1841, 1631, 1632, 1667, 1666
1280, 1807, 1808, 1843, 1842, 1632, 1633, 1668, 1667
1281, 1808, 1809, 1844, 1843, 1633, 1634, 1669, 1668
1282, 1809, 1810, 1845, 1844, 1634, 1635, 1670, 1669
1283, 1810, 1811, 1846, 1845, 1635, 1636, 1671, 1670
1284, 1811, 1812, 1847, 1846, 1636, 1637, 1672, 1671
1285, 1812, 1813, 1848, 1847, 1637, 1638, 1673, 1672
1286, 1813, 1814, 1849, 1848, 1638, 1639, 1674, 1673
1287, 1814, 1815, 1850, 1849, 1639, 1640, 1675, 1674
1288, 1815, 1816, 1851, 1850, 1640, 1641, 1676, 1675
1289, 1816, 1817, 1852, 1851, 1641, 1642, 1677, 1676
1290, 1817, 1818, 1853, 1852, 1642, 1643, 1678, 1677
1291, 1818, 1819, 1854, 1853, 1643, 1644, 1679, 1678
1292, 1819, 1820, 1855, 1854, 1644, 1645, 1680, 1679
1293, 1821, 1822, 1857, 1856, 1646, 1647, 1682, 1681
1294, 1822, 1823, 1858, 1857, 1647, 1648, 1683, 1682
1295, 1823, 1824, 1859, 1858, 1648, 1649, 1684, 1683
1296, 1824, 1825, 1860, 1859, 1649, 1650, 1685, 1684
1297, 1825, 1826, 1861, 1860, 1650, 1651, 1686, 1685
1298, 1826, 1827, 1862, 1861, 1651, 1652, 1687, 1686
1299, 1827, 1828, 1863, 1862, 1652, 1653, 1688, 1687
1300, 1828, 1829, 1864, 1863, 1653, 1654, 1689, 1688
1301, 1829, 1830, 1865, 1864, 1654, 1655, 1690, 1689
1302, 1830, 1831, 1866, 1865, 1655, 1656, 1691, 1690
1303, 1831, 1832, 1867, 1866, 1656, 1657, 1692, 1691
1304, 1832, 1833, 1868, 1867, 1657, 1658, 1693, 1692
1305, 1833, 1834, 1869, 1868, 1658, 1659, 1694, 1693
1306, 1834, 1835, 1870, 1869, 1659, 1660, 1695, 1694
1307, 1835, 1836, 1871, 1870, 1660, 1661, 1696, 1695
1308, 1836, 1837, 1872, 1871, 1661, 1662, 1697, 1696
1309, 1837, 1838, 1873, 1872, 1662, 1663, 1698, 1697
1310, 1838, 1839, 1874, 1873, 1663, 1664, 1699, 1698
1311, 1839, 1840, 1875, 1874, 1664, 1665, 1700, 1699
1312, 1840, 1841, 1876, 1875, 1665, 1666, 1701, 1700
1313, 1841, 1842, 1877, 1876, 1666, 1667, 1702, 1701
1314, 1842, 1843, 1878, 1877, 1667, 1668, 1703, 1702
1315, 1843, 1844, 1879, 1878, 1668, 1669, 1704, 1703
1316, 1844, 1845, 1880, 1879, 1669, 1670, 1705, 1704
1317, 1845, 1846, 1881, 1880, 1670, 1671, 1706, 1705
1318, 1846, 1847, 1882, 1881, 1671, 1672, 1707, 1706
1319, 1847, 1848, 1883, 1882, 1672, 1673, 1708, 1707
1320, 1848, 1849, 1884, 1883, 1673, 1674, 1709, 1708
1321, 1849, 1850, 1885, 1884, 1674, 1675, 1710, 1709
1322, 1850, 1851, 1886, 1885, 1675, 1676, 1711, 1710
1323, 1851, 1852, 1887, 1886, 1676, 1677, 1712, 1711
1324, 1852, 1853, 1888, 1887, 1677, 1678, 1713, 1712
1325, 1853, 1854, 1889, 1888, 1678, 1679, 1714, 1713
1326, 1854, 1855, 1890, 1889, 1679, 1680, 1715, 1714
1327, 1856, 1857, 1892, 1891, 1681, 1682, 1717, 1716
1328, 1857, 1858, 1893, 1892, 1682, 1683, 1718, 1717
1329, 1858, 1859, 1894, 1893, 1683, 1684, 1719, 1718
1330, 1859, 1860, 1895, 1894, 1684, 1685, 1720, 1719
1331, 1860, 1861, 1896, 1895, 1685, 1686, 1721, 1720
1332, 1861, 1862, 1897, 1896, 1686, 1687, 1722, 1721
1333, 1862, 1863, 1898, 1897, 1687, 1688, 1723, 1722
1334, 1863, 1864, 1899, 1898, 1688, 1689, 1724, 1723
1335, 1864, 1865, 1900, 1899, 1689, 1690, 1725, 1724
1336, 1865, 1866, 1901, 1900, 1690, 1691, 1726, 1725
1337, 1866, 1867, 1902, 1901, 1691, 1692, 1727, 1726
1338, 1867, 1868, 1903, 1902, 1692, 1693, 1728, 1727
1339, 1868, 1869, 1904, 1903, 1693, 1694, 1729, 1728
1340, 1869, 1870, 1905, 1904, 1694, 1695, 1730, 1729
1341, 1870, 1871, 1906, 1905, 1695, 1696, 1731, 1730
1342, 1871, 1872, 1907, 1906, 1696, 1697, 1732, 1731
1343, 1872, 1873, 1908, 1907, 1697, 1698, 1733, 1732
1344, 1873, 1874, 1909, 1908, 1698, 1699, 1734, 1733
1345, 1874, 1875, 1910, 1909, 1699, 1700, 1735, 1734
1346, 1875, 1876, 1911, 1910, 1700, 1701, 1736, 1735
1347, 1876, 1877, 1912, 1911, 1701, 1702, 1737, 1736
1348, 1877, 1878, 1913, 1912, 1702, 1703, 1738, 1737
1349, 1878, 1879, 1914, 1913, 1703, 1704, 1739, 1738
1350, 1879, 1880, 1915, 1914, 1704, 1705, 1740, 1739
1351, 1880, 1881, 1916, 1915, 1705, 1706, 1741, 1740
1352, 1881, 1882, 1917, 1916, 1706, 1707, 1742, 1741
1353, 1882, 1883, 1918, 1917, 1707, 1708, 1743, 1742
1354, 1883, 1884, 1919, 1918, 1708, 1709, 1744, 1743
1355, 1884, 1885, 1920, 1919, 1709, 1710, 1745, 1744
1356, 1885, 1886, 1921, 1920, 1710, 1711, 1746, 1745
1357, 1886, 1887, 1922, 1921, 1711, 1712, 1747, 1746
1358, 1887, 1888, 1923, 1922, 1712, 1713, 1748, 1747
1359, 1888, 1889, 1924, 1923, 1713, 1714, 1749, 1748
1360, 1889, 1890, 1925, 1924, 1714, 1715, 1750, 1749
1361, 1926, 1927, 1962, 1961, 1751, 1752, 1787, 1786
1362, 1927, 1928, 1963, 1962, 1752, 1753, 1788, 1787
1363, 1928, 1929, 1964, 1963, 1753, 1754, 1789, 1788
1364, 1929, 1930, 1965, 1964, 1754, 1755, 1790, 1789
1365, 1930, 1931, 1966, 1965, 1755, 1756, 1791, 1790
1366, 1931, 1932, 1967, 1966, 1756, 1757, 1792, 1791
1367, 1932, 1933, 1968, 1967, 1757, 1758, 1793, 1792
1368, 1933, 1934, 1969, 1968, 1758, 1759, 1794, 1793
1369, 1934, 1935, 1970, 1969, 1759, 1760, 1795, 1794
1370, 1935, 1936, 1971, 1970, 1760, 1761, 1796, 1795
1371, 1936, 1937, 1972, 1971, 1761, 1762, 1797, 1796
1372, 1937, 1938, 1973, 1972, 1762, 1763, 1798, 1797
1373, 1938, 1939, 1974, 1973, 1763, 1764, 1799, 1798
1374, 1939, 1940, 1975, 1974, 1764, 1765, 1800, 1799
1375, 1940, 1941, 1976, 1975, 1765, 1766, 1801, 1800
1376, 1941, 1942, 1977, 1976, 1766, 1767, 1802, 1801
1377, 1942, 1943, 1978, 1977, 1767, 1768, 1803, 1802
1378, 1943, 1944, 1979, 1978, 1768, 1769, 1804, 1803
1379, 1944, 1945, 1980, 1979, 1769, 1770, 1805, 1804
1380, 1945, 1946, 1981, 1980, 1770, 1771, 1806, 1805
1381, 1946, 1947, 1982, 1981, 1771, 1772, 1807, 1806
1382, 1947, 1948, 1983, 1982, 1772, 1773, 1808, 1807
1383, 1948, 1949, 1984, 1983, 1773, 1774, 1809, 1808
1384, 1949, 1950, 1985, 1984, 1774, 1775, 1810, 1809
1385, 1950, 1951, 1986, 1985, 1775, 1776, 1811, 1810
1386, 1951, 1952, 1987, 1986, 1776, 1777, 1812, 1811
1387, 1952, 1953, 1988, 1987, 1777, 1778, 1813, 1812
1388, 1953, 1954, 1989, 1988, 1778, 1779, 1814, 1813
1389, 1954, 1955, 1990, 1989, 1779, 1780, 1815, 1814
1390, 1955, 1956, 1991, 1990, 1780, 1781, 1816, 1815
1391, 1956, 1957, 1992, 1991, 1781, 1782, 1817, 1816
1392, 1957, 1958, 1993, 1992, 1782, 1783, 1818, 1817
1393, 1958, 1959, 1994, 1993, 1783, 1784, 1819, 1818
1394, 1959, 1960, 1995, 1994, 1784, 1785, 1820, 1819
1395, 1961, 1962, 1997, 1996, 1786, 1787, 1822, 1821
1396, 1962, 1963, 1998, 1997, 1787, 1788, 1823, 1822
1397, 1963, 1964, 1999, 1998, 1788, 1789, 1824, 1823
1398, 1964, 1965, 2000, 1999, 1789, 1790, 1825, 1824
1399, 1965, 1966, 2001, 2000, 1790, 1791, 1826, 1825
1400, 1966, 1967, 2002, 2001, 1791, 1792, 1827, 1826
1401, 1967, 1968, 2003, 2002, 1792, 1793, 1828, 1827
1402, 1968, 1969, 2004, 2003, 1793, 1794, 1829, 1828
1403, 1969, 1970, 2005, 2004, 1794, 1795, 1830, 1829
1404, 1970, 1971, 2006, 2005, 1795, 1796, 1831, 1830
1405, 1971, 1972, 2007, 2006, 1796, 1797, 1832, 1831
1406, 1972, 1973, 2008, 2007, 1797, 1798, 1833, 1832
1407, 1973, 1974, 2009, 2008, 1798, 1799, 1834, 1833
1408, 1974, 1975, 2010, 2009, 1799, 1800, 1835, 1834
1409, 1975, 1976, 2011, 2010, 1800, 1801, 1836, 1835
1410, 1976, 1977, 2012, 2011, 1801, 1802, 1837, 1836
1411, 1977, 1978, 2013, 2012, 1802, 1803, 1838, 1837
1412, 1978, 1979, 2014, 2013, 1803, 1804, 1839, 1838
1413, 1979, 1980, 2015, 2014, 1804, 1805, 1840, 1839
1414, 1980, 1981, 2016, 2015, 1805, 1806, 1841, 1840
1415, 1981, 1982, 2017, 2016, 1806, 1807, 1842, 1841
1416, 1982, 1983, 2018, 2017, 1807, 1808, 1843, 1842
1417, 1983, 1984, 2019, 2018, 1808, 1809, 1844, 1843
1418, 1984, 1985, 2020, 2019, 1809, 1810, 1845, 1844
1419, 1985, 1986, 2021, 2020, 1810, 1811, 1846, 1845
1420, 1986, 1987, 2022, 2021, 1811, 1812, 1847, 1846
1421, 1987, 1988, 2023, 2022, 1812, 1813, 1848, 1847
1422, 1988, 1989, 2024, 2023, 1813, 1814, 1849, 1848
1423, 1989, 1990, 2025, 2024, 1814, 1815, 1850, 1849
1424, 1990, 1991, 2026, 2025, 1815, 1816, 1851, 1850
1425, 1991, 1992, 2027, 2026, 1816, 1817, 1852, 1851
1426, 1992, 1993, 2028, 2027, 1817, 1818, 1853, 1852
1427, 1993, 1994, 2029, 2028, 1818, 1819, 1854, 1853
1428, 1994, 1995, 2030, 2029, 1819, 1820, 1855, 1854
1429, 1996, 1997, 2032, 2031, 1821, 1822, 1857, 1856
1430, 1997, 1998, 2033, 2032, 1822, 1823, 1858, 1857
1431, 1998, 1999, 2034, 2033, 1823, 1824, 1859, 1858
1432, 1999, 2000, 2035, 2034, 1824, 1825, 1860, 1859
1433, 2000, 2001, 2036, 2035, 1825, 1826, 1861, 1860
1434, 2001, 2002, 2037, 2036, 1826, 1827, 1862, 1861
1435, 2002, 2003, 2038, 2037, 1827, 1828, 1863, 1862
1436, 2003, 2004, 2039, 2038, 1828, 1829, 1864, 1863
1437, 2004, 2005, 2040, 2039, 1829, 1830, 1865, 1864
1438, 2005, 2006, 2041, 2040, 1830, 1831, 1866, 1865
1439, 2006, 2007, 2042, 2041, 1831, 1832, 1867, 1866
1440, 2007, 2008, 2043, 2042, 1832, 1833, 1868, 1867
1441, 2008, 2009, 2044, 2043, 1833, 1834, 1869, 1868
1442, 2009, 2010, 2045, 2044, 1834, 1835, 1870, 1869
1443, 2010, 2011, 2046, 2045, 1835, 1836, 1871, 1870
1444, 2011, 2012, 2047, 2046, 1836, 1837, 1872, 1871
1445, 2012, 2013, 2048, 2047, 1837, 1838, 1873, 1872
1446, 2013, 2014, 2049, 2048, 1838, 1839, 1874, 1873
1447, 2014, 2015, 2050, 2049, 1839, 1840, 1875, 1874
1448, 2015, 2016, 2051, 2050, 1840, 1841, 1876, 1875
1449, 2016, 2017, 2052, 2051, 1841, 1842, 1877, 1876
1450, 2017, 2018, 2053, 2052, 1842, 1843, 1878, 1877
1451, 2018, 2019, 2054, 2053, 1843, 1844, 1879, 1878
1452, 2019, 2020, 2055, 2054, 1844, 1845, 1880, 1879
1453, 2020, 2021, 2056, 2055, 1845, 1846, 1881, 1880
1454, 2021, 2022, 2057, 2056, 1846, 1847, 1882, 1881
1455, 2022, 2023, 2058, 2057, 1847, 1848, 1883, 1882
1456, 2023, 2024, 2059, 2058, 1848, 1849, 1884, 1883
1457, 2024, 2025, 2060, 2059, 1849, 1850, 1885, 1884
1458, 2025, 2026, 2061, 2060, 1850, 1851, 1886, 1885
1459, 2026, 2027, 2062, 2061, 1851, 1852, 1887, 1886
1460, 2027, 2028, 2063, 2062, 1852, 1853, 1888, 1887
1461, 2028, 2029, 2064, 2063, 1853, 1854, 1889, 1888
1462, 2029, 2030, 2065, 2064, 1854, 1855, 1890, 1889
1463, 2031, 2032, 2067, 2066, 1856, 1857, 1892, 1891
1464, 2032, 2033, 2068, 2067, 1857, 1858, 1893, 1892
1465, 2033, 2034, 2069, 2068, 1858, 1859, 1894, 1893
1466, 2034, 2035, 2070, 2069, 1859, 1860, 1895, 1894
1467, 2035, 2036, 2071, 2070, 1860, 1861, 1896, 1895
1468, 2036, 2037, 2072, 2071, 1861, 1862, 1897, 1896
1469, 2037, 2038, 2073, 2072, 1862, 1863, 1898, 1897
1470, 2038, 2039, 2074, 2073, 1863, 1864, 1899, 1898
1471, 2039, 2040, 2075, 2074, 1864, 1865, 1900, 1899
1472, 2040, 2041, 2076, 2075, 1865, 1866, 1901, 1900
1473, 2041, 2042, 2077, 2076, 1866, 1867, 1902, 1901
1474, 2042, 2043, 2078, 2077, 1867, 1868, 1903, 1902
1475, 2043, 2044, 2079, 2078, 1868, 1869, 1904, 1903
1476, 2044, 2045, 2080, 2079, 1869, 1870, 1905, 1904
1477, 2045, 2046, 2081, 2080, 1870, 1871, 1906, 1905
1478, 2046, 2047, 2082, 2081, 1871, 1872, 1907, 1906
1479, 2047, 2048, 2083, 2082, 1872, 1873, 1908, 1907
1480, 2048, 2049, 2084, 2083, 1873, 1874, 1909, 1908
1481, 2049, 2050, 2085, 2084, 1874, 1875, 1910, 1909
1482, 2050, 2051, 2086, 2085, 1875, 1876, 1911, 1910
1483, 2051, 2052, 2087, 2086, 1876, 1877, 1912, 1911
1484, 2052, 2053, 2088, 2087, 1877, 1878, 1913, 1912
1485, 2053, 2054, 2089, 2088, 1878, 1879, 1914, 1913
1486, 2054, 2055, 2090, 2089, 1879, 1880, 1915, 1914
1487, 2055, 2056, 2091, 2090, 1880, 1881, 1916, 1915
1488, 2056, 2057, 2092, 2091, 1881, 1882, 1917, 1916
1489, 2057, 2058, 2093, 2092, 1882, 1883, 1918, 1917
1490, 2058, 2059, 2094, 2093, 1883, 1884, 1919, 1918
1491, 2059, 2060, 2095, 2094, 1884, 1885, 1920, 1919
1492, 2060, 2061, 2096, 2095, 1885, 1886, 1921, 1920
1493, 2061, 2062, 2097, 2096, 1886, 1887, 1922, 1921
1494, 2062, 2063, 2098, 2097, 1887, 1888, 1923, 1922
1495, 2063, 2064, 2099, 2098, 1888, 1889, 1924, 1923
1496, 2064, 2065, 2100, 2099, 1889, 1890, 1925, 1924
1497, 2101, 2102, 2137, 2136, 1926, 1927, 1962, 1961
1498, 2102, 2103, 2138, 2137, 1927, 1928, 1963, 1962
1499, 2103, 2104, 2139, 2138, 1928, 1929, 1964, 1963
1500, 2104, 2105, 2140, 2139, 1929, 1930, 1965, 1964
1501, 2105, 2106, 2141, 2140, 1930, 1931, 1966, 1965
1502, 2106, 2107, 2142, 2141, 1931, 1932, 1967, 1966
1503, 2107, 2108, 2143, 2142, 1932, 1933, 1968, 1967
1504, 2108, 2109, 2144, 2143, 1933, 1934, 1969, 1968
1505, 2109, 2110, 2145, 2144, 1934, 1935, 1970, 1969
1506, 2110, 2111, 2146, 2145, 1935, 1936, 1971, 1970
1507, 2111, 2112, 2147, 2146, 1936, 1937, 1972, 1971
1508, 2112, 2113, 2148, 2147, 1937, 1938, 1973, 1972
1509, 2113, 2114, 2149, 2148, 1938, 1939, 1974, 1973
1510, 2114, 2115, 2150, 2149, 1939, 1940, 1975, 1974
1511, 2115, 2116, 2151, 2150, 1940, 1941, 1976, 1975
1512, 2116, 2117, 2152, 2151, 1941, 1942, 1977, 1976
1513, 2117, 2118, 2153, 2152, 1942, 1943, 1978, 1977
1514, 2118, 2119, 2154, 2153, 1943, 1944, 1979, 1978
1515, 2119, 2120, 2155, 2154, 1944, 1945, 1980, 1979
1516, 2120, 2121, 2156, 2155, 1945, 1946, 1981, 1980
1517, 2121, 2122, 2157, 2156, 1946, 1947, 1982, 1981
1518, 2122, 2123, 2158, 2157, 1947, 1948, 1983, 1982
1519, 2123, 2124, 2159, 2158, 1948, 1949, 1984, 1983
1520, 2124, 2125, 2160, 2159, 1949, 1950, 1985, 1984
1521, 2125, 2126, 2161, 2160, 1950, 1951, 1986, 1985
1522, 2126, 2127, 2162, 2161, 1951, 1952, 1987, 1986
1523, 2127, 2128, 2163, 2162, 1952, 1953, 1988, 1987
1524, 2128, 2129, 2164, 2163, 1953, 1954, 1989, 1988
1525, 2129, 2130, 2165, 2164, 1954, 1955, 1990, 1989
1526, 2130, 2131, 2166, 2165, 1955, 1956, 1991, 1990
1527, 2131, 2132, 2167, 2166, 1956, 1957, 1992, 1991
1528, 2132, 2133, 2168, 2167, 1957, 1958, 1993, 1992
1529, 2133, 2134, 2169, 2168, 1958, 1959, 1994, 1993
1530, 2134, 2135, 2170, 2169, 1959, 1960, 1995, 1994
1531, 2136, 2137, 2172, 2171, 1961, 1962, 1997, 1996
1532, 2137, 2138, 2173, 2172, 1962, 1963, 1998, 1997
1533, 2138, 2139, 2174, 2173, 1963, 1964, 1999, 1998
1534, 2139, 2140, 2175, 2174, 1964, 1965, 2000, 1999
1535, 2140, 2141, 2176, 2175, 1965, 1966, 2001, 2000
1536, 2141, 2142, 2177, 2176, 1966, 1967, 2002, 2001
1537, 2142, 2143, 2178, 2177, 1967, 1968, 2003, 2002
1538, 2143, 2144, 2179, 2178, 1968, 1969, 2004, 2003
1539, 2144, 2145, 2180, 2179, 1969, 1970, 2005, 2004
1540, 2145, 2146, 2181, 2180, 1970, 1971, 2006, 2005
1541, 2146, 2147, 2182, 2181, 1971, 1972, 2007, 2006
1542, 2147, 2148, 2183, 2182, 1972, 1973, 2008, 2007
1543, 2148, 2149, 2184, 2183, 1973, 1974, 2009, 2008
1544, 2149, 2150, 2185, 2184, 1974, 1975, 2010, 2009
1545, 2150, 2151, 2186, 2185, 1975, 1976, 2011, 2010
1546, 2151, 2152, 2187, 2186, 1976, 1977, 2012, 2011
1547, 2152, 2153, 2188, 2187, 1977, 1978, 2013, 2012
1548, 2153, 2154, 2189, 2188, 1978, 1979, 2014, 2013
1549, 2154, 2155, 2190, 2189, 1979, 1980, 2015, 2014
1550, 2155, 2156, 2191, 2190, 1980, 1981, 2016, 2015
1551, 2156, 2157, 2192, 2191, 1981, 1982, 2017, 2016
1552, 2157, 2158, 2193, 2192, 1982, 1983, 2018, 2017
1553, 2158, 2159, 2194, 2193, 1983, 1984, 2019, 2018
1554, 2159, 2160, 2195, 2194, 1984, 1985, 2020, 2019
1555, 2160, 2161, 2196, 2195, 1985, 1986, 2021, 2020
1556, 2161, 2162, 2197, 2196, 1986, 1987, 2022, 2021
1557, 2162, 2163, 2198, 2197, 1987, 1988, 2023, 2022
1558, 2163, 2164, 2199, 2198, 1988, 1989, 2024, 2023
1559, 2164, 2165, 2200, 2199, 1989, 1990, 2025, 2024
1560, 2165, 2166, 2201, 2200, 1990, 1991, 2026, 2025
1561, 2166, 2167, 2202, 2201, 1991, 1992, 2027, 2026
1562, 2167, 2168, 2203, 2202, 1992, 1993, 2028, 2027
1563, 2168, 2169, 2204, 2203, 1993, 1994, 2029, 2028
1564, 2169, 2170, 2205, 2204, 1994, 1995, 2030, 2029
1565, 2171, 2172, 2207, 2206, 1996, 1997, 2032, 2031
1566, 2172, 2173, 2208, 2207, 1997, 1998, 2033, 2032
1567, 2173, 2174, 2209, 2208, 1998, 1999, 2034, 2033
1568, 2174, 2175, 2210, 2209, 1999, 2000, 2035, 2034
1569, 2175, 2176, 2211, 2210, 2000, 2001, 2036, 2035
1570, 2176, 2177, 2212, 2211, 2001, 2002, 2037, 2036
1571, 2177, 2178, 2213, 2212, 2002, 2003, 2038, 2037
1572, 2178, 2179, 2214, 2213, 2003, 2004, 2039, 2038
1573, 2179, 2180, 2215, 2214, 2004, 2005, 2040, 2039
1574, 2180, 2181, 2216, 2215, 2005, 2006, 2041, 2040
1575, 2181, 2182, 2217, 2216, 2006, 2007, 2042, 2041
1576, 2182, 2183, 2218, 2217, 2007, 2008, 2043, 2042
1577, 2183, 2184, 2219, 2218, 2008, 2009, 2044, 2043
1578, 2184, 2185, 2220, 2219, 2009, 2010, 2045, 2044
1579, 2185, 2186, 2221, 2220, 2010, 2011, 2046, 2045
1580, 2186, 2187, 2222, 2221, 2011, 2012, 2047, 2046
1581, 2187, 2188, 2223, 2222, 2012, 2013, 2048, 2047
1582, 2188, 2189, 2224, 2223, 2013, 2014, 2049, 2048
1583, 2189, 2190, 2225, 2224, 2014, 2015, 2050, 2049
1584, 2190, 2191, 2226, 2225, 2015, 2016, 2051, 2050
1585, 2191, 2192, 2227, 2226, 2016, 2017, 2052, 2051
1586, 2192, 2193, 2228, 2227, 2017, 2018, 2053, 2052
1587, 2193, 2194, 2229, 2228, 2018, 2019, 2054, 2053
1588, 2194, 2195, 2230, 2229, 2019, 2020, 2055, 2054
1589, 2195, 2196, 2231, 2230, 2020, 2021, 2056, 2055
1590, 2196, 2197, 2232, 2231, 2021, 2022, 2057, 2056
1591, 2197, 2198, 2233, 2232, 2022, 2023, 2058, 2057
1592, 2198, 2199, 2234, 2233, 2023, 2024, 2059, 2058
1593, 2199, 2200, 2235, 2234, 2024, 2025, 2060, 2059
1594, 2200, 2201, 2236, 2235, 2025, 2026, 2061, 2060
1595, 2201, 2202, 2237, 2236, 2026, 2027, 2062, 2061
1596, 2202, 2203, 2238, 2237, 2027, 2028, 2063, 2062
1597, 2203, 2204, 2239, 2238, 2028, 2029, 2064, 2063
1598, 2204, 2205, 2240, 2239, 2029, 2030, 2065, 2064
1599, 2206, 2207, 2242, 2241, 2031, 2032, 2067, 2066
1600, 2207, 2208, 2243, 2242, 2032, 2033, 2068, 2067
1601, 2208, 2209, 2244, 2243, 2033, 2034, 2069, 2068
1602, 2209, 2210, 2245, 2244, 2034, 2035, 2070, 2069
1603, 2210, 2211, 2246, 2245, 2035, 2036, 2071, 2070
1604, 2211, 2212, 2247, 2246, 2036, 2037, 2072, 2071
1605, 2212, 2213, 2248, 2247, 2037, 2038, 2073, 2072
1606, 2213, 2214, 2249, 2248, 2038, 2039, 2074, 2073
1607, 2214, 2215, 2250, 2249, 2039, 2040, 2075, 2074
1608, 2215, 2216, 2251, 2250, 2040, 2041, 2076, 2075
1609, 2216, 2217, 2252, 2251, 2041, 2042, 2077, 2076
1610, 2217, 2218, 2253, 2252, 2042, 2043, 2078, 2077
1611, 2218, 2219, 2254, 2253, 2043, 2044, 2079, 2078
1612, 2219, 2220, 2255, 2254, 2044, 2045, 2080, 2079
1613, 2220, 2221, 2256, 2255, 2045, 2046, 2081, 2080
1614, 2221, 2222, 2257, 2256, 2046, 2047, 2082, 2081
1615, 2222, 2223, 2258, 2257, 2047, 2048, 2083, 2082
1616, 2223, 2224, 2259, 2258, 2048, 2049, 2084, 2083
1617, 2224, 2225, 2260, 2259, 2049, 2050, 2085, 2084
1618, 2225, 2226, 2261, 2260, 2050, 2051, 2086, 2085
1619, 2226, 2227, 2262, 2261, 2051, 2052, 2087, 2086
1620, 2227, 2228, 2263, 2262, 2052, 2053, 2088, 2087
1621, 2228, 2229, 2264, 2263, 2053, 2054, 2089, 2088
1622, 2229, 2230, 2265, 2264, 2054, 2055, 2090, 2089
1623, 2230, 2231, 2266, 2265, 2055, 2056, 2091, 2090
1624, 2231, 2232, 2267, 2266, 2056, 2057, 2092, 2091
1625, 2232, 2233, 2268, 2267, 2057, 2058, 2093, 2092
1626, 2233, 2234, 2269, 2268, 2058, 2059, 2094, 2093
1627, 2234, 2235, 2270, 2269, 2059, 2060, 2095, 2094
1628, 2235, 2236, 2271, 2270, 2060, 2061, 2096, 2095
1629, 2236, 2237, 2272, 2271, 2061, 2062, 2097, 2096
1630, 2237, 2238, 2273, 2272, 2062, 2063, 2098, 2097
1631, 2238, 2239, 2274, 2273, 2063, 2064, 2099, 2098
1632, 2239, 2240, 2275, 2274, 2064, 2065, 2100, 2099
1633, 2276, 2277, 2312, 2311, 2101, 2102, 2137, 2136
1634, 2277, 2278, 2313, 2312, 2102, 2103, 2138, 2137
1635, 2278, 2279, 2314, 2313, 2103, 2104, 2139, 2138
1636, 2279, 2280, 2315, 2314, 2104, 2105, 2140, 2139
1637, 2280, 2281, 2316, 2315, 2105, 2106, 2141, 2140
1638, 2281, 2282, 2317, 2316, 2106, 2107, 2142, 2141
1639, 2282, 2283, 2318, 2317, 2107, 2108, 2143, 2142
1640, 2283, 2284, 2319, 2318, 2108, 2109, 2144, 2143
1641, 2284, 2285, 2320, 2319, 2109, 2110, 2145, 2144
1642, 2285, 2286, 2321, 2320, 2110, 2111, 2146, 2145
1643, 2286, 2287, 2322, 2321, 2111, 2112, 2147, 2146
1644, 2287, 2288, 2323, 2322, 2112, 2113, 2148, 2147
1645, 2288, 2289, 2324, 2323, 2113, 2114, 2149, 2148
1646, 2289, 2290, 2325, 2324, 2114, 2115, 2150, 2149
1647, 2290, 2291, 2326, 2325, 2115, 2116, 2151, 2150
1648, 2291, 2292, 2327, 2326, 2116, 2117, 2152, 2151
1649, 2292, 2293, 2328, 2327, 2117, 2118, 2153, 2152
1650, 2293, 2294, 2329, 2328, 2118, 2119, 2154, 2153
1651, 2294, 2295, 2330, 2329, 2119, 2120, 2155, 2154
1652, 2295, 2296, 2331, 2330, 2120, 2121, 2156, 2155
1653, 2296, 2297, 2332, 2331, 2121, 2122, 2157, 2156
1654, 2297, 2298, 2333, 2332, 2122, 2123, 2158, 2157
1655, 2298, 2299, 2334, 2333, 2123, 2124, 2159, 2158
1656, 2299, 2300, 2335, 2334, 2124, 2125, 2160, 2159
1657, 2300, 2301, 2336, 2335, 2125, 2126, 2161, 2160
1658, 2301, 2302, 2337, 2336, 2126, 2127, 2162, 2161
1659, 2302, 2303, 2338, 2337, 2127, 2128, 2163, 2162
1660, 2303, 2304, 2339, 2338, 2128, 2129, 2164, 2163
1661, 2304, 2305, 2340, 2339, 2129, 2130, 2165, 2164
1662, 2305, 2306, 2341, 2340, 2130, 2131, 2166, 2165
1663, 2306, 2307, 2342, 2341, 2131, 2132, 2167, 2166
1664, 2307, 2308, 2343, 2342, 2132, 2133, 2168, 2167
1665, 2308, 2309, 2344, 2343, 2133, 2134, 2169, 2168
1666, 2309, 2310, 2345, 2344, 2134, 2135, 2170, 2169
1667, 2311, 2312, 2347, 2346, 2136, 2137, 2172, 2171
1668, 2312, 2313, 2348, 2347, 2137, 2138, 2173, 2172
1669, 2313, 2314, 2349, 2348, 2138, 2139, 2174, 2173
1670, 2314, 2315, 2350, 2349, 2139, 2140, 2175, 2174
1671, 2315, 2316, 2351, 2350, 2140, 2141, 2176, 2175
1672, 2316, 2317, 2352, 2351, 2141, 2142, 2177, 2176
1673, 2317, 2318, 2353, 2352, 2142, 2143, 2178, 2177
1674, 2318, 2319, 2354, 2353, 2143, 2144, 2179, 2178
1675, 2319, 2320, 2355, 2354, 2144, 2145, 2180, 2179
1676, 2320, 2321, 2356, 2355, 2145, 2146, 2181, 2180
1677, 2321, 2322, 2357, 2356, 2146, 2147, 2182, 2181
1678, 2322, 2323, 2358, 2357, 2147, 2148, 2183, 2182
1679, 2323, 2324, 2359, 2358, 2148, 2149, 2184, 2183
1680, 2324, 2325, 2360, 2359, 2149, 2150, 2185, 2184
1681, 2325, 2326, 2361, 2360, 2150, 2151, 2186, 2185
1682, 2326, 2327, 2362, 2361, 2151, 2152, 2187, 2186
1683, 2327, 2328, 2363, 2362, 2152, 2153, 2188, 2187
1684, 2328, 2329, 2364, 2363, 2153, 2154, 2189, 2188
1685, 2329, 2330, 2365, 2364, 2154, 2155, 2190, 2189
1686, 2330, 2331, 2366, 2365, 2155, 2156, 2191, 2190
1687, 2331, 2332, 2367, 2366, 2156, 2157, 2192, 2191
1688, 2332, 2333, 2368, 2367, 2157, 2158, 2193, 2192
1689, 2333, 2334, 2369, 2368, 2158, 2159, 2194, 2193
1690, 2334, 2335, 2370, 2369, 2159, 2160, 2195, 2194
1691, 2335, 2336, 2371, 2370, 2160, 2161, 2196, 2195
1692, 2336, 2337, 2372, 2371, 2161, 2162, 2197, 2196
1693, 2337, 2338, 2373, 2372, 2162, 2163, 2198, 2197
1694, 2338, 2339, 2374, 2373, 2163, 2164, 2199, 2198
1695, 2339, 2340, 2375, 2374, 2164, 2165, 2200, 2199
1696, 2340, 2341, 2376, 2375, 2165, 2166, 2201, 2200
1697, 2341, 2342, 2377, 2376, 2166, 2167, 2202, 2201
1698, 2342, 2343, 2378, 2377, 2167, 2168, 2203, 2202
1699, 2343, 2344, 2379, 2378, 2168, 2169, 2204, 2203
1700, 2344, 2345, 2380, 2379, 2169, 2170, 2205, 2204
1701, 2346, 2347, 2382, 2381, 2171, 2172, 2207, 2206
1702, 2347, 2348, 2383, 2382, 2172, 2173, 2208, 2207
1703, 2348, 2349, 2384, 2383, 2173, 2174, 2209, 2208
1704, 2349, 2350, 2385, 2384, 2174, 2175, 2210, 2209
1705, 2350, 2351, 2386, 2385, 2175, 2176, 2211, 2210
1706, 2351, 2352, 2387, 2386, 2176, 2177, 2212, 2211
1707, 2352, 2353, 2388, 2387, 2177, 2178, 2213, 2212
1708, 2353, 2354, 2389, 2388, 2178, 2179, 2214, 2213
1709, 2354, 2355, 2390, 2389, 2179, 2180, 2215, 2214
1710, 2355, 2356, 2391, 2390, 2180, 2181, 2216, 2215
1711, 2356, 2357, 2392, 2391, 2181, 2182, 2217, 2216
1712, 2357, 2358, 2393, 2392, 2182, 2183, 2218, 2217
1713, 2358, 2359, 2394, 2393, 2183, 2184, 2219, 2218
1714, 2359, 2360, 2395, 2394, 2184, 2185, 2220, 2219
1715, 2360, 2361, 2396, 2395, 2185, 2186, 2221, 2220
1716, 2361, 2362, 2397, 2396, 2186, 2187, 2222, 2221
1717, 2362, 2363, 2398, 2397, 2187, 2188, 2223, 2222
1718, 2363, 2364, 2399, 2398, 2188, 2189, 2224, 2223
1719, 2364, 2365, 2400, 2399, 2189, 2190, 2225, 2224
1720, 2365, 2366, 2401, 2400, 2190, 2191, 2226, 2225
1721, 2366, 2367, 2402, 2401, 2191, 2192, 2227, 2226
1722, 2367, 2368, 2403, 2402, 2192, 2193, 2228, 2227
1723, 2368, 2369, 2404, 2403, 2193, 2194, 2229, 2228
1724, 2369, 2370, 2405, 2404, 2194, 2195, 2230, 2229
1725, 2370, 2371, 2406, 2405, 2195, 2196, 2231, 2230
1726, 2371, 2372, 2407, 2406, 2196, 2197, 2232, 2231
1727, 2372, 2373, 2408, 2407, 2197, 2198, 2233, 2232
1728, 2373, 2374, 2409, 2408, 2198, 2199, 2234, 2233
1729, 2374, 2375, 2410, 2409, 2199, 2200, 2235, 2234
1730, 2375, 2376, 2411, 2410, 2200, 2201, 2236, 2235
1731, 2376, 2377, 2412, 2411, 2201, 2202, 2237, 2236
1732, 2377, 2378, 2413, 2412, 2202, 2203, 2238, 2237
1733, 2378, 2379, 2414, 2413, 2203, 2204, 2239, 2238
1734, 2379, 2380, 2415, 2414, 2204, 2205, 2240, 2239
1735, 2381, 2382, 2417, 2416, 2206, 2207, 2242, 2241
1736, 2382, 2383, 2418, 2417, 2207, 2208, 2243, 2242
1737, 2383, 2384, 2419, 2418, 2208, 2209, 2244, 2243
1738, 2384, 2385, 2420, 2419, 2209, 2210, 2245, 2244
1739, 2385, 2386, 2421, 2420, 2210, 2211, 2246, 2245
1740, 2386, 2387, 2422, 2421, 2211, 2212, 2247, 2246
1741, 2387, 2388, 2423, 2422, 2212, 2213, 2248, 2247
1742, 2388, 2389, 2424, 2423, 2213, 2214, 2249, 2248
1743, 2389, 2390, 2425, 2424, 2214, 2215, 2250, 2249
1744, 2390, 2391, 2426, 2425, 2215, 2216, 2251, 2250
1745, 2391, 2392, 2427, 2426, 2216, 2217, 2252, 2251
1746, 2392, 2393, 2428, 2427, 2217, 2218, 2253, 2252
1747, 2393, 2394, 2429, 2428, 2218, 2219, 2254, 2253
1748, 2394, 2395, 2430, 2429, 2219, 2220, 2255, 2254
1749, 2395, 2396, 2431, 2430, 2220, 2221, 2256, 2255
1750, 2396, 2397, 2432, 2431, 2221, 2222, 2257, 2256
1751, 2397, 2398, 2433, 2432, 2222, 2223, 2258, 2257
1752, 2398, 2399, 2434, 2433, 2223, 2224, 2259, 2258
1753, 2399, 2400, 2435, 2434, 2224, 2225, 2260, 2259
1754, 2400, 2401, 2436, 2435, 2225, 2226, 2261, 2260
1755, 2401, 2402, 2437, 2436, 2226, 2227, 2262, 2261
1756, 2402, 2403, 2438, 2437, 2227, 2228, 2263, 2262
1757, 2403, 2404, 2439, 2438, 2228, 2229, 2264, 2263
1758, 2404, 2405, 2440, 2439, 2229, 2230, 2265, 2264
1759, 2405, 2406, 2441, 2440, 2230, 2231, 2266, 2265
1760, 2406, 2407, 2442, 2441, 2231, 2232, 2267, 2266
1761, 2407, 2408, 2443, 2442, 2232, 2233, 2268, 2267
1762, 2408, 2409, 2444, 2443, 2233, 2234, 2269, 2268
1763, 2409, 2410, 2445, 2444, 2234, 2235, 2270, 2269
1764, 2410, 2411, 2446, 2445, 2235, 2236, 2271, 2270
1765, 2411, 2412, 2447, 2446, 2236, 2237, 2272, 2271
1766, 2412, 2413, 2448, 2447, 2237, 2238, 2273, 2272
1767, 2413, 2414, 2449, 2448, 2238, 2239, 2274, 2273
1768, 2414, 2415, 2450, 2449, 2239, 2240, 2275, 2274
1769, 2451, 2452, 2487, 2486, 2276, 2277, 2312, 2311
1770, 2452, 2453, 2488, 2487, 2277, 2278, 2313, 2312
1771, 2453, 2454, 2489, 2488, 2278, 2279, 2314, 2313
1772, 2454, 2455, 2490, 2489, 2279, 2280, 2315, 2314
1773, 2455, 2456, 2491, 2490, 2280, 2281, 2316, 2315
1774, 2456, 2457, 2492, 2491, 2281, 2282, 2317, 2316
1775, 2457, 2458, 2493, 2492, 2282, 2283, 2318, 2317
1776, 2458, 2459, 2494, 2493, 2283, 2284, 2319, 2318
1777, 2459, 2460, 2495, 2494, 2284, 2285, 2320, 2319
1778, 2460, 2461, 2496, 2495, 2285, 2286, 2321, 2320
1779, 2461, 2462, 2497, 2496, 2286, 2287, 2322, 2321
1780, 2462, 2463, 2498, 2497, 2287, 2288, 2323, 2322
1781, 2463, 2464, 2499, 2498, 2288, 2289, 2324, 2323
1782, 2464, 2465, 2500, 2499, 2289, 2290, 2325, 2324
1783, 2465, 2466, 2501, 2500, 2290, 2291, 2326, 2325
1784, 2466, 2467, 2502, 2501, 2291, 2292, 2327, 2326
1785, 2467, 2468, 2503, 2502, 2292, 2293, 2328, 2327
1786, 2468, 2469, 2504, 2503, 2293, 2294, 2329, 2328
1787, 2469, 2470, 2505, 2504, 2294, 2295, 2330, 2329
1788, 2470, 2471, 2506, 2505, 2295, 2296, 2331, 2330
1789, 2471, 2472, 2507, 2506, 2296, 2297, 2332, 2331
1790, 2472, 2473, 2508, 2507, 2297, 2298, 2333, 2332
1791, 2473, 2474, 2509, 2508, 2298, 2299, 2334, 2333
1792, 2474, 2475, 2510, 2509, 2299, 2300, 2335, 2334
1793, 2475, 2476, 2511, 2510, 2300, 2301, 2336, 2335
1794, 2476, 2477, 2512, 2511, 2301, 2302, 2337, 2336
1795, 2477, 2478, 2513, 2512, 2302, 2303, 2338, 2337
1796, 2478, 2479, 2514, 2513, 2303, 2304, 2339, 2338
1797, 2479, 2480, 2515, 2514, 2304, 2305, 2340, 2339
1798, 2480, 2481, 2516, 2515, 2305, 2306, 2341, 2340
1799, 2481, 2482, 2517, 2516, 2306, 2307, 2342, 2341
1800, 2482, 2483, 2518, 2517, 2307, 2308, 2343, 2342
1801, 2483, 2484, 2519, 2518, 2308, 2309, 2344, 2343
1802, 2484, 2485, 2520, 2519, 2309, 2310, 2345, 2344
1803, 2486, 2487, 2522, 2521, 2311, 2312, 2347, 2346
1804, 2487, 2488, 2523, 2522, 2312, 2313, 2348, 2347
1805, 2488, 2489, 2524, 2523, 2313, 2314, 2349, 2348
1806, 2489, 2490, 2525, 2524, 2314, 2315, 2350, 2349
1807, 2490, 2491, 2526, 2525, 2315, 2316, 2351, 2350
1808, 2491, 2492, 2527, 2526, 2316, 2317, 2352, 2351
1809, 2492, 2493, 2528, 2527, 2317, 2318, 2353, 2352
1810, 2493, 2494, 2529, 2528, 2318, 2319, 2354, 2353
1811, 2494, 2495, 2530, 2529, 2319, 2320, 2355, 2354
1812, 2495, 2496, 2531, 2530, 2320, 2321, 2356, 2355
1813, 2496, 2497, 2532, 2531, 2321, 2322, 2357, 2356
1814, 2497, 2498, 2533, 2532, 2322, 2323, 2358, 2357
1815, 2498, 2499, 2534, 2533, 2323, 2324, 2359, 2358
1816, 2499, 2500, 2535, 2534, 2324, 2325, 2360, 2359
1817, 2500, 2501, 2536, 2535, 2325, 2326, 2361, 2360
1818, 2501, 2502, 2537, 2536, 2326, 2327, 2362, 2361
1819, 2502, 2503, 2538, 2537, 2327, 2328, 2363, 2362
1820, 2503, 2504, 2539, 2538, 2328, 2329, 2364, 2363
1821, 2504, 2505, 2540, 2539, 2329, 2330, 2365, 2364
1822, 2505, 2506, 2541, 2540, 2330, 2331, 2366, 2365
1823, 2506, 2507, 2542, 2541, 2331, 2332, 2367, 2366
1824, 2507, 2508, 2543, 2542, 2332, 2333, 2368, 2367
1825, 2508, 2509, 2544, 2543, 2333, 2334, 2369, 2368
1826, 2509, 2510, 2545, 2544, 2334, 2335, 2370, 2369
1827, 2510, 2511, 2546, 2545, 2335, 2336, 2371, 2370
1828, 2511, 2512, 2547, 2546, 2336, 2337, 2372, 2371
1829, 2512, 2513, 2548, 2547, 2337, 2338, 2373, 2372
1830, 2513, 2514, 2549, 2548, 2338, 2339, 2374, 2373
1831, 2514, 2515, 2550, 2549, 2339, 2340, 2375, 2374
1832, 2515, 2516, 2551, 2550, 2340, 2341, 2376, 2375
1833, 2516, 2517, 2552, 2551, 2341, 2342, 2377, 2376
1834, 2517, 2518, 2553, 2552, 2342, 2343, 2378, 2377
1835, 2518, 2519, 2554, 2553, 2343, 2344, 2379, 2378
1836, 2519, 2520, 2555, 2554, 2344, 2345, 2380, 2379
1837, 2521, 2522, 2557, 2556, 2346, 2347, 2382, 2381
1838, 2522, 2523, 2558, 2557, 2347, 2348, 2383, 2382
1839, 2523, 2524, 2559, 2558, 2348, 2349, 2384, 2383
1840, 2524, 2525, 2560, 2559, 2349, 2350, 2385, 2384
1841, 2525, 2526, 2561, 2560, 2350, 2351, 2386, 2385
1842, 2526, 2527, 2562, 2561, 2351, 2352, 2387, 2386
1843, 2527, 2528, 2563, 2562, 2352, 2353, 2388, 2387
1844, 2528, 2529, 2564, 2563, 2353, 2354, 2389, 2388
1845, 2529, 2530, 2565, 2564, 2354, 2355, 2390, 2389
1846, 2530, 2531, 2566, 2565, 2355, 2356, 2391, 2390
1847, 2531, 2532, 2567, 2566, 2356, 2357, 2392, 2391
1848, 2532, 2533, 2568, 2567, 2357, 2358, 2393, 2392
1849, 2533, 2534, 2569, 2568, 2358, 2359, 2394, 2393
1850, 2534, 2535, 2570, 2569, 2359, 2360, 2395, 2394
1851, 2535, 2536, 2571, 2570, 2360, 2361, 2396, 2395
1852, 2536, 2537, 2572, 2571, 2361, 2362, 2397, 2396
1853, 2537, 2538, 2573, 2572, 2362, 2363, 2398, 2397
1854, 2538, 2539, 2574, 2573, 2363, 2364, 2399, 2398
1855, 2539, 2540, 2575, 2574, 2364, 2365, 2400, 2399
1856, 2540, 2541, 2576, 2575, 2365, 2366, 2401, 2400
1857, 2541, 2542, 2577, 2576, 2366, 2367, 2402, 2401
1858, 2542, 2543, 2578, 2577, 2367, 2368, 2403, 2402
1859, 2543, 2544, 2579, 2578, 2368, 2369, 2404, 2403
1860, 2544, 2545, 2580, 2579, 2369, 2370, 2405, 2404
1861, 2545, 2546, 2581, 2580, 2370, 2371, 2406, 2405
1862, 2546, 2547, 2582, 2581, 2371, 2372, 2407, 2406
1863, 2547, 2548, 2583, 2582, 2372, 2373, 2408, 2407
1864, 2548, 2549, 2584, 2583, 2373, 2374, 2409, 2408
1865, 2549, 2550, 2585, 2584, 2374, 2375, 2410, 2409
1866, 2550, 2551, 2586, 2585, 2375, 2376, 2411, 2410
1867, 2551, 2552, 2587, 2586, 2376, 2377, 2412, 2411
1868, 2552, 2553, 2588, 2587, 2377, 2378, 2413, 2412
1869, 2553, 2554, 2589, 2588, 2378, 2379, 2414, 2413
1870, 2554, 2555, 2590, 2589, 2379, 2380, 2415, 2414
1871, 2556, 2557, 2592, 2591, 2381, 2382, 2417, 2416
1872, 2557, 2558, 2593, 2592, 2382, 2383, 2418, 2417
1873, 2558, 2559, 2594, 2593, 2383, 2384, 2419, 2418
1874, 2559, 2560, 2595, 2594, 2384, 2385, 2420, 2419
1875, 2560, 2561, 2596, 2595, 2385, 2386, 2421, 2420
1876, 2561, 2562, 2597, 2596, 2386, 2387, 2422, 2421
1877, 2562, 2563, 2598, 2597, 2387, 2388, 2423, 2422
1878, 2563, 2564, 2599, 2598, 2388, 2389, 2424, 2423
1879, 2564, 2565, 2600, 2599, 2389, 2390, 2425, 2424
1880, 2565, 2566, 2601, 2600, 2390, 2391, 2426, 2425
1881, 2566, 2567, 2602, 2601, 2391, 2392, 2427, 2426
1882, 2567, 2568, 2603, 2602, 2392, 2393, 2428, 2427
1883, 2568, 2569, 2604, 2603, 2393, 2394, 2429, 2428
1884, 2569, 2570, 2605, 2604, 2394, 2395, 2430, 2429
1885, 2570, 2571, 2606, 2605, 2395, 2396, 2431, 2430
1886, 2571, 2572, 2607, 2606, 2396, 2397, 2432, 2431
1887, 2572, 2573, 2608, 2607, 2397, 2398, 2433, 2432
1888, 2573, 2574, 2609, 2608, 2398, 2399, 2434, 2433
1889, 2574, 2575, 2610, 2609, 2399, 2400, 2435, 2434
1890, 2575, 2576, 2611, 2610, 2400, 2401, 2436, 2435
1891, 2576, 2577, 2612, 2611, 2401, 2402, 2437, 2436
1892, 2577, 2578, 2613, 2612, 2402, 2403, 2438, 2437
1893, 2578, 2579, 2614, 2613, 2403, 2404, 2439, 2438
1894, 2579, 2580, 2615, 2614, 2404, 2405, 2440, 2439
1895, 2580, 2581, 2616, 2615, 2405, 2406, 2441, 2440
1896, 2581, 2582, 2617, 2616, 2406, 2407, 2442, 2441
1897, 2582, 2583, 2618, 2617, 2407, 2408, 2443, 2442
1898, 2583, 2584, 2619, 2618, 2408, 2409, 2444, 2443
1899, 2584, 2585, 2620, 2619, 2409, 2410, 2445, 2444
1900, 2585, 2586, 2621, 2620, 2410, 2411, 2446, 2445
1901, 2586, 2587, 2622, 2621, 2411, 2412, 2447, 2446
1902, 2587, 2588, 2623, 2622, 2412, 2413, 2448, 2447
1903, 2588, 2589, 2624, 2623, 2413, 2414, 2449, 2448
1904, 2589, 2590, 2625, 2624, 2414, 2415, 2450, 2449
1905, 2626, 2627, 2662, 2661, 2451, 2452, 2487, 2486
1906, 2627, 2628, 2663, 2662, 2452, 2453, 2488, 2487
1907, 2628, 2629, 2664, 2663, 2453, 2454, 2489, 2488
1908, 2629, 2630, 2665, 2664, 2454, 2455, 2490, 2489
1909, 2630, 2631, 2666, 2665, 2455, 2456, 2491, 2490
1910, 2631, 2632, 2667, 2666, 2456, 2457, 2492, 2491
1911, 2632, 2633, 2668, 2667, 2457, 2458, 2493, 2492
1912, 2633, 2634, 2669, 2668, 2458, 2459, 2494, 2493
1913, 2634, 2635, 2670, 2669, 2459, 2460, 2495, 2494
1914, 2635, 2636, 2671, 2670, 2460, 2461, 2496, 2495
1915, 2636, 2637, 2672, 2671, 2461, 2462, 2497, 2496
1916, 2637, 2638, 2673, 2672, 2462, 2463, 2498, 2497
1917, 2638, 2639, 2674, 2673, 2463, 2464, 2499, 2498
1918, 2639, 2640, 2675, 2674, 2464, 2465, 2500, 2499
1919, 2640, 2641, 2676, 2675, 2465, 2466, 2501, 2500
1920, 2641, 2642, 2677, 2676, 2466, 2467, 2502, 2501
1921, 2642, 2643, 2678, 2677, 2467, 2468, 2503, 2502
1922, 2643, 2644, 2679, 2678, 2468, 2469, 2504, 2503
1923, 2644, 2645, 2680, 2679, 2469, 2470, 2505, 2504
1924, 2645, 2646, 2681, 2680, 2470, 2471, 2506, 2505
1925, 2646, 2647, 2682, 2681, 2471, 2472, 2507, 2506
1926, 2647, 2648, 2683, 2682, 2472, 2473, 2508, 2507
1927, 2648, 2649, 2684, 2683, 2473, 2474, 2509, 2508
1928, 2649, 2650, 2685, 2684, 2474, 2475, 2510, 2509
1929, 2650, 2651, 2686, 2685, 2475, 2476, 2511, 2510
1930, 2651, 2652, 2687, 2686, 2476, 2477, 2512, 2511
1931, 2652, 2653, 2688, 2687, 2477, 2478, 2513, 2512
1932, 2653, 2654, 2689, 2688, 2478, 2479, 2514, 2513
1933, 2654, 2655, 2690, 2689, 2479, 2480, 2515, 2514
1934, 2655, 2656, 2691, 2690, 2480, 2481, 2516, 2515
1935, 2656, 2657, 2692, 2691, 2481, 2482, 2517, 2516
1936, 2657, 2658, 2693, 2692, 2482, 2483, 2518, 2517
1937, 2658, 2659, 2694, 2693, 2483, 2484, 2519, 2518
1938, 2659, 2660, 2695, 2694, 2484, 2485, 2520, 2519
1939, 2661, 2662, 2697, 2696, 2486, 2487, 2522, 2521
1940, 2662, 2663, 2698, 2697, 2487, 2488, 2523, 2522
1941, 2663, 2664, 2699, 2698, 2488, 2489, 2524, 2523
1942, 2664, 2665, 2700, 2699, 2489, 2490, 2525, 2524
1943, 2665, 2666, 2701, 2700, 2490, 2491, 2526, 2525
1944, 2666, 2667, 2702, 2701, 2491, 2492, 2527, 2526
1945, 2667, 2668, 2703, 2702, 2492, 2493, 2528, 2527
1946, 2668, 2669, 2704, 2703, 2493, 2494, 2529, 2528
1947, 2669, 2670, 2705, 2704, 2494, 2495, 2530, 2529
1948, 2670, 2671, 2706, 2705, 2495, 2496, 2531, 2530
1949, 2671, 2672, 2707, 2706, 2496, 2497, 2532, 2531
1950, 2672, 2673, 2708, 2707, 2497, 2498, 2533, 2532
1951, 2673, 2674, 2709, 2708, 2498, 2499, 2534, 2533
1952, 2674, 2675, 2710, 2709, 2499, 2500, 2535, 2534
1953, 2675, 2676, 2711, 2710, 2500, 2501, 2536, 2535
1954, 2676, 2677, 2712, 2711, 2501, 2502, 2537, 2536
1955, 2677, 2678, 2713, 2712, 2502, 2503, 2538, 2537
1956, 2678, 2679, 2714, 2713, 2503, 2504, 2539, 2538
1957, 2679, 2680, 2715, 2714, 2504, 2505, 2540, 2539
1958, 2680, 2681, 2716, 2715, 2505, 2506, 2541, 2540
1959, 2681, 2682, 2717, 2716, 2506, 2507, 2542, 2541
1960, 2682, 2683, 2718, 2717, 2507, 2508, 2543, 2542
1961, 2683, 2684, 2719, 2718, 2508, 2509, 2544, 2543
1962, 2684, 2685, 2720, 2719, 2509, 2510, 2545, 2544
1963, 2685, 2686, 2721, 2720, 2510, 2511, 2546, 2545
1964, 2686, 2687, 2722, 2721, 2511, 2512, 2547, 2546
1965, 2687, 2688, 2723, 2722, 2512, 2513, 2548, 2547
1966, 2688, 2689, 2724, 2723, 2513, 2514, 2549, 2548
1967, 2689, 2690, 2725, 2724, 2514, 2515, 2550, 2549
1968, 2690, 2691, 2726, 2725, 2515, 2516, 2551, 2550
1969, 2691, 2692, 2727, 2726, 2516, 2517, 2552, 2551
1970, 2692, 2693, 2728, 2727, 2517, 2518, 2553, 2552
1971, 2693, 2694, 2729, 2728, 2518, 2519, 2554, 2553
1972, 2694, 2695, 2730, 2729, 2519, 2520, 2555, 2554
1973, 2696, 2697, 2732, 2731, 2521, 2522, 2557, 2556
1974, 2697, 2698, 2733, 2732, 2522, 2523, 2558, 2557
1975, 2698, 2699, 2734, 2733, 2523, 2524, 2559, 2558
1976, 2699, 2700, 2735, 2734, 2524, 2525, 2560, 2559
1977, 2700, 2701, 2736, 2735, 2525, 2526, 2561, 2560
1978, 2701, 2702, 2737, 2736, 2526, 2527, 2562, 2561
1979, 2702, 2703, 2738, 2737, 2527, 2528, 2563, 2562
1980, 2703, 2704, 2739, 2738, 2528, 2529, 2564, 2563
1981, 2704, 2705, 2740, 2739, 2529, 2530, 2565, 2564
1982, 2705, 2706, 2741, 2740, 2530, 2531, 2566, 2565
1983, 2706, 2707, 2742, 2741, 2531, 2532, 2567, 2566
1984, 2707, 2708, 2743, 2742, 2532, 2533, 2568, 2567
1985, 2708, 2709, 2744, 2743, 2533, 2534, 2569, 2568
1986, 2709, 2710, 2745, 2744, 2534, 2535, 2570, 2569
1987, 2710, 2711, 2746, 2745, 2535, 2536, 2571, 2570
1988, 2711, 2712, 2747, 2746, 2536, 2537, 2572, 2571
1989, 2712, 2713, 2748, 2747, 2537, 2538, 2573, 2572
1990, 2713, 2714, 2749, 2748, 2538, 2539, 2574, 2573
1991, 2714, 2715, 2750, 2749, 2539, 2540, 2575, 2574
1992, 2715, 2716, 2751, 2750, 2540, 2541, 2576, 2575
1993, 2716, 2717, 2752, 2751, 2541, 2542, 2577, 2576
1994, 2717, 2718, 2753, 2752, 2542, 2543, 2578, 2577
1995, 2718, 2719, 2754, 2753, 2543, 2544, 2579, 2578
1996, 2719, 2720, 2755, 2754, 2544, 2545, 2580, 2579
1997, 2720, 2721, 2756, 2755, 2545, 2546, 2581, 2580
1998, 2721, 2722, 2757, 2756, 2546, 2547, 2582, 2581
1999, 2722, 2723, 2758, 2757, 2547, 2548, 2583, 2582
2000, 2723, 2724, 2759, 2758, 2548, 2549, 2584, 2583
2001, 2724, 2725, 2760, 2759, 2549, 2550, 2585, 2584
2002, 2725, 2726, 2761, 2760, 2550, 2551, 2586, 2585
2003, 2726, 2727, 2762, 2761, 2551, 2552, 2587, 2586
2004, 2727, 2728, 2763, 2762, 2552, 2553, 2588, 2587
2005, 2728, 2729, 2764, 2763, 2553, 2554, 2589, 2588
2006, 2729, 2730, 2765, 2764, 2554, 2555, 2590, 2589
2007, 2731, 2732, 2767, 2766, 2556, 2557, 2592, 2591
2008, 2732, 2733, 2768, 2767, 2557, 2558, 2593, 2592
2009, 2733, 2734, 2769, 2768, 2558, 2559, 2594, 2593
2010, 2734, 2735, 2770, 2769, 2559, 2560, 2595, 2594
2011, 2735, 2736, 2771, 2770, 2560, 2561, 2596, 2595
2012, 2736, 2737, 2772, 2771, 2561, 2562, 2597, 2596
2013, 2737, 2738, 2773, 2772, 2562, 2563, 2598, 2597
2014, 2738, 2739, 2774, 2773, 2563, 2564, 2599, 2598
2015, 2739, 2740, 2775, 2774, 2564, 2565, 2600, 2599
2016, 2740, 2741, 2776, 2775, 2565, 2566, 2601, 2600
2017, 2741, 2742, 2777, 2776, 2566, 2567, 2602, 2601
2018, 2742, 2743, 2778, 2777, 2567, 2568, 2603, 2602
2019, 2743, 2744, 2779, 2778, 2568, 2569, 2604, 2603
2020, 2744, 2745, 2780, 2779, 2569, 2570, 2605, 2604
2021, 2745, 2746, 2781, 2780, 2570, 2571, 2606, 2605
2022, 2746, 2747, 2782, 2781, 2571, 2572, 2607, 2606
2023, 2747, 2748, 2783, 2782, 2572, 2573, 2608, 2607
2024, 2748, 2749, 2784, 2783, 2573, 2574, 2609, 2608
2025, 2749, 2750, 2785, 2784, 2574, 2575, 2610, 2609
2026, 2750, 2751, 2786, 2785, 2575, 2576, 2611, 2610
2027, 2751, 2752, 2787, 2786, 2576, 2577, 2612, 2611
2028, 2752, 2753, 2788, 2787, 2577, 2578, 2613, 2612
2029, 2753, 2754, 2789, 2788, 2578, 2579, 2614, 2613
2030, 2754, 2755, 2790, 2789, 2579, 2580, 2615, 2614
2031, 2755, 2756, 2791, 2790, 2580, 2581, 2616, 2615
2032, 2756, 2757, 2792, 2791, 2581, 2582, 2617, 2616
2033, 2757, 2758, 2793, 2792, 2582, 2583, 2618, 2617
2034, 2758, 2759, 2794, 2793, 2583, 2584, 2619, 2618
2035, 2759, 2760, 2795, 2794, 2584, 2585, 2620, 2619
2036, 2760, 2761, 2796, 2795, 2585, 2586, 2621, 2620
2037, 2761, 2762, 2797, 2796, 2586, 2587, 2622, 2621
2038, 2762, 2763, 2798, 2797, 2587, 2588, 2623, 2622
2039, 2763, 2764, 2799, 2798, 2588, 2589, 2624, 2623
2040, 2764, 2765, 2800, 2799, 2589, 2590, 2625, 2624
2041, 2801, 2802, 2837, 2836, 2626, 2627, 2662, 2661
2042, 2802, 2803, 2838, 2837, 2627, 2628, 2663, 2662
2043, 2803, 2804, 2839, 2838, 2628, 2629, 2664, 2663
2044, 2804, 2805, 2840, 2839, 2629, 2630, 2665, 2664
2045, 2805, 2806, 2841, 2840, 2630, 2631, 2666, 2665
2046, 2806, 2807, 2842, 2841, 2631, 2632, 2667, 2666
2047, 2807, 2808, 2843, 2842, 2632, 2633, 2668, 2667
2048, 2808, 2809, 2844, 2843, 2633, 2634, 2669, 2668
2049, 2809, 2810, 2845, 2844, 2634, 2635, 2670, 2669
2050, 2810, 2811, 2846, 2845, 2635, 2636, 2671, 2670
2051, 2811, 2812, 2847, 2846, 2636, 2637, 2672, 2671
2052, 2812, 2813, 2848, 2847, 2637, 2638, 2673, 2672
2053, 2813, 2814, 2849, 2848, 2638, 2639, 2674, 2673
2054, 2814, 2815, 2850, 2849, 2639, 2640, 2675, 2674
2055, 2815, 2816, 2851, 2850, 2640, 2641, 2676, 2675
2056, 2816, 2817, 2852, 2851, 2641, 2642, 2677, 2676
2057, 2817, 2818, 2853, 2852, 2642, 2643, 2678, 2677
2058, 2818, 2819, 2854, 2853, 2643, 2644, 2679, 2678
2059, 2819, 2820, 2855, 2854, 2644, 2645, 2680, 2679
2060, 2820, 2821, 2856, 2855, 2645, 2646, 2681, 2680
2061, 2821, 2822, 2857, 2856, 2646, 2647, 2682, 2681
2062, 2822, 2823, 2858, 2857, 2647, 2648, 2683, 2682
2063, 2823, 2824, 2859, 2858, 2648, 2649, 2684, 2683
2064, 2824, 2825, 2860, 2859, 2649, 2650, 2685, 2684
2065, 2825, 2826, 2861, 2860, 2650, 2651, 2686, 2685
2066, 2826, 2827, 2862, 2861, 2651, 2652, 2687, 2686
2067, 2827, 2828, 2863, 2862, 2652, 2653, 2688, 2687
2068, 2828, 2829, 2864, 2863, 2653, 2654, 2689, 2688
2069, 2829, 2830, 2865, 2864, 2654, 2655, 2690, 2689
2070, 2830, 2831, 2866, 2865, 2655, 2656, 2691, 2690
2071, 2831, 2832, 2867, 2866, 2656, 2657, 2692, 2691
2072, 2832, 2833, 2868, 2867, 2657, 2658, 2693, 2692
2073, 2833, 2834, 2869, 2868, 2658, 2659, 2694, 2693
2074, 2834, 2835, 2870, 2869, 2659, 2660, 2695, 2694
2075, 2836, 2837, 2872, 2871, 2661, 2662, 2697, 2696
2076, 2837, 2838, 2873, 2872, 2662, 2663, 2698, 2697
2077, 2838, 2839, 2874, 2873, 2663, 2664, 2699, 2698
2078, 2839, 2840, 2875, 2874, 2664, 2665, 2700, 2699
2079, 2840, 2841, 2876, 2875, 2665, 2666, 2701, 2700
2080, 2841, 2842, 2877, 2876, 2666, 2667, 2702, 2701
2081, 2842, 2843, 2878, 2877, 2667, 2668, 2703, 2702
2082, 2843, 2844, 2879, 2878, 2668, 2669, 2704, 2703
2083, 2844, 2845, 2880, 2879, 2669, 2670, 2705, 2704
2084, 2845, 2846, 2881, 2880, 2670, 2671, 2706, 2705
2085, 2846, 2847, 2882, 2881, 2671, 2672, 2707, 2706
2086, 2847, 2848, 2883, 2882, 2672, 2673, 2708, 2707
2087, 2848, 2849, 2884, 2883, 2673, 2674, 2709, 2708
2088, 2849, 2850, 2885, 2884, 2674, 2675, 2710, 2709
2089, 2850, 2851, 2886, 2885, 2675, 2676, 2711, 2710
2090, 2851, 2852, 2887, 2886, 2676, 2677, 2712, 2711
2091, 2852, 2853, 2888, 2887, 2677, 2678, 2713, 2712
2092, 2853, 2854, 2889, 2888, 2678, 2679, 2714, 2713
2093, 2854, 2855, 2890, 2889, 2679, 2680, 2715, 2714
2094, 2855, 2856, 2891, 2890, 2680, 2681, 2716, 2715
2095, 2856, 2857, 2892, 2891, 2681, 2682, 2717, 2716
2096, 2857, 2858, 2893, 2892, 2682, 2683, 2718, 2717
2097, 2858, 2859, 2894, 2893, 2683, 2684, 2719, 2718
2098, 2859, 2860, 2895, 2894, 2684, 2685, 2720, 2719
2099, 2860, 2861, 2896, 2895, 2685, 2686, 2721, 2720
2100, 2861, 2862, 2897, 2896, 2686, 2687, 2722, 2721
2101, 2862, 2863, 2898, 2897, 2687, 2688, 2723, 2722
2102, 2863, 2864, 2899, 2898, 2688, 2689, 2724, 2723
2103, 2864, 2865, 2900, 2899, 2689, 2690, 2725, 2724
2104, 2865, 2866, 2901, 2900, 2690, 2691, 2726, 2725
2105, 2866, 2867, 2902, 2901, 2691, 2692, 2727, 2726
2106, 2867, 2868, 2903, 2902, 2692, 2693, 2728, 2727
2107, 2868, 2869, 2904, 2903, 2693, 2694, 2729, 2728
2108, 2869, 2870, 2905, 2904, 2694, 2695, 2730, 2729
2109, 2871, 2872, 2907, 2906, 2696, 2697, 2732, 2731
2110, 2872, 2873, 2908, 2907, 2697, 2698, 2733, 2732
2111, 2873, 2874, 2909, 2908, 2698, 2699, 2734, 2733
2112, 2874, 2875, 2910, 2909, 2699, 2700, 2735, 2734
2113, 2875, 2876, 2911, 2910, 2700, 2701, 2736, 2735
2114, 2876, 2877, 2912, 2911, 2701, 2702, 2737, 2736
2115, 2877, 2878, 2913, 2912, 2702, 2703, 2738, 2737
2116, 2878, 2879, 2914, 2913, 2703, 2704, 2739, 2738
2117, 2879, 2880, 2915, 2914, 2704, 2705, 2740, 2739
2118, 2880, 2881, 2916, 2915, 2705, 2706, 2741, 2740
2119, 2881, 2882, 2917, 2916, 2706, 2707, 2742, 2741
2120, 2882, 2883, 2918, 2917, 2707, 2708, 2743, 2742
2121, 2883, 2884, 2919, 2918, 2708, 2709, 2744, 2743
2122, 2884, 2885, 2920, 2919, 2709, 2710, 2745, 2744
2123, 2885, 2886, 2921, 2920, 2710, 2711, 2746, 2745
2124, 2886, 2887, 2922, 2921, 2711, 2712, 2747, 2746
2125, 2887, 2888, 2923, 2922, 2712, 2713, 2748, 2747
2126, 2888, 2889, 2924, 2923, 2713, 2714, 2749, 2748
2127, 2889, 2890, 2925, 2924, 2714, 2715, 2750, 2749
2128, 2890, 2891, 2926, 2925, 2715, 2716, 2751, 2750
2129, 2891, 2892, 2927, 2926, 2716, 2717, 2752, 2751
2130, 2892, 2893, 2928, 2927, 2717, 2718, 2753, 2752
2131, 2893, 2894, 2929, 2928, 2718, 2719, 2754, 2753
2132, 2894, 2895, 2930, 2929, 2719, 2720, 2755, 2754
2133, 2895, 2896, 2931, 2930, 2720, 2721, 2756, 2755
2134, 2896, 2897, 2932, 2931, 2721, 2722, 2757, 2756
2135, 2897, 2898, 2933, 2932, 2722, 2723, 2758, 2757
2136, 2898, 2899, 2934, 2933, 2723, 2724, 2759, 2758
2137, 2899, 2900, 2935, 2934, 2724, 2725, 2760, 2759
2138, 2900, 2901, 2936, 2935, 2725, 2726, 2761, 2760
2139, 2901, 2902, 2937, 2936, 2726, 2727, 2762, 2761
2140, 2902, 2903, 2938, 2937, 2727, 2728, 2763, 2762
2141, 2903, 2904, 2939, 2938, 2728, 2729, 2764, 2763
2142, 2904, 2905, 2940, 2939, 2729, 2730, 2765, 2764
2143, 2906, 2907, 2942, 2941, 2731, 2732, 2767, 2766
2144, 2907, 2908, 2943, 2942, 2732, 2733, 2768, 2767
2145, 2908, 2909, 2944, 2943, 2733, 2734, 2769, 2768
2146, 2909, 2910, 2945, 2944, 2734, 2735, 2770, 2769
2147, 2910, 2911, 2946, 2945, 2735, 2736, 2771, 2770
2148, 2911, 2912, 2947, 2946, 2736, 2737, 2772, 2771
2149, 2912, 2913, 2948, 2947, 2737, 2738, 2773, 2772
2150, 2913, 2914, 2949, 2948, 2738, 2739, 2774, 2773
2151, 2914, 2915, 2950, 2949, 2739, 2740, 2775, 2774
2152, 2915, 2916, 2951, 2950, 2740, 2741, 2776, 2775
2153, 2916, 2917, 2952, 2951, 2741, 2742, 2777, 2776
2154, 2917, 2918, 2953, 2952, 2742, 2743, 2778, 2777
2155, 2918, 2919, 2954, 2953, 2743, 2744, 2779, 2778
2156, 2919, 2920, 2955, 2954, 2744, 2745, 2780, 2779
2157, 2920, 2921, 2956, 2955, 2745, 2746, 2781, 2780
2158, 2921, 2922, 2957, 2956, 2746, 2747, 2782, 2781
2159, 2922, 2923, 2958, 2957, 2747, 2748, 2783, 2782
2160, 2923, 2924, 2959, 2958, 2748, 2749, 2784, 2783
2161, 2924, 2925, 2960, 2959, 2749, 2750, 2785, 2784
2162, 2925, 2926, 2961, 2960, 2750, 2751, 2786, 2785
2163, 2926, 2927, 2962, 2961, 2751, 2752, 2787, 2786
2164, 2927, 2928, 2963, 2962, 2752, 2753, 2788, 2787
2165, 2928, 2929, 2964, 2963, 2753, 2754, 2789, 2788
2166, 2929, 2930, 2965, 2964, 2754, 2755, 2790, 2789
2167, 2930, 2931, 2966, 2965, 2755, 2756, 2791, 2790
2168, 2931, 2932, 2967, 2966, 2756, 2757, 2792, 2791
2169, 2932, 2933, 2968, 2967, 2757, 2758, 2793, 2792
2170, 2933, 2934, 2969, 2968, 2758, 2759, 2794, 2793
2171, 2934, 2935, 2970, 2969, 2759, 2760, 2795, 2794
2172, 2935, 2936, 2971, 2970, 2760, 2761, 2796, 2795
2173, 2936, 2937, 2972, 2971, 2761, 2762, 2797, 2796
2174, 2937, 2938, 2973, 2972, 2762, 2763, 2798, 2797
2175, 2938, 2939, 2974, 2973, 2763, 2764, 2799, 2798
2176, 2939, 2940, 2975, 2974, 2764, 2765, 2800, 2799
2177, 2976, 2977, 3012, 3011, 2801, 2802, 2837, 2836
2178, 2977, 2978, 3013, 3012, 2802, 2803, 2838, 2837
2179, 2978, 2979, 3014, 3013, 2803, 2804, 2839, 2838
2180, 2979, 2980, 3015, 3014, 2804, 2805, 2840, 2839
2181, 2980, 2981, 3016, 3015, 2805, 2806, 2841, 2840
2182, 2981, 2982, 3017, 3016, 2806, 2807, 2842, 2841
2183, 2982, 2983, 3018, 3017, 2807, 2808, 2843, 2842
2184, 2983, 2984, 3019, 3018, 2808, 2809, 2844, 2843
2185, 2984, 2985, 3020, 3019, 2809, 2810, 2845, 2844
2186, 2985, 2986, 3021, 3020, 2810, 2811, 2846, 2845
2187, 2986, 2987, 3022, 3021, 2811, 2812, 2847, 2846
2188, 2987, 2988, 3023, 3022, 2812, 2813, 2848, 2847
2189, 2988, 2989, 3024, 3023, 2813, 2814, 2849, 2848
2190, 2989, 2990, 3025, 3024, 2814, 2815, 2850, 2849
2191, 2990, 2991, 3026, 3025, 2815, 2816, 2851, 2850
2192, 2991, 2992, 3027, 3026, 2816, 2817, 2852, 2851
2193, 2992, 2993, 3028, 3027, 2817, 2818, 2853, 2852
2194, 2993, 2994, 3029, 3028, 2818, 2819, 2854, 2853
2195, 2994, 2995, 3030, 3029, 2819, 2820, 2855, 2854
2196, 2995, 2996, 3031, 3030, 2820, 2821, 2856, 2855
2197, 2996, 2997, 3032, 3031, 2821, 2822, 2857, 2856
2198, 2997, 2998, 3033, 3032, 2822, 2823, 2858, 2857
2199, 2998, 2999, 3034, 3033, 2823, 2824, 2859, 2858
2200, 2999, 3000, 3035, 3034, 2824, 2825, 2860, 2859
2201, 3000, 3001, 3036, 3035, 2825, 2826, 2861, 2860
2202, 3001, 3002, 3037, 3036, 2826, 2827, 2862, 2861
2203, 3002, 3003, 3038, 3037, 2827, 2828, 2863, 2862
2204, 3003, 3004, 3039, 3038, 2828, 2829, 2864, 2863
2205, 3004, 3005, 3040, 3039, 2829, 2830, 2865, 2864
2206, 3005, 3006, 3041, 3040, 2830, 2831, 2866, 2865
2207, 3006, 3007, 3042, 3041, 2831, 2832, 2867, 2866
2208, 3007, 3008, 3043, 3042, 2832, 2833, 2868, 2867
2209, 3008, 3009, 3044, 3043, 2833, 2834, 2869, 2868
2210, 3009, 3010, 3045, 3044, 2834, 2835, 2870, 2869
2211, 3011, 3012, 3047, 3046, 2836, 2837, 2872, 2871
2212, 3012, 3013, 3048, 3047, 2837, 2838, 2873, 2872
2213, 3013, 3014, 3049, 3048, 2838, 2839, 2874, 2873
2214, 3014, 3015, 3050, 3049, 2839, 2840, 2875, 2874
2215, 3015, 3016, 3051, 3050, 2840, 2841, 2876, 2875
2216, 3016, 3017, 3052, 3051, 2841, 2842, 2877, 2876
2217, 3017, 3018, 3053, 3052, 2842, 2843, 2878, 2877
2218, 3018, 3019, 3054, 3053, 2843, 2844, 2879, 2878
2219, 3019, 3020, 3055, 3054, 2844, 2845, 2880, 2879
2220, 3020, 3021, 3056, 3055, 2845, 2846, 2881, 2880
2221, 3021, 3022, 3057, 3056, 2846, 2847, 2882, 2881
2222, 3022, 3023, 3058, 3057, 2847, 2848, 2883, 2882
2223, 3023, 3024, 3059, 3058, 2848, 2849, 2884, 2883
2224, 3024, 3025, 3060, 3059, 2849, 2850, 2885, 2884
2225, 3025, 3026, 3061, 3060, 2850, 2851, 2886, 2885
2226, 3026, 3027, 3062, 3061, 2851, 2852, 2887, 2886
2227, 3027, 3028, 3063, 3062, 2852, 2853, 2888, 2887
2228, 3028, 3029, 3064, 3063, 2853, 2854, 2889, 2888
2229, 3029, 3030, 3065, 3064, 2854, 2855, 2890, 2889
2230, 3030, 3031, 3066, 3065, 2855, 2856, 2891, 2890
2231, 3031, 3032, 3067, 3066, 2856, 2857, 2892, 2891
2232, 3032, 3033, 3068, 3067, 2857, 2858, 2893, 2892
2233, 3033, 3034, 3069, 3068, 2858, 2859, 2894, 2893
2234, 3034, 3035, 3070, 3069, 2859, 2860, 2895, 2894
2235, 3035, 3036, 3071, 3070, 2860, 2861, 2896, 2895
2236, 3036, 3037, 3072, 3071, 2861, 2862, 2897, 2896
2237, 3037, 3038, 3073, 3072, 2862, 2863, 2898, 2897
2238, 3038, 3039, 3074, 3073, 2863, 2864, 2899, 2898
2239, 3039, 3040, 3075, 3074, 2864, 2865, 2900, 2899
2240, 3040, 3041, 3076, 3075, 2865, 2866, 2901, 2900
2241, 3041, 3042, 3077, 3076, 2866, 2867, 2902, 2901
2242, 3042, 3043, 3078, 3077, 2867, 2868, 2903, 2902
2243, 3043, 3044, 3079, 3078, 2868, 2869, 2904, 2903
2244, 3044, 3045, 3080, 3079, 2869, 2870, 2905, 2904
2245, 3046, 3047, 3082, 3081, 2871, 2872, 2907, 2906
2246, 3047, 3048, 3083, 3082, 2872, 2873, 2908, 2907
2247, 3048, 3049, 3084, 3083, 2873, 2874, 2909, 2908
2248, 3049, 3050, 3085, 3084, 2874, 2875, 2910, 2909
2249, 3050, 3051, 3086, 3085, 2875, 2876, 2911, 2910
2250, 3051, 3052, 3087, 3086, 2876, 2877, 2912, 2911
2251, 3052, 3053, 3088, 3087, 2877, 2878, 2913, 2912
2252, 3053, 3054, 3089, 3088, 2878, 2879, 2914, 2913
2253, 3054, 3055, 3090, 3089, 2879, 2880, 2915, 2914
2254, 3055, 3056, 3091, 3090, 2880, 2881, 2916, 2915
2255, 3056, 3057, 3092, 3091, 2881, 2882, 2917, 2916
2256, 3057, 3058, 3093, 3092, 2882, 2883, 2918, 2917
2257, 3058, 3059, 3094, 3093, 2883, 2884, 2919, 2918
2258, 3059, 3060, 3095, 3094, 2884, 2885, 2920, 2919
2259, 3060, 3061, 3096, 3095, 2885, 2886, 2921, 2920
2260, 3061, 3062, 3097, 3096, 2886, 2887, 2922, 2921
2261, 3062, 3063, 3098, 3097, 2887, 2888, 2923, 2922
2262, 3063, 3064, 3099, 3098, 2888, 2889, 2924, 2923
2263, 3064, 3065, 3100, 3099, 2889, 2890, 2925, 2924
2264, 3065, 3066, 3101, 3100, 2890, 2891, 2926, 2925
2265, 3066, 3067, 3102, 3101, 2891, 2892, 2927, 2926
2266, 3067, 3068, 3103, 3102, 2892, 2893, 2928, 2927
2267, 3068, 3069, 3104, 3103, 2893, 2894, 2929, 2928
2268, 3069, 3070, 3105, 3104, 2894, 2895, 2930, 2929
2269, 3070, 3071, 3106, 3105, 2895, 2896, 2931, 2930
2270, 3071, 3072, 3107, 3106, 2896, 2897, 2932, 2931
2271, 3072, 3073, 3108, 3107, 2897, 2898, 2933, 2932
2272, 3073, 3074, 3109, 3108, 2898, 2899, 2934, 2933
2273, 3074, 3075, 3110, 3109, 2899, 2900, 2935, 2934
2274, 3075, 3076, 3111, 3110, 2900, 2901, 2936, 2935
2275, 3076, 3077, 3112, 3111, 2901, 2902, 2937, 2936
2276, 3077, 3078, 3113, 3112, 2902, 2903, 2938, 2937
2277, 3078, 3079, 3114, 3113, 2903, 2904, 2939, 2938
2278, 3079, 3080, 3115, 3114, 2904, 2905, 2940, 2939
2279, 3081, 3082, 3117, 3116, 2906, 2907, 2942, 2941
2280, 3082, 3083, 3118, 3117, 2907, 2908, 2943, 2942
2281, 3083, 3084, 3119, 3118, 2908, 2909, 2944, 2943
2282, 3084, 3085, 3120, 3119, 2909, 2910, 2945, 2944
2283, 3085, 3086, 3121, 3120, 2910, 2911, 2946, 2945
2284, 3086, 3087, 3122, 3121, 2911, 2912, 2947, 2946
2285, 3087, 3088, 3123, 3122, 2912, 2913, 2948, 2947
2286, 3088, 3089, 3124, 3123, 2913, 2914, 2949, 2948
2287, 3089, 3090, 3125, 3124, 2914, 2915, 2950, 2949
2288, 3090, 3091, 3126, 3125, 2915, 2916, 2951, 2950
2289, 3091, 3092, 3127, 3126, 2916, 2917, 2952, 2951
2290, 3092, 3093, 3128, 3127, 2917, 2918, 2953, 2952
2291, 3093, 3094, 3129, 3128, 2918, 2919, 2954, 2953
2292, 3094, 3095, 3130, 3129, 2919, 2920, 2955, 2954
2293, 3095, 3096, 3131, 3130, 2920, 2921, 2956, 2955
2294, 3096, 3097, 3132, 3131, 2921, 2922, 2957, 2956
2295, 3097, 3098, 3133, 3132, 2922, 2923, 2958, 2957
2296, 3098, 3099, 3134, 3133, 2923, 2924, 2959, 2958
2297, 3099, 3100, 3135, 3134, 2924, 2925, 2960, 2959
2298, 3100, 3101, 3136, 3135, 2925, 2926, 2961, 2960
2299, 3101, 3102, 3137, 3136, 2926, 2927, 2962, 2961
2300, 3102, 3103, 3138, 3137, 2927, 2928, 2963, 2962
2301, 3103, 3104, 3139, 3138, 2928, 2929, 2964, 2963
2302, 3104, 3105, 3140, 3139, 2929, 2930, 2965, 2964
2303, 3105, 3106, 3141, 3140, 2930, 2931, 2966, 2965
2304, 3106, 3107, 3142, 3141, 2931, 2932, 2967, 2966
2305, 3107, 3108, 3143, 3142, 2932, 2933, 2968, 2967
2306, 3108, 3109, 3144, 3143, 2933, 2934, 2969, 2968
2307, 3109, 3110, 3145, 3144, 2934, 2935, 2970, 2969
2308, 3110, 3111, 3146, 3145, 2935, 2936, 2971, 2970
2309, 3111, 3112, 3147, 3146, 2936, 2937, 2972, 2971
2310, 3112, 3113, 3148, 3147, 2937, 2938, 2973, 2972
2311, 3113, 3114, 3149, 3148, 2938, 2939, 2974, 2973
2312, 3114, 3115, 3150, 3149, 2939, 2940, 2975, 2974
2313, 3151, 3152, 3187, 3186, 2976, 2977, 3012, 3011
2314, 3152, 3153, 3188, 3187, 2977, 2978, 3013, 3012
2315, 3153, 3154, 3189, 3188, 2978, 2979, 3014, 3013
2316, 3154, 3155, 3190, 3189, 2979, 2980, 3015, 3014
2317, 3155, 3156, 3191, 3190, 2980, 2981, 3016, 3015
2318, 3156, 3157, 3192, 3191, 2981, 2982, 3017, 3016
2319, 3157, 3158, 3193, 3192, 2982, 2983, 3018, 3017
2320, 3158, 3159, 3194, 3193, 2983, 2984, 3019, 3018
2321, 3159, 3160, 3195, 3194, 2984, 2985, 3020, 3019
2322, 3160, 3161, 3196, 3195, 2985, 2986, 3021, 3020
2323, 3161, 3162, 3197, 3196, 2986, 2987, 3022, 3021
2324, 3162, 3163, 3198, 3197, 2987, 2988, 3023, 3022
2325, 3163, 3164, 3199, 3198, 2988, 2989, 3024, 3023
2326, 3164, 3165, 3200, 3199, 2989, 2990, 3025, 3024
2327, 3165, 3166, 3201, 3200, 2990, 2991, 3026, 3025
2328, 3166, 3167, 3202, 3201, 2991, 2992, 3027, 3026
2329, 3167, 3168, 3203, 3202, 2992, 2993, 3028, 3027
2330, 3168, 3169, 3204, 3203, 2993, 2994, 3029, 3028
2331, 3169, 3170, 3205, 3204, 2994, 2995, 3030, 3029
2332, 3170, 3171, 3206, 3205, 2995, 2996, 3031, 3030
2333, 3171, 3172, 3207, 3206, 2996, 2997, 3032, 3031
2334, 3172, 3173, 3208, 3207, 2997, 2998, 3033, 3032
2335, 3173, 3174, 3209, 3208, 2998, 2999, 3034, 3033
2336, 3174, 3175, 3210, 3209, 2999, 3000, 3035, 3034
2337, 3175, 3176, 3211, 3210, 3000, 3001, 3036, 3035
2338, 3176, 3177, 3212, 3211, 3001, 3002, 3037, 3036
2339, 3177, 3178, 3213, 3212, 3002, 3003, 3038, 3037
2340, 3178, 3179, 3214, 3213, 3003, 3004, 3039, 3038
2341, 3179, 3180, 3215, 3214, 3004, 3005, 3040, 3039
2342, 3180, 3181, 3216, 3215, 3005, 3006, 3041, 3040
2343, 3181, 3182, 3217, 3216, 3006, 3007, 3042, 3041
2344, 3182, 3183, 3218, 3217, 3007, 3008, 3043, 3042
2345, 3183, 3184, 3219, 3218, 3008, 3009, 3044, 3043
2346, 3184, 3185, 3220, 3219, 3009, 3010, 3045, 3044
2347, 3186, 3187, 3222, 3221, 3011, 3012, 3047, 3046
2348, 3187, 3188, 3223, 3222, 3012, 3013, 3048, 3047
2349, 3188, 3189, 3224, 3223, 3013, 3014, 3049, 3048
2350, 3189, 3190, 3225, 3224, 3014, 3015, 3050, 3049
2351, 3190, 3191, 3226, 3225, 3015, 3016, 3051, 3050
2352, 3191, 3192, 3227, 3226, 3016, 3017, 3052, 3051
2353, 3192, 3193, 3228, 3227, 3017, 3018, 3053, 3052
2354, 3193, 3194, 3229, 3228, 3018, 3019, 3054, 3053
2355, 3194, 3195, 3230, 3229, 3019, 3020, 3055, 3054
2356, 3195, 3196, 3231, 3230, 3020, 3021, 3056, 3055
2357, 3196, 3197, 3232, 3231, 3021, 3022, 3057, 3056
2358, 3197, 3198, 3233, 3232, 3022, 3023, 3058, 3057
2359, 3198, 3199, 3234, 3233, 3023, 3024, 3059, 3058
2360, 3199, 3200, 3235, 3234, 3024, 3025, 3060, 3059
2361, 3200, 3201, 3236, 3235, 3025, 3026, 3061, 3060
2362, 3201, 3202, 3237, 3236, 3026, 3027, 3062, 3061
2363, 3202, 3203, 3238, 3237, 3027, 3028, 3063, 3062
2364, 3203, 3204, 3239, 3238, 3028, 3029, 3064, 3063
2365, 3204, 3205, 3240, 3239, 3029, 3030, 3065, 3064
2366, 3205, 3206, 3241, 3240, 3030, 3031, 3066, 3065
2367, 3206, 3207, 3242, 3241, 3031, 3032, 3067, 3066
2368, 3207, 3208, 3243, 3242, 3032, 3033, 3068, 3067
2369, 3208, 3209, 3244, 3243, 3033, 3034, 3069, 3068
2370, 3209, 3210, 3245, 3244, 3034, 3035, 3070, 3069
2371, 3210, 3211, 3246, 3245, 3035, 3036, 3071, 3070
2372, 3211, 3212, 3247, 3246, 3036, 3037, 3072, 3071
2373, 3212, 3213, 3248, 3247, 3037, 3038, 3073, 3072
2374, 3213, 3214, 3249, 3248, 3038, 3039, 3074, 3073
2375, 3214, 3215, 3250, 3249, 3039, 3040, 3075, 3074
2376, 3215, 3216, 3251, 3250, 3040, 3041, 3076, 3075
2377, 3216, 3217, 3252, 3251, 3041, 3042, 3077, 3076
2378, 3217, 3218, 3253, 3252, 3042, 3043, 3078, 3077
2379, 3218, 3219, 3254, 3253, 3043, 3044, 3079, 3078
2380, 3219, 3220, 3255, 3254, 3044, 3045, 3080, 3079
2381, 3221, 3222, 3257, 3256, 3046, 3047, 3082, 3081
2382, 3222, 3223, 3258, 3257, 3047, 3048, 3083, 3082
2383, 3223, 3224, 3259, 3258, 3048, 3049, 3084, 3083
2384, 3224, 3225, 3260, 3259, 3049, 3050, 3085, 3084
2385, 3225, 3226, 3261, 3260, 3050, 3051, 3086, 3085
2386, 3226, 3227, 3262, 3261, 3051, 3052, 3087, 3086
2387, 3227, 3228, 3263, 3262, 3052, 3053, 3088, 3087
2388, 3228, 3229, 3264, 3263, 3053, 3054, 3089, 3088
2389, 3229, 3230, 3265, 3264, 3054, 3055, 3090, 3089
2390, 3230, 3231, 3266, 3265, 3055, 3056, 3091, 3090
2391, 3231, 3232, 3267, 3266, 3056, 3057, 3092, 3091
2392, 3232, 3233, 3268, 3267, 3057, 3058, 3093, 3092
2393, 3233, 3234, 3269, 3268, 3058, 3059, 3094, 3093
2394, 3234, 3235, 3270, 3269, 3059, 3060, 3095, 3094
2395, 3235, 3236, 3271, 3270, 3060, 3061, 3096, 3095
2396, 3236, 3237, 3272, 3271, 3061, 3062, 3097, 3096
2397, 3237, 3238, 3273, 3272, 3062, 3063, 3098, 3097
2398, 3238, 3239, 3274, 3273, 3063, 3064, 3099, 3098
2399, 3239, 3240, 3275, 3274, 3064, 3065, 3100, 3099
2400, 3240, 3241, 3276, 3275, 3065, 3066, 3101, 3100
2401, 3241, 3242, 3277, 3276, 3066, 3067, 3102, 3101
2402, 3242, 3243, 3278, 3277, 3067, 3068, 3103, 3102
2403, 3243, 3244, 3279, 3278, 3068, 3069, 3104, 3103
2404, 3244, 3245, 3280, 3279, 3069, 3070, 3105, 3104
2405, 3245, 3246, 3281, 3280, 3070, 3071, 3106, 3105
2406, 3246, 3247, 3282, 3281, 3071, 3072, 3107, 3106
2407, 3247, 3248, 3283, 3282, 3072, 3073, 3108, 3107
2408, 3248, 3249, 3284, 3283, 3073, 3074, 3109, 3108
2409, 3249, 3250, 3285, 3284, 3074, 3075, 3110, 3109
2410, 3250, 3251, 3286, 3285, 3075, 3076, 3111, 3110
2411, 3251, 3252, 3287, 3286, 3076, 3077, 3112, 3111
2412, 3252, 3253, 3288, 3287, 3077, 3078, 3113, 3112
2413, 3253, 3254, 3289, 3288, 3078, 3079, 3114, 3113
2414, 3254, 3255, 3290, 3289, 3079, 3080, 3115, 3114
2415, 3256, 3257, 3292, 3291, 3081, 3082, 3117, 3116
2416, 3257, 3258, 3293, 3292, 3082, 3083, 3118, 3117
2417, 3258, 3259, 3294, 3293, 3083, 3084, 3119, 3118
2418, 3259, 3260, 3295, 3294, 3084, 3085, 3120, 3119
2419, 3260, 3261, 3296, 3295, 3085, 3086, 3121, 3120
2420, 3261, 3262, 3297, 3296, 3086, 3087, 3122, 3121
2421, 3262, 3263, 3298, 3297, 3087, 3088, 3123, 3122
2422, 3263, 3264, 3299, 3298, 3088, 3089, 3124, 3123
2423, 3264, 3265, 3300, 3299, 3089, 3090, 3125, 3124
2424, 3265, 3266, 3301, 3300, 3090, 3091, 3126, 3125
2425, 3266, 3267, 3302, 3301, 3091, 3092, 3127, 3126
2426, 3267, 3268, 3303, 3302, 3092, 3093, 3128, 3127
2427, 3268, 3269, 3304, 3303, 3093, 3094, 3129, 3128
2428, 3269, 3270, 3305, 3304, 3094, 3095, 3130, 3129
2429, 3270, 3271, 3306, 3305, 3095, 3096, 3131, 3130
2430, 3271, 3272, 3307, 3306, 3096, 3097, 3132, 3131
2431, 3272, 3273, 3308, 3307, 3097, 3098, 3133, 3132
2432, 3273, 3274, 3309, 3308, 3098, 3099, 3134, 3133
2433, 3274, 3275, 3310, 3309, 3099, 3100, 3135, 3134
2434, 3275, 3276, 3311, 3310, 3100, 3101, 3136, 3135
2435, 3276, 3277, 3312, 3311, 3101, 3102, 3137, 3136
2436, 3277, 3278, 3313, 3312, 3102, 3103, 3138, 3137
2437, 3278, 3279, 3314, 3313, 3103, 3104, 3139, 3138
2438, 3279, 3280, 3315, 3314, 3104, 3105, 3140, 3139
2439, 3280, 3281, 3316, 3315, 3105, 3106, 3141, 3140
2440, 3281, 3282, 3317, 3316, 3106, 3107, 3142, 3141
2441, 3282, 3283, 3318, 3317, 3107, 3108, 3143, 3142
2442, 3283, 3284, 3319, 3318, 3108, 3109, 3144, 3143
2443, 3284, 3285, 3320, 3319, 3109, 3110, 3145, 3144
2444, 3285, 3286, 3321, 3320, 3110, 3111, 3146, 3145
2445, 3286, 3287, 3322, 3321, 3111, 3112, 3147, 3146
2446, 3287, 3288, 3323, 3322, 3112, 3113, 3148, 3147
2447, 3288, 3289, 3324, 3323, 3113, 3114, 3149, 3148
2448, 3289, 3290, 3325, 3324, 3114, 3115, 3150, 3149
2449, 3326, 3327, 3362, 3361, 3151, 3152, 3187, 3186
2450, 3327, 3328, 3363, 3362, 3152, 3153, 3188, 3187
2451, 3328, 3329, 3364, 3363, 3153, 3154, 3189, 3188
2452, 3329, 3330, 3365, 3364, 3154, 3155, 3190, 3189
2453, 3330, 3331, 3366, 3365, 3155, 3156, 3191, 3190
2454, 3331, 3332, 3367, 3366, 3156, 3157, 3192, 3191
2455, 3332, 3333, 3368, 3367, 3157, 3158, 3193, 3192
2456, 3333, 3334, 3369, 3368, 3158, 3159, 3194, 3193
2457, 3334, 3335, 3370, 3369, 3159, 3160, 3195, 3194
2458, 3335, 3336, 3371, 3370, 3160, 3161, 3196, 3195
2459, 3336, 3337, 3372, 3371, 3161, 3162, 3197, 3196
2460, 3337, 3338, 3373, 3372, 3162, 3163, 3198, 3197
2461, 3338, 3339, 3374, 3373, 3163, 3164, 3199, 3198
2462, 3339, 3340, 3375, 3374, 3164, 3165, 3200, 3199
2463, 3340, 3341, 3376, 3375, 3165, 3166, 3201, 3200
2464, 3341, 3342, 3377, 3376, 3166, 3167, 3202, 3201
2465, 3342, 3343, 3378, 3377, 3167, 3168, 3203, 3202
2466, 3343, 3344, 3379, 3378, 3168, 3169, 3204, 3203
2467, 3344, 3345, 3380, 3379, 3169, 3170, 3205, 3204
2468, 3345, 3346, 3381, 3380, 3170, 3171, 3206, 3205
2469, 3346, 3347, 3382, 3381, 3171, 3172, 3207, 3206
2470, 3347, 3348, 3383, 3382, 3172, 3173, 3208, 3207
2471, 3348, 3349, 3384, 3383, 3173, 3174, 3209, 3208
2472, 3349, 3350, 3385, 3384, 3174, 3175, 3210, 3209
2473, 3350, 3351, 3386, 3385, 3175, 3176, 3211, 3210
2474, 3351, 3352, 3387, 3386, 3176, 3177, 3212, 3211
2475, 3352, 3353, 3388, 3387, 3177, 3178, 3213, 3212
2476, 3353, 3354, 3389, 3388, 3178, 3179, 3214, 3213
2477, 3354, 3355, 3390, 3389, 3179, 3180, 3215, 3214
2478, 3355, 3356, 3391, 3390, 3180, 3181, 3216, 3215
2479, 3356, 3357, 3392, 3391, 3181, 3182, 3217, 3216
2480, 3357, 3358, 3393, 3392, 3182, 3183, 3218, 3217
2481, 3358, 3359, 3394, 3393, 3183, 3184, 3219, 3218
2482, 3359, 3360, 3395, 3394, 3184, 3185, 3220, 3219
2483, 3361, 3362, 3397, 3396, 3186, 3187, 3222, 3221
2484, 3362, 3363, 3398, 3397, 3187, 3188, 3223, 3222
2485, 3363, 3364, 3399, 3398, 3188, 3189, 3224, 3223
2486, 3364, 3365, 3400, 3399, 3189, 3190, 3225, 3224
2487, 3365, 3366, 3401, 3400, 3190, 3191, 3226, 3225
2488, 3366, 3367, 3402, 3401, 3191, 3192, 3227, 3226
2489, 3367, 3368, 3403, 3402, 3192, 3193, 3228, 3227
2490, 3368, 3369, 3404, 3403, 3193, 3194, 3229, 3228
2491, 3369, 3370, 3405, 3404, 3194, 3195, 3230, 3229
2492, 3370, 3371, 3406, 3405, 3195, 3196, 3231, 3230
2493, 3371, 3372, 3407, 3406, 3196, 3197, 3232, 3231
2494, 3372, 3373, 3408, 3407, 3197, 3198, 3233, 3232
2495, 3373, 3374, 3409, 3408, 3198, 3199, 3234, 3233
2496, 3374, 3375, 3410, 3409, 3199, 3200, 3235, 3234
2497, 3375, 3376, 3411, 3410, 3200, 3201, 3236, 3235
2498, 3376, 3377, 3412, 3411, 3201, 3202, 3237, 3236
2499, 3377, 3378, 3413, 3412, 3202, 3203, 3238, 3237
2500, 3378, 3379, 3414, 3413, 3203, 3204, 3239, 3238
2501, 3379, 3380, 3415, 3414, 3204, 3205, 3240, 3239
2502, 3380, 3381, 3416, 3415, 3205, 3206, 3241, 3240
2503, 3381, 3382, 3417, 3416, 3206, 3207, 3242, 3241
2504, 3382, 3383, 3418, 3417, 3207, 3208, 3243, 3242
2505, 3383, 3384, 3419, 3418, 3208, 3209, 3244, 3243
2506, 3384, 3385, 3420, 3419, 3209, 3210, 3245, 3244
2507, 3385, 3386, 3421, 3420, 3210, 3211, 3246, 3245
2508, 3386, 3387, 3422, 3421, 3211, 3212, 3247, 3246
2509, 3387, 3388, 3423, 3422, 3212, 3213, 3248, 3247
2510, 3388, 3389, 3424, 3423, 3213, 3214, 3249, 3248
2511, 3389, 3390, 3425, 3424, 3214, 3215, 3250, 3249
2512, 3390, 3391, 3426, 3425, 3215, 3216, 3251, 3250
2513, 3391, 3392, 3427, 3426, 3216, 3217, 3252, 3251
2514, 3392, 3393, 3428, 3427, 3217, 3218, 3253, 3252
2515, 3393, 3394, 3429, 3428, 3218, 3219, 3254, 3253
2516, 3394, 3395, 3430, 3429, 3219, 3220, 3255, 3254
2517, 3396, 3397, 3432, 3431, 3221, 3222, 3257, 3256
2518, 3397, 3398, 3433, 3432, 3222, 3223, 3258, 3257
2519, 3398, 3399, 3434, 3433, 3223, 3224, 3259, 3258
2520, 3399, 3400, 3435, 3434, 3224, 3225, 3260, 3259
2521, 3400, 3401, 3436, 3435, 3225, 3226, 3261, 3260
2522, 3401, 3402, 3437, 3436, 3226, 3227, 3262, 3261
2523, 3402, 3403, 3438, 3437, 3227, 3228, 3263, 3262
2524, 3403, 3404, 3439, 3438, 3228, 3229, 3264, 3263
2525, 3404, 3405, 3440, 3439, 3229, 3230, 3265, 3264
2526, 3405, 3406, 3441, 3440, 3230, 3231, 3266, 3265
2527, 3406, 3407, 3442, 3441, 3231, 3232, 3267, 3266
2528, 3407, 3408, 3443, 3442, 3232, 3233, 3268, 3267
2529, 3408, 3409, 3444, 3443, 3233, 3234, 3269, 3268
2530, 3409, 3410, 3445, 3444, 3234, 3235, 3270, 3269
2531, 3410, 3411, 3446, 3445, 3235, 3236, 3271, 3270
2532, 3411, 3412, 3447, 3446, 3236, 3237, 3272, 3271
2533, 3412, 3413, 3448, 3447, 3237, 3238, 3273, 3272
2534, 3413, 3414, 3449, 3448, 3238, 3239, 3274, 3273
2535, 3414, 3415, 3450, 3449, 3239, 3240, 3275, 3274
2536, 3415, 3416, 3451, 3450, 3240, 3241, 3276, 3275
2537, 3416, 3417, 3452, 3451, 3241, 3242, 3277, 3276
2538, 3417, 3418, 3453, 3452, 3242, 3243, 3278, 3277
2539, 3418, 3419, 3454, 3453, 3243, 3244, 3279, 3278
2540, 3419, 3420, 3455, 3454, 3244, 3245, 3280, 3279
2541, 3420, 3421, 3456, 3455, 3245, 3246, 3281, 3280
2542, 3421, 3422, 3457, 3456, 3246, 3247, 3282, 3281
2543, 3422, 3423, 3458, 3457, 3247, 3248, 3283, 3282
2544, 3423, 3424, 3459, 3458, 3248, 3249, 3284, 3283
2545, 3424, 3425, 3460, 3459, 3249, 3250, 3285, 3284
2546, 3425, 3426, 3461, 3460, 3250, 3251, 3286, 3285
2547, 3426, 3427, 3462, 3461, 3251, 3252, 3287, 3286
2548, 3427, 3428, 3463, 3462, 3252, 3253, 3288, 3287
2549, 3428, 3429, 3464, 3463, 3253, 3254, 3289, 3288
2550, 3429, 3430, 3465, 3464, 3254, 3255, 3290, 3289
2551, 3431, 3432, 3467, 3466, 3256, 3257, 3292, 3291
2552, 3432, 3433, 3468, 3467, 3257, 3258, 3293, 3292
2553, 3433, 3434, 3469, 3468, 3258, 3259, 3294, 3293
2554, 3434, 3435, 3470, 3469, 3259, 3260, 3295, 3294
2555, 3435, 3436, 3471, 3470, 3260, 3261, 3296, 3295
2556, 3436, 3437, 3472, 3471, 3261, 3262, 3297, 3296
2557, 3437, 3438, 3473, 3472, 3262, 3263, 3298, 3297
2558, 3438, 3439, 3474, 3473, 3263, 3264, 3299, 3298
2559, 3439, 3440, 3475, 3474, 3264, 3265, 3300, 3299
2560, 3440, 3441, 3476, 3475, 3265, 3266, 3301, 3300
2561, 3441, 3442, 3477, 3476, 3266, 3267, 3302, 3301
2562, 3442, 3443, 3478, 3477, 3267, 3268, 3303, 3302
2563, 3443, 3444, 3479, 3478, 3268, 3269, 3304, 3303
2564, 3444, 3445, 3480, 3479, 3269, 3270, 3305, 3304
2565, 3445, 3446, 3481, 3480, 3270, 3271, 3306, 3305
2566, 3446, 3447, 3482, 3481, 3271, 3272, 3307, 3306
2567, 3447, 3448, 3483, 3482, 3272, 3273, 3308, 3307
2568, 3448, 3449, 3484, 3483, 3273, 3274, 3309, 3308
2569, 3449, 3450, 3485, 3484, 3274, 3275, 3310, 3309
2570, 3450, 3451, 3486, 3485, 3275, 3276, 3311, 3310
2571, 3451, 3452, 3487, 3486, 3276, 3277, 3312, 3311
2572, 3452, 3453, 3488, 3487, 3277, 3278, 3313, 3312
2573, 3453, 3454, 3489, 3488, 3278, 3279, 3314, 3313
2574, 3454, 3455, 3490, 3489, 3279, 3280, 3315, 3314
2575, 3455, 3456, 3491, 3490, 3280, 3281, 3316, 3315
2576, 3456, 3457, 3492, 3491, 3281, 3282, 3317, 3316
2577, 3457, 3458, 3493, 3492, 3282, 3283, 3318, 3317
2578, 3458, 3459, 3494, 3493, 3283, 3284, 3319, 3318
2579, 3459, 3460, 3495, 3494, 3284, 3285, 3320, 3319
2580, 3460, 3461, 3496, 3495, 3285, 3286, 3321, 3320
2581, 3461, 3462, 3497, 3496, 3286, 3287, 3322, 3321
2582, 3462, 3463, 3498, 3497, 3287, 3288, 3323, 3322
2583, 3463, 3464, 3499, 3498, 3288, 3289, 3324, 3323
2584, 3464, 3465, 3500, 3499, 3289, 3290, 3325, 3324
2585, 3501, 3502, 3537, 3536, 3326, 3327, 3362, 3361
2586, 3502, 3503, 3538, 3537, 3327, 3328, 3363, 3362
2587, 3503, 3504, 3539, 3538, 3328, 3329, 3364, 3363
2588, 3504, 3505, 3540, 3539, 3329, 3330, 3365, 3364
2589, 3505, 3506, 3541, 3540, 3330, 3331, 3366, 3365
2590, 3506, 3507, 3542, 3541, 3331, 3332, 3367, 3366
2591, 3507, 3508, 3543, 3542, 3332, 3333, 3368, 3367
2592, 3508, 3509, 3544, 3543, 3333, 3334, 3369, 3368
2593, 3509, 3510, 3545, 3544, 3334, 3335, 3370, 3369
2594, 3510, 3511, 3546, 3545, 3335, 3336, 3371, 3370
2595, 3511, 3512, 3547, 3546, 3336, 3337, 3372, 3371
2596, 3512, 3513, 3548, 3547, 3337, 3338, 3373, 3372
2597, 3513, 3514, 3549, 3548, 3338, 3339, 3374, 3373
2598, 3514, 3515, 3550, 3549, 3339, 3340, 3375, 3374
2599, 3515, 3516, 3551, 3550, 3340, 3341, 3376, 3375
2600, 3516, 3517, 3552, 3551, 3341, 3342, 3377, 3376
2601, 3517, 3518, 3553, 3552, 3342, 3343, 3378, 3377
2602, 3518, 3519, 3554, 3553, 3343, 3344, 3379, 3378
2603, 3519, 3520, 3555, 3554, 3344, 3345, 3380, 3379
2604, 3520, 3521, 3556, 3555, 3345, 3346, 3381, 3380
2605, 3521, 3522, 3557, 3556, 3346, 3347, 3382, 3381
2606, 3522, 3523, 3558, 3557, 3347, 3348, 3383, 3382
2607, 3523, 3524, 3559, 3558, 3348, 3349, 3384, 3383
2608, 3524, 3525, 3560, 3559, 3349, 3350, 3385, 3384
2609, 3525, 3526, 3561, 3560, 3350, 3351, 3386, 3385
2610, 3526, 3527, 3562, 3561, 3351, 3352, 3387, 3386
2611, 3527, 3528, 3563, 3562, 3352, 3353, 3388, 3387
2612, 3528, 3529, 3564, 3563, 3353, 3354, 3389, 3388
2613, 3529, 3530, 3565, 3564, 3354, 3355, 3390, 3389
2614, 3530, 3531, 3566, 3565, 3355, 3356, 3391, 3390
2615, 3531, 3532, 3567, 3566, 3356, 3357, 3392, 3391
2616, 3532, 3533, 3568, 3567, 3357, 3358, 3393, 3392
2617, 3533, 3534, 3569, 3568, 3358, 3359, 3394, 3393
2618, 3534, 3535, 3570, 3569, 3359, 3360, 3395, 3394
2619, 3536, 3537, 3572, 3571, 3361, 3362, 3397, 3396
2620, 3537, 3538, 3573, 3572, 3362, 3363, 3398, 3397
2621, 3538, 3539, 3574, 3573, 3363, 3364, 3399, 3398
2622, 3539, 3540, 3575, 3574, 3364, 3365, 3400, 3399
2623, 3540, 3541, 3576, 3575, 3365, 3366, 3401, 3400
2624, 3541, 3542, 3577, 3576, 3366, 3367, 3402, 3401
2625, 3542, 3543, 3578, 3577, 3367, 3368, 3403, 3402
2626, 3543, 3544, 3579, 3578, 3368, 3369, 3404, 3403
2627, 3544, 3545, 3580, 3579, 3369, 3370, 3405, 3404
2628, 3545, 3546, 3581, 3580, 3370, 3371, 3406, 3405
2629, 3546, 3547, 3582, 3581, 3371, 3372, 3407, 3406
2630, 3547, 3548, 3583, 3582, 3372, 3373, 3408, 3407
2631, 3548, 3549, 3584, 3583, 3373, 3374, 3409, 3408
2632, 3549, 3550, 3585, 3584, 3374, 3375, 3410, 3409
2633, 3550, 3551, 3586, 3585, 3375, 3376, 3411, 3410
2634, 3551, 3552, 3587, 3586, 3376, 3377, 3412, 3411
2635, 3552, 3553, 3588, 3587, 3377, 3378, 3413, 3412
2636, 3553, 3554, 3589, 3588, 3378, 3379, 3414, 3413
2637, 3554, 3555, 3590, 3589, 3379, 3380, 3415, 3414
2638, 3555, 3556, 3591, 3590, 3380, 3381, 3416, 3415
2639, 3556, 3557, 3592, 3591, 3381, 3382, 3417, 3416
2640, 3557, 3558, 3593, 3592, 3382, 3383, 3418, 3417
2641, 3558, 3559, 3594, 3593, 3383, 3384, 3419, 3418
2642, 3559, 3560, 3595, 3594, 3384, 3385, 3420, 3419
2643, 3560, 3561, 3596, 3595, 3385, 3386, 3421, 3420
2644, 3561, 3562, 3597, 3596, 3386, 3387, 3422, 3421
2645, 3562, 3563, 3598, 3597, 3387, 3388, 3423, 3422
2646, 3563, 3564, 3599, 3598, 3388, 3389, 3424, 3423
2647, 3564, 3565, 3600, 3599, 3389, 3390, 3425, 3424
2648, 3565, 3566, 3601, 3600, 3390, 3391, 3426, 3425
2649, 3566, 3567, 3602, 3601, 3391, 3392, 3427, 3426
2650, 3567, 3568, 3603, 3602, 3392, 3393, 3428, 3427
2651, 3568, 3569, 3604, 3603, 3393, 3394, 3429, 3428
2652, 3569, 3570, 3605, 3604, 3394, 3395, 3430, 3429
2653, 3571, 3572, 3607, 3606, 3396, 3397, 3432, 3431
2654, 3572, 3573, 3608, 3607, 3397, 3398, 3433, 3432
2655, 3573, 3574, 3609, 3608, 3398, 3399, 3434, 3433
2656, 3574, 3575, 3610, 3609, 3399, 3400, 3435, 3434
2657, 3575, 3576, 3611, 3610, 3400, 3401, 3436, 3435
2658, 3576, 3577, 3612, 3611, 3401, 3402, 3437, 3436
2659, 3577, 3578, 3613, 3612, 3402, 3403, 3438, 3437
2660, 3578, 3579, 3614, 3613, 3403, 3404, 3439, 3438
2661, 3579, 3580, 3615, 3614, 3404, 3405, 3440, 3439
2662, 3580, 3581, 3616, 3615, 3405, 3406, 3441, 3440
2663, 3581, 3582, 3617, 3616, 3406, 3407, 3442, 3441
2664, 3582, 3583, 3618, 3617, 3407, 3408, 3443, 3442
2665, 3583, 3584, 3619, 3618, 3408, 3409, 3444, 3443
2666, 3584, 3585, 3620, 3619, 3409, 3410, 3445, 3444
2667, 3585, 3586, 3621, 3620, 3410, 3411, 3446, 3445
2668, 3586, 3587, 3622, 3621, 3411, 3412, 3447, 3446
2669, 3587, 3588, 3623, 3622, 3412, 3413, 3448, 3447
2670, 3588, 3589, 3624, 3623, 3413, 3414, 3449, 3448
2671, 3589, 3590, 3625, 3624, 3414, 3415, 3450, 3449
2672, 3590, 3591, 3626, 3625, 3415, 3416, 3451, 3450
2673, 3591, 3592, 3627, 3626, 3416, 3417, 3452, 3451
2674, 3592, 3593, 3628, 3627, 3417, 3418, 3453, 3452
2675, 3593, 3594, 3629, 3628, 3418, 3419, 3454, 3453
2676, 3594, 3595, 3630, 3629, 3419, 3420, 3455, 3454
2677, 3595, 3596, 3631, 3630, 3420, 3421, 3456, 3455
2678, 3596, 3597, 3632, 3631, 3421, 3422, 3457, 3456
2679, 3597, 3598, 3633, 3632, 3422, 3423, 3458, 3457
2680, 3598, 3599, 3634, 3633, 3423, 3424, 3459, 3458
2681, 3599, 3600, 3635, 3634, 3424, 3425, 3460, 3459
2682, 3600, 3601, 3636, 3635, 3425, 3426, 3461, 3460
2683, 3601, 3602, 3637, 3636, 3426, 3427, 3462, 3461
2684, 3602, 3603, 3638, 3637, 3427, 3428, 3463, 3462
2685, 3603, 3604, 3639, 3638, 3428, 3429, 3464, 3463
2686, 3604, 3605, 3640, 3639, 3429, 3430, 3465, 3464
2687, 3606, 3607, 3642, 3641, 3431, 3432, 3467, 3466
2688, 3607, 3608, 3643, 3642, 3432, 3433, 3468, 3467
2689, 3608, 3609, 3644, 3643, 3433, 3434, 3469, 3468
2690, 3609, 3610, 3645, 3644, 3434, 3435, 3470, 3469
2691, 3610, 3611, 3646, 3645, 3435, 3436, 3471, 3470
2692, 3611, 3612, 3647, 3646, 3436, 3437, 3472, 3471
2693, 3612, 3613, 3648, 3647, 3437, 3438, 3473, 3472
2694, 3613, 3614, 3649, 3648, 3438, 3439, 3474, 3473
2695, 3614, 3615, 3650, 3649, 3439, 3440, 3475, 3474
2696, 3615, 3616, 3651, 3650, 3440, 3441, 3476, 3475
2697, 3616, 3617, 3652, 3651, 3441, 3442, 3477, 3476
2698, 3617, 3618, 3653, 3652, 3442, 3443, 3478, 3477
2699, 3618, 3619, 3654, 3653, 3443, 3444, 3479, 3478
2700, 3619, 3620, 3655, 3654, 3444, 3445, 3480, 3479
2701, 3620, 3621, 3656, 3655, 3445, 3446, 3481, 3480
2702, 3621, 3622, 3657, 3656, 3446, 3447, 3482, 3481
2703, 3622, 3623, 3658, 3657, 3447, 3448, 3483, 3482
2704, 3623, 3624, 3659, 3658, 3448, 3449, 3484, 3483
2705, 3624, 3625, 3660, 3659, 3449, 3450, 3485, 3484
2706, 3625, 3626, 3661, 3660, 3450, 3451, 3486, 3485
2707, 3626, 3627, 3662, 3661, 3451, 3452, 3487, 3486
2708, 3627, 3628, 3663, 3662, 3452, 3453, 3488, 3487
2709, 3628, 3629, 3664, 3663, 3453, 3454, 3489, 3488
2710, 3629, 3630, 3665, 3664, 3454, 3455, 3490, 3489
2711, 3630, 3631, 3666, 3665, 3455, 3456, 3491, 3490
2712, 3631, 3632, 3667, 3666, 3456, 3457, 3492, 3491
2713, 3632, 3633, 3668, 3667, 3457, 3458, 3493, 3492
2714, 3633, 3634, 3669, 3668, 3458, 3459, 3494, 3493
2715, 3634, 3635, 3670, 3669, 3459, 3460, 3495, 3494
2716, 3635, 3636, 3671, 3670, 3460, 3461, 3496, 3495
2717, 3636, 3637, 3672, 3671, 3461, 3462, 3497, 3496
2718, 3637, 3638, 3673, 3672, 3462, 3463, 3498, 3497
2719, 3638, 3639, 3674, 3673, 3463, 3464, 3499, 3498
2720, 3639, 3640, 3675, 3674, 3464, 3465, 3500, 3499
2721, 3676, 3677, 3712, 3711, 3501, 3502, 3537, 3536
2722, 3677, 3678, 3713, 3712, 3502, 3503, 3538, 3537
2723, 3678, 3679, 3714, 3713, 3503, 3504, 3539, 3538
2724, 3679, 3680, 3715, 3714, 3504, 3505, 3540, 3539
2725, 3680, 3681, 3716, 3715, 3505, 3506, 3541, 3540
2726, 3681, 3682, 3717, 3716, 3506, 3507, 3542, 3541
2727, 3682, 3683, 3718, 3717, 3507, 3508, 3543, 3542
2728, 3683, 3684, 3719, 3718, 3508, 3509, 3544, 3543
2729, 3684, 3685, 3720, 3719, 3509, 3510, 3545, 3544
2730, 3685, 3686, 3721, 3720, 3510, 3511, 3546, 3545
2731, 3686, 3687, 3722, 3721, 3511, 3512, 3547, 3546
2732, 3687, 3688, 3723, 3722, 3512, 3513, 3548, 3547
2733, 3688, 3689, 3724, 3723, 3513, 3514, 3549, 3548
2734, 3689, 3690, 3725, 3724, 3514, 3515, 3550, 3549
2735, 3690, 3691, 3726, 3725, 3515, 3516, 3551, 3550
2736, 3691, 3692, 3727, 3726, 3516, 3517, 3552, 3551
2737, 3692, 3693, 3728, 3727, 3517, 3518, 3553, 3552
2738, 3693, 3694, 3729, 3728, 3518, 3519, 3554, 3553
2739, 3694, 3695, 3730, 3729, 3519, 3520, 3555, 3554
2740, 3695, 3696, 3731, 3730, 3520, 3521, 3556, 3555
2741, 3696, 3697, 3732, 3731, 3521, 3522, 3557, 3556
2742, 3697, 3698, 3733, 3732, 3522, 3523, 3558, 3557
2743, 3698, 3699, 3734, 3733, 3523, 3524, 3559, 3558
2744, 3699, 3700, 3735, 3734, 3524, 3525, 3560, 3559
2745, 3700, 3701, 3736, 3735, 3525, 3526, 3561, 3560
2746, 3701, 3702, 3737, 3736, 3526, 3527, 3562, 3561
2747, 3702, 3703, 3738, 3737, 3527, 3528, 3563, 3562
2748, 3703, 3704, 3739, 3738, 3528, 3529, 3564, 3563
2749, 3704, 3705, 3740, 3739, 3529, 3530, 3565, 3564
2750, 3705, 3706, 3741, 3740, 3530, 3531, 3566, 3565
2751, 3706, 3707, 3742, 3741, 3531, 3532, 3567, 3566
2752, 3707, 3708, 3743, 3742, 3532, 3533, 3568, 3567
2753, 3708, 3709, 3744, 3743, 3533, 3534, 3569, 3568
2754, 3709, 3710, 3745, 3744, 3534, 3535, 3570, 3569
2755, 3711, 3712, 3747, 3746, 3536, 3537, 3572, 3571
2756, 3712, 3713, 3748, 3747, 3537, 3538, 3573, 3572
2757, 3713, 3714, 3749, 3748, 3538, 3539, 3574, 3573
2758, 3714, 3715, 3750, 3749, 3539, 3540, 3575, 3574
2759, 3715, 3716, 3751, 3750, 3540, 3541, 3576, 3575
2760, 3716, 3717, 3752, 3751, 3541, 3542, 3577, 3576
2761, 3717, 3718, 3753, 3752, 3542, 3543, 3578, 3577
2762, 3718, 3719, 3754, 3753, 3543, 3544, 3579, 3578
2763, 3719, 3720, 3755, 3754, 3544, 3545, 3580, 3579
2764, 3720, 3721, 3756, 3755, 3545, 3546, 3581, 3580
2765, 3721, 3722, 3757, 3756, 3546, 3547, 3582, 3581
2766, 3722, 3723, 3758, 3757, 3547, 3548, 3583, 3582
2767, 3723, 3724, 3759, 3758, 3548, 3549, 3584, 3583
2768, 3724, 3725, 3760, 3759, 3549, 3550, 3585, 3584
2769, 3725, 3726, 3761, 3760, 3550, 3551, 3586, 3585
2770, 3726, 3727, 3762, 3761, 3551, 3552, 3587, 3586
2771, 3727, 3728, 3763, 3762, 3552, 3553, 3588, 3587
2772, 3728, 3729, 3764, 3763, 3553, 3554, 3589, 3588
2773, 3729, 3730, 3765, 3764, 3554, 3555, 3590, 3589
2774, 3730, 3731, 3766, 3765, 3555, 3556, 3591, 3590
2775, 3731, 3732, 3767, 3766, 3556, 3557, 3592, 3591
2776, 3732, 3733, 3768, 3767, 3557, 3558, 3593, 3592
2777, 3733, 3734, 3769, 3768, 3558, 3559, 3594, 3593
2778, 3734, 3735, 3770, 3769, 3559, 3560, 3595, 3594
2779, 3735, 3736, 3771, 3770, 3560, 3561, 3596, 3595
2780, 3736, 3737, 3772, 3771, 3561, 3562, 3597, 3596
2781, 3737, 3738, 3773, 3772, 3562, 3563, 3598, 3597
2782, 3738, 3739, 3774, 3773, 3563, 3564, 3599, 3598
2783, 3739, 3740, 3775, 3774, 3564, 3565, 3600, 3599
2784, 3740, 3741, 3776, 3775, 3565, 3566, 3601, 3600
2785, 3741, 3742, 3777, 3776, 3566, 3567, 3602, 3601
2786, 3742, 3743, 3778, 3777, 3567, 3568, 3603, 3602
2787, 3743, 3744, 3779, 3778, 3568, 3569, 3604, 3603
2788, 3744, 3745, 3780, 3779, 3569, 3570, 3605, 3604
2789, 3746, 3747, 3782, 3781, 3571, 3572, 3607, 3606
2790, 3747, 3748, 3783, 3782, 3572, 3573, 3608, 3607
2791, 3748, 3749, 3784, 3783, 3573, 3574, 3609, 3608
2792, 3749, 3750, 3785, 3784, 3574, 3575, 3610, 3609
2793, 3750, 3751, 3786, 3785, 3575, 3576, 3611, 3610
2794, 3751, 3752, 3787, 3786, 3576, 3577, 3612, 3611
2795, 3752, 3753, 3788, 3787, 3577, 3578, 3613, 3612
2796, 3753, 3754, 3789, 3788, 3578, 3579, 3614, 3613
2797, 3754, 3755, 3790, 3789, 3579, 3580, 3615, 3614
2798, 3755, 3756, 3791, 3790, 3580, 3581, 3616, 3615
2799, 3756, 3757, 3792, 3791, 3581, 3582, 3617, 3616
2800, 3757, 3758, 3793, 3792, 3582, 3583, 3618, 3617
2801, 3758, 3759, 3794, 3793, 3583, 3584, 3619, 3618
2802, 3759, 3760, 3795, 3794, 3584, 3585, 3620, 3619
2803, 3760, 3761, 3796, 3795, 3585, 3586, 3621, 3620
2804, 3761, 3762, 3797, 3796, 3586, 3587, 3622, 3621
2805, 3762, 3763, 3798, 3797, 3587, 3588, 3623, 3622
2806, 3763, 3764, 3799, 3798, 3588, 3589, 3624, 3623
2807, 3764, 3765, 3800, 3799, 3589, 3590, 3625, 3624
2808, 3765, 3766, 3801, 3800, 3590, 3591, 3626, 3625
2809, 3766, 3767, 3802, 3801, 3591, 3592, 3627, 3626
2810, 3767, 3768, 3803, 3802, 3592, 3593, 3628, 3627
2811, 3768, 3769, 3804, 3803, 3593, 3594, 3629, 3628
2812, 3769, 3770, 3805, 3804, 3594, 3595, 3630, 3629
2813, 3770, 3771, 3806, 3805, 3595, 3596, 3631, 3630
2814, 3771, 3772, 3807, 3806, 3596, 3597, 3632, 3631
2815, 3772, 3773, 3808, 3807, 3597, 3598, 3633, 3632
2816, 3773, 3774, 3809, 3808, 3598, 3599, 3634, 3633
2817, 3774, 3775, 3810, 3809, 3599, 3600, 3635, 3634
2818, 3775, 3776, 3811, 3810, 3600, 3601, 3636, 3635
2819, 3776, 3777, 3812, 3811, 3601, 3602, 3637, 3636
2820, 3777, 3778, 3813, 3812, 3602, 3603, 3638, 3637
2821, 3778, 3779, 3814, 3813, 3603, 3604, 3639, 3638
2822, 3779, 3780, 3815, 3814, 3604, 3605, 3640, 3639
2823, 3781, 3782, 3817, 3816, 3606, 3607, 3642, 3641
2824, 3782, 3783, 3818, 3817, 3607, 3608, 3643, 3642
2825, 3783, 3784, 3819, 3818, 3608, 3609, 3644, 3643
2826, 3784, 3785, 3820, 3819, 3609, 3610, 3645, 3644
2827, 3785, 3786, 3821, 3820, 3610, 3611, 3646, 3645
2828, 3786, 3787, 3822, 3821, 3611, 3612, 3647, 3646
2829, 3787, 3788, 3823, 3822, 3612, 3613, 3648, 3647
2830, 3788, 3789, 3824, 3823, 3613, 3614, 3649, 3648
2831, 3789, 3790, 3825, 3824, 3614, 3615, 3650, 3649
2832, 3790, 3791, 3826, 3825, 3615, 3616, 3651, 3650
2833, 3791, 3792, 3827, 3826, 3616, 3617, 3652, 3651
2834, 3792, 3793, 3828, 3827, 3617, 3618, 3653, 3652
2835, 3793, 3794, 3829, 3828, 3618, 3619, 3654, 3653
2836, 3794, 3795, 3830, 3829, 3619, 3620, 3655, 3654
2837, 3795, 3796, 3831, 3830, 3620, 3621, 3656, 3655
2838, 3796, 3797, 3832, 3831, 3621, 3622, 3657, 3656
2839, 3797, 3798, 3833, 3832, 3622, 3623, 3658, 3657
2840, 3798, 3799, 3834, 3833, 3623, 3624, 3659, 3658
2841, 3799, 3800, 3835, 3834, 3624, 3625, 3660, 3659
2842, 3800, 3801, 3836, 3835, 3625, 3626, 3661, 3660
2843, 3801, 3802, 3837, 3836, 3626, 3627, 3662, 3661
2844, 3802, 3803, 3838, 3837, 3627, 3628, 3663, 3662
2845, 3803, 3804, 3839, 3838, 3628, 3629, 3664, 3663
2846, 3804, 3805, 3840, 3839, 3629, 3630, 3665, 3664
2847, 3805, 3806, 3841, 3840, 3630, 3631, 3666, 3665
2848, 3806, 3807, 3842, 3841, 3631, 3632, 3667, 3666
2849, 3807, 3808, 3843, 3842, 3632, 3633, 3668, 3667
2850, 3808, 3809, 3844, 3843, 3633, 3634, 3669, 3668
2851, 3809, 3810, 3845, 3844, 3634, 3635, 3670, 3669
2852, 3810, 3811, 3846, 3845, 3635, 3636, 3671, 3670
2853, 3811, 3812, 3847, 3846, 3636, 3637, 3672, 3671
2854, 3812, 3813, 3848, 3847, 3637, 3638, 3673, 3672
2855, 3813, 3814, 3849, 3848, 3638, 3639, 3674, 3673
2856, 3814, 3815, 3850, 3849, 3639, 3640, 3675, 3674
2857, 3851, 3852, 3887, 3886, 3676, 3677, 3712, 3711
2858, 3852, 3853, 3888, 3887, 3677, 3678, 3713, 3712
2859, 3853, 3854, 3889, 3888, 3678, 3679, 3714, 3713
2860, 3854, 3855, 3890, 3889, 3679, 3680, 3715, 3714
2861, 3855, 3856, 3891, 3890, 3680, 3681, 3716, 3715
2862, 3856, 3857, 3892, 3891, 3681, 3682, 3717, 3716
2863, 3857, 3858, 3893, 3892, 3682, 3683, 3718, 3717
2864, 3858, 3859, 3894, 3893, 3683, 3684, 3719, 3718
2865, 3859, 3860, 3895, 3894, 3684, 3685, 3720, 3719
2866, 3860, 3861, 3896, 3895, 3685, 3686, 3721, 3720
2867, 3861, 3862, 3897, 3896, 3686, 3687, 3722, 3721
2868, 3862, 3863, 3898, 3897, 3687, 3688, 3723, 3722
2869, 3863, 3864, 3899, 3898, 3688, 3689, 3724, 3723
2870, 3864, 3865, 3900, 3899, 3689, 3690, 3725, 3724
2871, 3865, 3866, 3901, 3900, 3690, 3691, 3726, 3725
2872, 3866, 3867, 3902, 3901, 3691, 3692, 3727, 3726
2873, 3867, 3868, 3903, 3902, 3692, 3693, 3728, 3727
2874, 3868, 3869, 3904, 3903, 3693, 3694, 3729, 3728
2875, 3869, 3870, 3905, 3904, 3694, 3695, 3730, 3729
2876, 3870, 3871, 3906, 3905, 3695, 3696, 3731, 3730
2877, 3871, 3872, 3907, 3906, 3696, 3697, 3732, 3731
2878, 3872, 3873, 3908, 3907, 3697, 3698, 3733, 3732
2879, 3873, 3874, 3909, 3908, 3698, 3699, 3734, 3733
2880, 3874, 3875, 3910, 3909, 3699, 3700, 3735, 3734
2881, 3875, 3876, 3911, 3910, 3700, 3701, 3736, 3735
2882, 3876, 3877, 3912, 3911, 3701, 3702, 3737, 3736
2883, 3877, 3878, 3913, 3912, 3702, 3703, 3738, 3737
2884, 3878, 3879, 3914, 3913, 3703, 3704, 3739, 3738
2885, 3879, 3880, 3915, 3914, 3704, 3705, 3740, 3739
2886, 3880, 3881, 3916, 3915, 3705, 3706, 3741, 3740
2887, 3881, 3882, 3917, 3916, 3706, 3707, 3742, 3741
2888, 3882, 3883, 3918, 3917, 3707, 3708, 3743, 3742
2889, 3883, 3884, 3919, 3918, 3708, 3709, 3744, 3743
2890, 3884, 3885, 3920, 3919, 3709, 3710, 3745, 3744
2891, 3886, 3887, 3922, 3921, 3711, 3712, 3747, 3746
2892, 3887, 3888, 3923, 3922, 3712, 3713, 3748, 3747
2893, 3888, 3889, 3924, 3923, 3713, 3714, 3749, 3748
2894, 3889, 3890, 3925, 3924, 3714, 3715, 3750, 3749
2895, 3890, 3891, 3926, 3925, 3715, 3716, 3751, 3750
2896, 3891, 3892, 3927, 3926, 3716, 3717, 3752, 3751
2897, 3892, 3893, 3928, 3927, 3717, 3718, 3753, 3752
2898, 3893, 3894, 3929, 3928, 3718, 3719, 3754, 3753
2899, 3894, 3895, 3930, 3929, 3719, 3720, 3755, 3754
2900, 3895, 3896, 3931, 3930, 3720, 3721, 3756, 3755
2901, 3896, 3897, 3932, 3931, 3721, 3722, 3757, 3756
2902, 3897, 3898, 3933, 3932, 3722, 3723, 3758, 3757
2903, 3898, 3899, 3934, 3933, 3723, 3724, 3759, 3758
2904, 3899, 3900, 3935, 3934, 3724, 3725, 3760, 3759
2905, 3900, 3901, 3936, 3935, 3725, 3726, 3761, 3760
2906, 3901, 3902, 3937, 3936, 3726, 3727, 3762, 3761
2907, 3902, 3903, 3938, 3937, 3727, 3728, 3763, 3762
2908, 3903, 3904, 3939, 3938, 3728, 3729, 3764, 3763
2909, 3904, 3905, 3940, 3939, 3729, 3730, 3765, 3764
2910, 3905, 3906, 3941, 3940, 3730, 3731, 3766, 3765
2911, 3906, 3907, 3942, 3941, 3731, 3732, 3767, 3766
2912, 3907, 3908, 3943, 3942, 3732, 3733, 3768, 3767
2913, 3908, 3909, 3944, 3943, 3733, 3734, 3769, 3768
2914, 3909, 3910, 3945, 3944, 3734, 3735, 3770, 3769
2915, 3910, 3911, 3946, 3945, 3735, 3736, 3771, 3770
2916, 3911, 3912, 3947, 3946, 3736, 3737, 3772, 3771
2917, 3912, 3913, 3948, 3947, 3737, 3738, 3773, 3772
2918, 3913, 3914, 3949, 3948, 3738, 3739, 3774, 3773
2919, 3914, 3915, 3950, 3949, 3739, 3740, 3775, 3774
2920, 3915, 3916, 3951, 3950, 3740, 3741, 3776, 3775
2921, 3916, 3917, 3952, 3951, 3741, 3742, 3777, 3776
2922, 3917, 3918, 3953, 3952, 3742, 3743, 3778, 3777
2923, 3918, 3919, 3954, 3953, 3743, 3744, 3779, 3778
2924, 3919, 3920, 3955, 3954, 3744, 3745, 3780, 3779
2925, 3921, 3922, 3957, 3956, 3746, 3747, 3782, 3781
2926, 3922, 3923, 3958, 3957, 3747, 3748, 3783, 3782
2927, 3923, 3924, 3959, 3958, 3748, 3749, 3784, 3783
2928, 3924, 3925, 3960, 3959, 3749, 3750, 3785, 3784
2929, 3925, 3926, 3961, 3960, 3750, 3751, 3786, 3785
2930, 3926, 3927, 3962, 3961, 3751, 3752, 3787, 3786
2931, 3927, 3928, 3963, 3962, 3752, 3753, 3788, 3787
2932, 3928, 3929, 3964, 3963, 3753, 3754, 3789, 3788
2933, 3929, 3930, 3965, 3964, 3754, 3755, 3790, 3789
2934, 3930, 3931, 3966, 3965, 3755, 3756, 3791, 3790
2935, 3931, 3932, 3967, 3966, 3756, 3757, 3792, 3791
2936, 3932, 3933, 3968, 3967, 3757, 3758, 3793, 3792
2937, 3933, 3934, 3969, 3968, 3758, 3759, 3794, 3793
2938, 3934, 3935, 3970, 3969, 3759, 3760, 3795, 3794
2939, 3935, 3936, 3971, 3970, 3760, 3761, 3796, 3795
2940, 3936, 3937, 3972, 3971, 3761, 3762, 3797, 3796
2941, 3937, 3938, 3973, 3972, 3762, 3763, 3798, 3797
2942, 3938, 3939, 3974, 3973, 3763, 3764, 3799, 3798
2943, 3939, 3940, 3975, 3974, 3764, 3765, 3800, 3799
2944, 3940, 3941, 3976, 3975, 3765, 3766, 3801, 3800
2945, 3941, 3942, 3977, 3976, 3766, 3767, 3802, 3801
2946, 3942, 3943, 3978, 3977, 3767, 3768, 3803, 3802
2947, 3943, 3944, 3979, 3978, 3768, 3769, 3804, 3803
2948, 3944, 3945, 3980, 3979, 3769, 3770, 3805, 3804
2949, 3945, 3946, 3981, 3980, 3770, 3771, 3806, 3805
2950, 3946, 3947, 3982, 3981, 3771, 3772, 3807, 3806
2951, 3947, 3948, 3983, 3982, 3772, 3773, 3808, 3807
2952, 3948, 3949, 3984, 3983, 3773, 3774, 3809, 3808
2953, 3949, 3950, 3985, 3984, 3774, 3775, 3810, 3809
2954, 3950, 3951, 3986, 3985, 3775, 3776, 3811, 3810
2955, 3951, 3952, 3987, 3986, 3776, 3777, 3812, 3811
2956, 3952, 3953, 3988, 3987, 3777, 3778, 3813, 3812
2957, 3953, 3954, 3989, 3988, 3778, 3779, 3814, 3813
2958, 3954, 3955, 3990, 3989, 3779, 3780, 3815, 3814
2959, 3956, 3957, 3992, 3991, 3781, 3782, 3817, 3816
2960, 3957, 3958, 3993, 3992, 3782, 3783, 3818, 3817
2961, 3958, 3959, 3994, 3993, 3783, 3784, 3819, 3818
2962, 3959, 3960, 3995, 3994, 3784, 3785, 3820, 3819
2963, 3960, 3961, 3996, 3995, 3785, 3786, 3821, 3820
2964, 3961, 3962, 3997, 3996, 3786, 3787, 3822, 3821
2965, 3962, 3963, 3998, 3997, 3787, 3788, 3823, 3822
2966, 3963, 3964, 3999, 3998, 3788, 3789, 3824, 3823
2967, 3964, 3965, 4000, 3999, 3789, 3790, 3825, 3824
2968, 3965, 3966, 4001, 4000, 3790, 3791, 3826, 3825
2969, 3966, 3967, 4002, 4001, 3791, 3792, 3827, 3826
2970, 3967, 3968, 4003, 4002, 3792, 3793, 3828, 3827
2971, 3968, 3969, 4004, 4003, 3793, 3794, 3829, 3828
2972, 3969, 3970, 4005, 4004, 3794, 3795, 3830, 3829
2973, 3970, 3971, 4006, 4005, 3795, 3796, 3831, 3830
2974, 3971, 3972, 4007, 4006, 3796, 3797, 3832, 3831
2975, 3972, 3973, 4008, 4007, 3797, 3798, 3833, 3832
2976, 3973, 3974, 4009, 4008, 3798, 3799, 3834, 3833
2977, 3974, 3975, 4010, 4009, 3799, 3800, 3835, 3834
2978, 3975, 3976, 4011, 4010, 3800, 3801, 3836, 3835
2979, 3976, 3977, 4012, 4011, 3801, 3802, 3837, 3836
2980, 3977, 3978, 4013, 4012, 3802, 3803, 3838, 3837
2981, 3978, 3979, 4014, 4013, 3803, 3804, 3839, 3838
2982, 3979, 3980, 4015, 4014, 3804, 3805, 3840, 3839
2983, 3980, 3981, 4016, 4015, 3805, 3806, 3841, 3840
2984, 3981, 3982, 4017, 4016, 3806, 3807, 3842, 3841
2985, 3982, 3983, 4018, 4017, 3807, 3808, 3843, 3842
2986, 3983, 3984, 4019, 4018, 3808, 3809, 3844, 3843
2987, 3984, 3985, 4020, 4019, 3809, 3810, 3845, 3844
2988, 3985, 3986, 4021, 4020, 3810, 3811, 3846, 3845
2989, 3986, 3987, 4022, 4021, 3811, 3812, 3847, 3846
2990, 3987, 3988, 4023, 4022, 3812, 3813, 3848, 3847
2991, 3988, 3989, 4024, 4023, 3813, 3814, 3849, 3848
2992, 3989, 3990, 4025, 4024, 3814, 3815, 3850, 3849
2993, 4026, 4027, 4062, 4061, 3851, 3852, 3887, 3886
2994, 4027, 4028, 4063, 4062, 3852, 3853, 3888, 3887
2995, 4028, 4029, 4064, 4063, 3853, 3854, 3889, 3888
2996, 4029, 4030, 4065, 4064, 3854, 3855, 3890, 3889
2997, 4030, 4031, 4066, 4065, 3855, 3856, 3891, 3890
2998, 4031, 4032, 4067, 4066, 3856, 3857, 3892, 3891
2999, 4032, 4033, 4068, 4067, 3857, 3858, 3893, 3892
3000, 4033, 4034, 4069, 4068, 3858, 3859, 3894, 3893
3001, 4034, 4035, 4070, 4069, 3859, 3860, 3895, 3894
3002, 4035, 4036, 4071, 4070, 3860, 3861, 3896, 3895
3003, 4036, 4037, 4072, 4071, 3861, 3862, 3897, 3896
3004, 4037, 4038, 4073, 4072, 3862, 3863, 3898, 3897
3005, 4038, 4039, 4074, 4073, 3863, 3864, 3899, 3898
3006, 4039, 4040, 4075, 4074, 3864, 3865, 3900, 3899
3007, 4040, 4041, 4076, 4075, 3865, 3866, 3901, 3900
3008, 4041, 4042, 4077, 4076, 3866, 3867, 3902, 3901
3009, 4042, 4043, 4078, 4077, 3867, 3868, 3903, 3902
3010, 4043, 4044, 4079, 4078, 3868, 3869, 3904, 3903
3011, 4044, 4045, 4080, 4079, 3869, 3870, 3905, 3904
3012, 4045, 4046, 4081, 4080, 3870, 3871, 3906, 3905
3013, 4046, 4047, 4082, 4081, 3871, 3872, 3907, 3906
3014, 4047, 4048, 4083, 4082, 3872, 3873, 3908, 3907
3015, 4048, 4049, 4084, 4083, 3873, 3874, 3909, 3908
3016, 4049, 4050, 4085, 4084, 3874, 3875, 3910, 3909
3017, 4050, 4051, 4086, 4085, 3875, 3876, 3911, 3910
3018, 4051, 4052, 4087, 4086, 3876, 3877, 3912, 3911
3019, 4052, 4053, 4088, 4087, 3877, 3878, 3913, 3912
3020, 4053, 4054, 4089, 4088, 3878, 3879, 3914, 3913
3021, 4054, 4055, 4090, 4089, 3879, 3880, 3915, 3914
3022, 4055, 4056, 4091, 4090, 3880, 3881, 3916, 3915
3023, 4056, 4057, 4092, 4091, 3881, 3882, 3917, 3916
3024, 4057, 4058, 4093, 4092, 3882, 3883, 3918, 3917
3025, 4058, 4059, 4094, 4093, 3883, 3884, 3919, 3918
3026, 4059, 4060, 4095, 4094, 3884, 3885, 3920, 3919
3027, 4061, 4062, 4097, 4096, 3886, 3887, 3922, 3921
3028, 4062, 4063, 4098, 4097, 3887, 3888, 3923, 3922
3029, 4063, 4064, 4099, 4098, 3888, 3889, 3924, 3923
3030, 4064, 4065, 4100, 4099, 3889, 3890, 3925, 3924
3031, 4065, 4066, 4101, 4100, 3890, 3891, 3926, 3925
3032, 4066, 4067, 4102, 4101, 3891, 3892, 3927, 3926
3033, 4067, 4068, 4103, 4102, 3892, 3893, 3928, 3927
3034, 4068, 4069, 4104, 4103, 3893, 3894, 3929, 3928
3035, 4069, 4070, 4105, 4104, 3894, 3895, 3930, 3929
3036, 4070, 4071, 4106, 4105, 3895, 3896, 3931, 3930
3037, 4071, 4072, 4107, 4106, 3896, 3897, 3932, 3931
3038, 4072, 4073, 4108, 4107, 3897, 3898, 3933, 3932
3039, 4073, 4074, 4109, 4108, 3898, 3899, 3934, 3933
3040, 4074, 4075, 4110, 4109, 3899, 3900, 3935, 3934
3041, 4075, 4076, 4111, 4110, 3900, 3901, 3936, 3935
3042, 4076, 4077, 4112, 4111, 3901, 3902, 3937, 3936
3043, 4077, 4078, 4113, 4112, 3902, 3903, 3938, 3937
3044, 4078, 4079, 4114, 4113, 3903, 3904, 3939, 3938
3045, 4079, 4080, 4115, 4114, 3904, 3905, 3940, 3939
3046, 4080, 4081, 4116, 4115, 3905, 3906, 3941, 3940
3047, 4081, 4082, 4117, 4116, 3906, 3907, 3942, 3941
3048, 4082, 4083, 4118, 4117, 3907, 3908, 3943, 3942
3049, 4083, 4084, 4119, 4118, 3908, 3909, 3944, 3943
3050, 4084, 4085, 4120, 4119, 3909, 3910, 3945, 3944
3051, 4085, 4086, 4121, 4120, 3910, 3911, 3946, 3945
3052, 4086, 4087, 4122, 4121, 3911, 3912, 3947, 3946
3053, 4087, 4088, 4123, 4122, 3912, 3913, 3948, 3947
3054, 4088, 4089, 4124, 4123, 3913, 3914, 3949, 3948
3055, 4089, 4090, 4125, 4124, 3914, 3915, 3950, 3949
3056, 4090, 4091, 4126, 4125, 3915, 3916, 3951, 3950
3057, 4091, 4092, 4127, 4126, 3916, 3917, 3952, 3951
3058, 4092, 4093, 4128, 4127, 3917, 3918, 3953, 3952
3059, 4093, 4094, 4129, 4128, 3918, 3919, 3954, 3953
3060, 4094, 4095, 4130, 4129, 3919, 3920, 3955, 3954
3061, 4096, 4097, 4132, 4131, 3921, 3922, 3957, 3956
3062, 4097, 4098, 4133, 4132, 3922, 3923, 3958, 3957
3063, 4098, 4099, 4134, 4133, 3923, 3924, 3959, 3958
3064, 4099, 4100, 4135, 4134, 3924, 3925, 3960, 3959
3065, 4100, 4101, 4136, 4135, 3925, 3926, 3961, 3960
3066, 4101, 4102, 4137, 4136, 3926, 3927, 3962, 3961
3067, 4102, 4103, 4138, 4137, 3927, 3928, 3963, 3962
3068, 4103, 4104, 4139, 4138, 3928, 3929, 3964, 3963
3069, 4104, 4105, 4140, 4139, 3929, 3930, 3965, 3964
3070, 4105, 4106, 4141, 4140, 3930, 3931, 3966, 3965
3071, 4106, 4107, 4142, 4141, 3931, 3932, 3967, 3966
3072, 4107, 4108, 4143, 4142, 3932, 3933, 3968, 3967
3073, 4108, 4109, 4144, 4143, 3933, 3934, 3969, 3968
3074, 4109, 4110, 4145, 4144, 3934, 3935, 3970, 3969
3075, 4110, 4111, 4146, 4145, 3935, 3936, 3971, 3970
3076, 4111, 4112, 4147, 4146, 3936, 3937, 3972, 3971
3077, 4112, 4113, 4148, 4147, 3937, 3938, 3973, 3972
3078, 4113, 4114, 4149, 4148, 3938, 3939, 3974, 3973
3079, 4114, 4115, 4150, 4149, 3939, 3940, 3975, 3974
3080, 4115, 4116, 4151, 4150, 3940, 3941, 3976, 3975
3081, 4116, 4117, 4152, 4151, 3941, 3942, 3977, 3976
3082, 4117, 4118, 4153, 4152, 3942, 3943, 3978, 3977
3083, 4118, 4119, 4154, 4153, 3943, 3944, 3979, 3978
3084, 4119, 4120, 4155, 4154, 3944, 3945, 3980, 3979
3085, 4120, 4121, 4156, 4155, 3945, 3946, 3981, 3980
3086, 4121, 4122, 4157, 4156, 3946, 3947, 3982, 3981
3087, 4122, 4123, 4158, 4157, 3947, 3948, 3983, 3982
3088, 4123, 4124, 4159, 4158, 3948, 3949, 3984, 3983
3089, 4124, 4125, 4160, 4159, 3949, 3950, 3985, 3984
3090, 4125, 4126, 4161, 4160, 3950, 3951, 3986, 3985
3091, 4126, 4127, 4162, 4161, 3951, 3952, 3987, 3986
3092, 4127, 4128, 4163, 4162, 3952, 3953, 3988, 3987
3093, 4128, 4129, 4164, 4163, 3953, 3954, 3989, 3988
3094, 4129, 4130, 4165, 4164, 3954, 3955, 3990, 3989
3095, 4131, 4132, 4167, 4166, 3956, 3957, 3992, 3991
3096, 4132, 4133, 4168, 4167, 3957, 3958, 3993, 3992
3097, 4133, 4134, 4169, 4168, 3958, 3959, 3994, 3993
3098, 4134, 4135, 4170, 4169, 3959, 3960, 3995, 3994
3099, 4135, 4136, 4171, 4170, 3960, 3961, 3996, 3995
3100, 4136, 4137, 4172, 4171, 3961, 3962, 3997, 3996
3101, 4137, 4138, 4173, 4172, 3962, 3963, 3998, 3997
3102, 4138, 4139, 4174, 4173, 3963, 3964, 3999, 3998
3103, 4139, 4140, 4175, 4174, 3964, 3965, 4000, 3999
3104, 4140, 4141, 4176, 4175, 3965, 3966, 4001, 4000
3105, 4141, 4142, 4177, 4176, 3966, 3967, 4002, 4001
3106, 4142, 4143, 4178, 4177, 3967, 3968, 4003, 4002
3107, 4143, 4144, 4179, 4178, 3968, 3969, 4004, 4003
3108, 4144, 4145, 4180, 4179, 3969, 3970, 4005, 4004
3109, 4145, 4146, 4181, 4180, 3970, 3971, 4006, 4005
3110, 4146, 4147, 4182, 4181, 3971, 3972, 4007, 4006
3111, 4147, 4148, 4183, 4182, 3972, 3973, 4008, 4007
3112, 4148, 4149, 4184, 4183, 3973, 3974, 4009, 4008
3113, 4149, 4150, 4185, 4184, 3974, 3975, 4010, 4009
3114, 4150, 4151, 4186, 4185, 3975, 3976, 4011, 4010
3115, 4151, 4152, 4187, 4186, 3976, 3977, 4012, 4011
3116, 4152, 4153, 4188, 4187, 3977, 3978, 4013, 4012
3117, 4153, 4154, 4189, 4188, 3978, 3979, 4014, 4013
3118, 4154, 4155, 4190, 4189, 3979, 3980, 4015, 4014
3119, 4155, 4156, 4191, 4190, 3980, 3981, 4016, 4015
3120, 4156, 4157, 4192, 4191, 3981, 3982, 4017, 4016
3121, 4157, 4158, 4193, 4192, 3982, 3983, 4018, 4017
3122, 4158, 4159, 4194, 4193, 3983, 3984, 4019, 4018
3123, 4159, 4160, 4195, 4194, 3984, 3985, 4020, 4019
3124, 4160, 4161, 4196, 4195, 3985, 3986, 4021, 4020
3125, 4161, 4162, 4197, 4196, 3986, 3987, 4022, 4021
3126, 4162, 4163, 4198, 4197, 3987, 3988, 4023, 4022
3127, 4163, 4164, 4199, 4198, 3988, 3989, 4024, 4023
3128, 4164, 4165, 4200, 4199, 3989, 3990, 4025, 4024
3129, 4201, 4202, 4237, 4236, 4026, 4027, 4062, 4061
3130, 4202, 4203, 4238, 4237, 4027, 4028, 4063, 4062
3131, 4203, 4204, 4239, 4238, 4028, 4029, 4064, 4063
3132, 4204, 4205, 4240, 4239, 4029, 4030, 4065, 4064
3133, 4205, 4206, 4241, 4240, 4030, 4031, 4066, 4065
3134, 4206, 4207, 4242, 4241, 4031, 4032, 4067, 4066
3135, 4207, 4208, 4243, 4242, 4032, 4033, 4068, 4067
3136, 4208, 4209, 4244, 4243, 4033, 4034, 4069, 4068
3137, 4209, 4210, 4245, 4244, 4034, 4035, 4070, 4069
3138, 4210, 4211, 4246, 4245, 4035, 4036, 4071, 4070
3139, 4211, 4212, 4247, 4246, 4036, 4037, 4072, 4071
3140, 4212, 4213, 4248, 4247, 4037, 4038, 4073, 4072
3141, 4213, 4214, 4249, 4248, 4038, 4039, 4074, 4073
3142, 4214, 4215, 4250, 4249, 4039, 4040, 4075, 4074
3143, 4215, 4216, 4251, 4250, 4040, 4041, 4076, 4075
3144, 4216, 4217, 4252, 4251, 4041, 4042, 4077, 4076
3145, 4217, 4218, 4253, 4252, 4042, 4043, 4078, 4077
3146, 4218, 4219, 4254, 4253, 4043, 4044, 4079, 4078
3147, 4219, 4220, 4255, 4254, 4044, 4045, 4080, 4079
3148, 4220, 4221, 4256, 4255, 4045, 4046, 4081, 4080
3149, 4221, 4222, 4257, 4256, 4046, 4047, 4082, 4081
3150, 4222, 4223, 4258, 4257, 4047, 4048, 4083, 4082
3151, 4223, 4224, 4259, 4258, 4048, 4049, 4084, 4083
3152, 4224, 4225, 4260, 4259, 4049, 4050, 4085, 4084
3153, 4225, 4226, 4261, 4260, 4050, 4051, 4086, 4085
3154, 4226, 4227, 4262, 4261, 4051, 4052, 4087, 4086
3155, 4227, 4228, 4263, 4262, 4052, 4053, 4088, 4087
3156, 4228, 4229, 4264, 4263, 4053, 4054, 4089, 4088
3157, 4229, 4230, 4265, 4264, 4054, 4055, 4090, 4089
3158, 4230, 4231, 4266, 4265, 4055, 4056, 4091, 4090
3159, 4231, 4232, 4267, 4266, 4056, 4057, 4092, 4091
3160, 4232, 4233, 4268, 4267, 4057, 4058, 4093, 4092
3161, 4233, 4234, 4269, 4268, 4058, 4059, 4094, 4093
3162, 4234, 4235, 4270, 4269, 4059, 4060, 4095, 4094
3163, 4236, 4237, 4272, 4271, 4061, 4062, 4097, 4096
3164, 4237, 4238, 4273, 4272, 4062, 4063, 4098, 4097
3165, 4238, 4239, 4274, 4273, 4063, 4064, 4099, 4098
3166, 4239, 4240, 4275, 4274, 4064, 4065, 4100, 4099
3167, 4240, 4241, 4276, 4275, 4065, 4066, 4101, 4100
3168, 4241, 4242, 4277, 4276, 4066, 4067, 4102, 4101
3169, 4242, 4243, 4278, 4277, 4067, 4068, 4103, 4102
3170, 4243, 4244, 4279, 4278, 4068, 4069, 4104, 4103
3171, 4244, 4245, 4280, 4279, 4069, 4070, 4105, 4104
3172, 4245, 4246, 4281, 4280, 4070, 4071, 4106, 4105
3173, 4246, 4247, 4282, 4281, 4071, 4072, 4107, 4106
3174, 4247, 4248, 4283, 4282, 4072, 4073, 4108, 4107
3175, 4248, 4249, 4284, 4283, 4073, 4074, 4109, 4108
3176, 4249, 4250, 4285, 4284, 4074, 4075, 4110, 4109
3177, 4250, 4251, 4286, 4285, 4075, 4076, 4111, 4110
3178, 4251, 4252, 4287, 4286, 4076, 4077, 4112, 4111
3179, 4252, 4253, 4288, 4287, 4077, 4078, 4113, 4112
3180, 4253, 4254, 4289, 4288, 4078, 4079, 4114, 4113
3181, 4254, 4255, 4290, 4289, 4079, 4080, 4115, 4114
3182, 4255, 4256, 4291, 4290, 4080, 4081, 4116, 4115
3183, 4256, 4257, 4292, 4291, 4081, 4082, 4117, 4116
3184, 4257, 4258, 4293, 4292, 4082, 4083, 4118, 4117
3185, 4258, 4259, 4294, 4293, 4083, 4084, 4119, 4118
3186, 4259, 4260, 4295, 4294, 4084, 4085, 4120, 4119
3187, 4260, 4261, 4296, 4295, 4085, 4086, 4121, 4120
3188, 4261, 4262, 4297, 4296, 4086, 4087, 4122, 4121
3189, 4262, 4263, 4298, 4297, 4087, 4088, 4123, 4122
3190, 4263, 4264, 4299, 4298, 4088, 4089, 4124, 4123
3191, 4264, 4265, 4300, 4299, 4089, 4090, 4125, 4124
3192, 4265, 4266, 4301, 4300, 4090, 4091, 4126, 4125
3193, 4266, 4267, 4302, 4301, 4091, 4092, 4127, 4126
3194, 4267, 4268, 4303, 4302, 4092, 4093, 4128, 4127
3195, 4268, 4269, 4304, 4303, 4093, 4094, 4129, 4128
3196, 4269, 4270, 4305, 4304, 4094, 4095, 4130, 4129
3197, 4271, 4272, 4307, 4306, 4096, 4097, 4132, 4131
3198, 4272, 4273, 4308, 4307, 4097, 4098, 4133, 4132
3199, 4273, 4274, 4309, 4308, 4098, 4099, 4134, 4133
3200, 4274, 4275, 4310, 4309, 4099, 4100, 4135, 4134
3201, 4275, 4276, 4311, 4310, 4100, 4101, 4136, 4135
3202, 4276, 4277, 4312, 4311, 4101, 4102, 4137, 4136
3203, 4277, 4278, 4313, 4312, 4102, 4103, 4138, 4137
3204, 4278, 4279, 4314, 4313, 4103, 4104, 4139, 4138
3205, 4279, 4280, 4315, 4314, 4104, 4105, 4140, 4139
3206, 4280, 4281, 4316, 4315, 4105, 4106, 4141, 4140
3207, 4281, 4282, 4317, 4316, 4106, 4107, 4142, 4141
3208, 4282, 4283, 4318, 4317, 4107, 4108, 4143, 4142
3209, 4283, 4284, 4319, 4318, 4108, 4109, 4144, 4143
3210, 4284, 4285, 4320, 4319, 4109, 4110, 4145, 4144
3211, 4285, 4286, 4321, 4320, 4110, 4111, 4146, 4145
3212, 4286, 4287, 4322, 4321, 4111, 4112, 4147, 4146
3213, 4287, 4288, 4323, 4322, 4112, 4113, 4148, 4147
3214, 4288, 4289, 4324, 4323, 4113, 4114, 4149, 4148
3215, 4289, 4290, 4325, 4324, 4114, 4115, 4150, 4149
3216, 4290, 4291, 4326, 4325, 4115, 4116, 4151, 4150
3217, 4291, 4292, 4327, 4326, 4116, 4117, 4152, 4151
3218, 4292, 4293, 4328, 4327, 4117, 4118, 4153, 4152
3219, 4293, 4294, 4329, 4328, 4118, 4119, 4154, 4153
3220, 4294, 4295, 4330, 4329, 4119, 4120, 4155, 4154
3221, 4295, 4296, 4331, 4330, 4120, 4121, 4156, 4155
3222, 4296, 4297, 4332, 4331, 4121, 4122, 4157, 4156
3223, 4297, 4298, 4333, 4332, 4122, 4123, 4158, 4157
3224, 4298, 4299, 4334, 4333, 4123, 4124, 4159, 4158
3225, 4299, 4300, 4335, 4334, 4124, 4125, 4160, 4159
3226, 4300, 4301, 4336, 4335, 4125, 4126, 4161, 4160
3227, 4301, 4302, 4337, 4336, 4126, 4127, 4162, 4161
3228, 4302, 4303, 4338, 4337, 4127, 4128, 4163, 4162
3229, 4303, 4304, 4339, 4338, 4128, 4129, 4164, 4163
3230, 4304, 4305, 4340, 4339, 4129, 4130, 4165, 4164
3231, 4306, 4307, 4342, 4341, 4131, 4132, 4167, 4166
3232, 4307, 4308, 4343, 4342, 4132, 4133, 4168, 4167
3233, 4308, 4309, 4344, 4343, 4133, 4134, 4169, 4168
3234, 4309, 4310, 4345, 4344, 4134, 4135, 4170, 4169
3235, 4310, 4311, 4346, 4345, 4135, 4136, 4171, 4170
3236, 4311, 4312, 4347, 4346, 4136, 4137, 4172, 4171
3237, 4312, 4313, 4348, 4347, 4137, 4138, 4173, 4172
3238, 4313, 4314, 4349, 4348, 4138, 4139, 4174, 4173
3239, 4314, 4315, 4350, 4349, 4139, 4140, 4175, 4174
3240, 4315, 4316, 4351, 4350, 4140, 4141, 4176, 4175
3241, 4316, 4317, 4352, 4351, 4141, 4142, 4177, 4176
3242, 4317, 4318, 4353, 4352, 4142, 4143, 4178, 4177
3243, 4318, 4319, 4354, 4353, 4143, 4144, 4179, 4178
3244, 4319, 4320, 4355, 4354, 4144, 4145, 4180, 4179
3245, 4320, 4321, 4356, 4355, 4145, 4146, 4181, 4180
3246, 4321, 4322, 4357, 4356, 4146, 4147, 4182, 4181
3247, 4322, 4323, 4358, 4357, 4147, 4148, 4183, 4182
3248, 4323, 4324, 4359, 4358, 4148, 4149, 4184, 4183
3249, 4324, 4325, 4360, 4359, 4149, 4150, 4185, 4184
3250, 4325, 4326, 4361, 4360, 4150, 4151, 4186, 4185
3251, 4326, 4327, 4362, 4361, 4151, 4152, 4187, 4186
3252, 4327, 4328, 4363, 4362, 4152, 4153, 4188, 4187
3253, 4328, 4329, 4364, 4363, 4153, 4154, 4189, 4188
3254, 4329, 4330, 4365, 4364, 4154, 4155, 4190, 4189
3255, 4330, 4331, 4366, 4365, 4155, 4156, 4191, 4190
3256, 4331, 4332, 4367, 4366, 4156, 4157, 4192, 4191
3257, 4332, 4333, 4368, 4367, 4157, 4158, 4193, 4192
3258, 4333, 4334, 4369, 4368, 4158, 4159, 4194, 4193
3259, 4334, 4335, 4370, 4369, 4159, 4160, 4195, 4194
3260, 4335, 4336, 4371, 4370, 4160, 4161, 4196, 4195
3261, 4336, 4337, 4372, 4371, 4161, 4162, 4197, 4196
3262, 4337, 4338, 4373, 4372, 4162, 4163, 4198, 4197
3263, 4338, 4339, 4374, 4373, 4163, 4164, 4199, 4198
3264, 4339, 4340, 4375, 4374, 4164, 4165, 4200, 4199
3265, 4376, 4377, 4412, 4411, 4201, 4202, 4237, 4236
3266, 4377, 4378, 4413, 4412, 4202, 4203, 4238, 4237
3267, 4378, 4379, 4414, 4413, 4203, 4204, 4239, 4238
3268, 4379, 4380, 4415, 4414, 4204, 4205, 4240, 4239
3269, 4380, 4381, 4416, 4415, 4205, 4206, 4241, 4240
3270, 4381, 4382, 4417, 4416, 4206, 4207, 4242, 4241
3271, 4382, 4383, 4418, 4417, 4207, 4208, 4243, 4242
3272, 4383, 4384, 4419, 4418, 4208, 4209, 4244, 4243
3273, 4384, 4385, 4420, 4419, 4209, 4210, 4245, 4244
3274, 4385, 4386, 4421, 4420, 4210, 4211, 4246, 4245
3275, 4386, 4387, 4422, 4421, 4211, 4212, 4247, 4246
3276, 4387, 4388, 4423, 4422, 4212, 4213, 4248, 4247
3277, 4388, 4389, 4424, 4423, 4213, 4214, 4249, 4248
3278, 4389, 4390, 4425, 4424, 4214, 4215, 4250, 4249
3279, 4390, 4391, 4426, 4425, 4215, 4216, 4251, 4250
3280, 4391, 4392, 4427, 4426, 4216, 4217, 4252, 4251
3281, 4392, 4393, 4428, 4427, 4217, 4218, 4253, 4252
3282, 4393, 4394, 4429, 4428, 4218, 4219, 4254, 4253
3283, 4394, 4395, 4430, 4429, 4219, 4220, 4255, 4254
3284, 4395, 4396, 4431, 4430, 4220, 4221, 4256, 4255
3285, 4396, 4397, 4432, 4431, 4221, 4222, 4257, 4256
3286, 4397, 4398, 4433, 4432, 4222, 4223, 4258, 4257
3287, 4398, 4399, 4434, 4433, 4223, 4224, 4259, 4258
3288, 4399, 4400, 4435, 4434, 4224, 4225, 4260, 4259
3289, 4400, 4401, 4436, 4435, 4225, 4226, 4261, 4260
3290, 4401, 4402, 4437, 4436, 4226, 4227, 4262, 4261
3291, 4402, 4403, 4438, 4437, 4227, 4228, 4263, 4262
3292, 4403, 4404, 4439, 4438, 4228, 4229, 4264, 4263
3293, 4404, 4405, 4440, 4439, 4229, 4230, 4265, 4264
3294, 4405, 4406, 4441, 4440, 4230, 4231, 4266, 4265
3295, 4406, 4407, 4442, 4441, 4231, 4232, 4267, 4266
3296, 4407, 4408, 4443, 4442, 4232, 4233, 4268, 4267
3297, 4408, 4409, 4444, 4443, 4233, 4234, 4269, 4268
3298, 4409, 4410, 4445, 4444, 4234, 4235, 4270, 4269
3299, 4411, 4412, 4447, 4446, 4236, 4237, 4272, 4271
3300, 4412, 4413, 4448, 4447, 4237, 4238, 4273, 4272
3301, 4413, 4414, 4449, 4448, 4238, 4239, 4274, 4273
3302, 4414, 4415, 4450, 4449, 4239, 4240, 4275, 4274
3303, 4415, 4416, 4451, 4450, 4240, 4241, 4276, 4275
3304, 4416, 4417, 4452, 4451, 4241, 4242, 4277, 4276
3305, 4417, 4418, 4453, 4452, 4242, 4243, 4278, 4277
3306, 4418, 4419, 4454, 4453, 4243, 4244, 4279, 4278
3307, 4419, 4420, 4455, 4454, 4244, 4245, 4280, 4279
3308, 4420, 4421, 4456, 4455, 4245, 4246, 4281, 4280
3309, 4421, 4422, 4457, 4456, 4246, 4247, 4282, 4281
3310, 4422, 4423, 4458, 4457, 4247, 4248, 4283, 4282
3311, 4423, 4424, 4459, 4458, 4248, 4249, 4284, 4283
3312, 4424, 4425, 4460, 4459, 4249, 4250, 4285, 4284
3313, 4425, 4426, 4461, 4460, 4250, 4251, 4286, 4285
3314, 4426, 4427, 4462, 4461, 4251, 4252, 4287, 4286
3315, 4427, 4428, 4463, 4462, 4252, 4253, 4288, 4287
3316, 4428, 4429, 4464, 4463, 4253, 4254, 4289, 4288
3317, 4429, 4430, 4465, 4464, 4254, 4255, 4290, 4289
3318, 4430, 4431, 4466, 4465, 4255, 4256, 4291, 4290
3319, 4431, 4432, 4467, 4466, 4256, 4257, 4292, 4291
3320, 4432, 4433, 4468, 4467, 4257, 4258, 4293, 4292
3321, 4433, 4434, 4469, 4468, 4258, 4259, 4294, 4293
3322, 4434, 4435, 4470, 4469, 4259, 4260, 4295, 4294
3323, 4435, 4436, 4471, 4470, 4260, 4261, 4296, 4295
3324, 4436, 4437, 4472, 4471, 4261, 4262, 4297, 4296
3325, 4437, 4438, 4473, 4472, 4262, 4263, 4298, 4297
3326, 4438, 4439, 4474, 4473, 4263, 4264, 4299, 4298
3327, 4439, 4440, 4475, 4474, 4264, 4265, 4300, 4299
3328, 4440, 4441, 4476, 4475, 4265, 4266, 4301, 4300
3329, 4441, 4442, 4477, 4476, 4266, 4267, 4302, 4301
3330, 4442, 4443, 4478, 4477, 4267, 4268, 4303, 4302
3331, 4443, 4444, 4479, 4478, 4268, 4269, 4304, 4303
3332, 4444, 4445, 4480, 4479, 4269, 4270, 4305, 4304
3333, 4446, 4447, 4482, 4481, 4271, 4272, 4307, 4306
3334, 4447, 4448, 4483, 4482, 4272, 4273, 4308, 4307
3335, 4448, 4449, 4484, 4483, 4273, 4274, 4309, 4308
3336, 4449, 4450, 4485, 4484, 4274, 4275, 4310, 4309
3337, 4450, 4451, 4486, 4485, 4275, 4276, 4311, 4310
3338, 4451, 4452, 4487, 4486, 4276, 4277, 4312, 4311
3339, 4452, 4453, 4488, 4487, 4277, 4278, 4313, 4312
3340, 4453, 4454, 4489, 4488, 4278, 4279, 4314, 4313
3341, 4454, 4455, 4490, 4489, 4279, 4280, 4315, 4314
3342, 4455, 4456, 4491, 4490, 4280, 4281, 4316, 4315
3343, 4456, 4457, 4492, 4491, 4281, 4282, 4317, 4316
3344, 4457, 4458, 4493, 4492, 4282, 4283, 4318, 4317
3345, 4458, 4459, 4494, 4493, 4283, 4284, 4319, 4318
3346, 4459, 4460, 4495, 4494, 4284, 4285, 4320, 4319
3347, 4460, 4461, 4496, 4495, 4285, 4286, 4321, 4320
3348, 4461, 4462, 4497, 4496, 4286, 4287, 4322, 4321
3349, 4462, 4463, 4498, 4497, 4287, 4288, 4323, 4322
3350, 4463, 4464, 4499, 4498, 4288, 4289, 4324, 4323
3351, 4464, 4465, 4500, 4499, 4289, 4290, 4325, 4324
3352, 4465, 4466, 4501, 4500, 4290, 4291, 4326, 4325
3353, 4466, 4467, 4502, 4501, 4291, 4292, 4327, 4326
3354, 4467, 4468, 4503, 4502, 4292, 4293, 4328, 4327
3355, 4468, 4469, 4504, 4503, 4293, 4294, 4329, 4328
3356, 4469, 4470, 4505, 4504, 4294, 4295, 4330, 4329
3357, 4470, 4471, 4506, 4505, 4295, 4296, 4331, 4330
3358, 4471, 4472, 4507, 4506, 4296, 4297, 4332, 4331
3359, 4472, 4473, 4508, 4507, 4297, 4298, 4333, 4332
3360, 4473, 4474, 4509, 4508, 4298, 4299, 4334, 4333
3361, 4474, 4475, 4510, 4509, 4299, 4300, 4335, 4334
3362, 4475, 4476, 4511, 4510, 4300, 4301, 4336, 4335
3363, 4476, 4477, 4512, 4511, 4301, 4302, 4337, 4336
3364, 4477, 4478, 4513, 4512, 4302, 4303, 4338, 4337
3365, 4478, 4479, 4514, 4513, 4303, 4304, 4339, 4338
3366, 4479, 4480, 4515, 4514, 4304, 4305, 4340, 4339
3367, 4481, 4482, 4517, 4516, 4306, 4307, 4342, 4341
3368, 4482, 4483, 4518, 4517, 4307, 4308, 4343, 4342
3369, 4483, 4484, 4519, 4518, 4308, 4309, 4344, 4343
3370, 4484, 4485, 4520, 4519, 4309, 4310, 4345, 4344
3371, 4485, 4486, 4521, 4520, 4310, 4311, 4346, 4345
3372, 4486, 4487, 4522, 4521, 4311, 4312, 4347, 4346
3373, 4487, 4488, 4523, 4522, 4312, 4313, 4348, 4347
3374, 4488, 4489, 4524, 4523, 4313, 4314, 4349, 4348
3375, 4489, 4490, 4525, 4524, 4314, 4315, 4350, 4349
3376, 4490, 4491, 4526, 4525, 4315, 4316, 4351, 4350
3377, 4491, 4492, 4527, 4526, 4316, 4317, 4352, 4351
3378, 4492, 4493, 4528, 4527, 4317, 4318, 4353, 4352
3379, 4493, 4494, 4529, 4528, 4318, 4319, 4354, 4353
3380, 4494, 4495, 4530, 4529, 4319, 4320, 4355, 4354
3381, 4495, 4496, 4531, 4530, 4320, 4321, 4356, 4355
3382, 4496, 4497, 4532, 4531, 4321, 4322, 4357, 4356
3383, 4497, 4498, 4533, 4532, 4322, 4323, 4358, 4357
3384, 4498, 4499, 4534, 4533, 4323, 4324, 4359, 4358
3385, 4499, 4500, 4535, 4534, 4324, 4325, 4360, 4359
3386, 4500, 4501, 4536, 4535, 4325, 4326, 4361, 4360
3387, 4501, 4502, 4537, 4536, 4326, 4327, 4362, 4361
3388, 4502, 4503, 4538, 4537, 4327, 4328, 4363, 4362
3389, 4503, 4504, 4539, 4538, 4328, 4329, 4364, 4363
3390, 4504, 4505, 4540, 4539, 4329, 4330, 4365, 4364
3391, 4505, 4506, 4541, 4540, 4330, 4331, 4366, 4365
3392, 4506, 4507, 4542, 4541, 4331, 4332, 4367, 4366
3393, 4507, 4508, 4543, 4542, 4332, 4333, 4368, 4367
3394, 4508, 4509, 4544, 4543, 4333, 4334, 4369, 4368
3395, 4509, 4510, 4545, 4544, 4334, 4335, 4370, 4369
3396, 4510, 4511, 4546, 4545, 4335, 4336, 4371, 4370
3397, 4511, 4512, 4547, 4546, 4336, 4337, 4372, 4371
3398, 4512, 4513, 4548, 4547, 4337, 4338, 4373, 4372
3399, 4513, 4514, 4549, 4548, 4338, 4339, 4374, 4373
3400, 4514, 4515, 4550, 4549, 4339, 4340, 4375, 4374
3401, 4551, 4552, 4587, 4586, 4376, 4377, 4412, 4411
3402, 4552, 4553, 4588, 4587, 4377, 4378, 4413, 4412
3403, 4553, 4554, 4589, 4588, 4378, 4379, 4414, 4413
3404, 4554, 4555, 4590, 4589, 4379, 4380, 4415, 4414
3405, 4555, 4556, 4591, 4590, 4380, 4381, 4416, 4415
3406, 4556, 4557, 4592, 4591, 4381, 4382, 4417, 4416
3407, 4557, 4558, 4593, 4592, 4382, 4383, 4418, 4417
3408, 4558, 4559, 4594, 4593, 4383, 4384, 4419, 4418
3409, 4559, 4560, 4595, 4594, 4384, 4385, 4420, 4419
3410, 4560, 4561, 4596, 4595, 4385, 4386, 4421, 4420
3411, 4561, 4562, 4597, 4596, 4386, 4387, 4422, 4421
3412, 4562, 4563, 4598, 4597, 4387, 4388, 4423, 4422
3413, 4563, 4564, 4599, 4598, 4388, 4389, 4424, 4423
3414, 4564, 4565, 4600, 4599, 4389, 4390, 4425, 4424
3415, 4565, 4566, 4601, 4600, 4390, 4391, 4426, 4425
3416, 4566, 4567, 4602, 4601, 4391, 4392, 4427, 4426
3417, 4567, 4568, 4603, 4602, 4392, 4393, 4428, 4427
3418, 4568, 4569, 4604, 4603, 4393, 4394, 4429, 4428
3419, 4569, 4570, 4605, 4604, 4394, 4395, 4430, 4429
3420, 4570, 4571, 4606, 4605, 4395, 4396, 4431, 4430
3421, 4571, 4572, 4607, 4606, 4396, 4397, 4432, 4431
3422, 4572, 4573, 4608, 4607, 4397, 4398, 4433, 4432
3423, 4573, 4574, 4609, 4608, 4398, 4399, 4434, 4433
3424, 4574, 4575, 4610, 4609, 4399, 4400, 4435, 4434
3425, 4575, 4576, 4611, 4610, 4400, 4401, 4436, 4435
3426, 4576, 4577, 4612, 4611, 4401, 4402, 4437, 4436
3427, 4577, 4578, 4613, 4612, 4402, 4403, 4438, 4437
3428, 4578, 4579, 4614, 4613, 4403, 4404, 4439, 4438
3429, 4579, 4580, 4615, 4614, 4404, 4405, 4440, 4439
3430, 4580, 4581, 4616, 4615, 4405, 4406, 4441, 4440
3431, 4581, 4582, 4617, 4616, 4406, 4407, 4442, 4441
3432, 4582, 4583, 4618, 4617, 4407, 4408, 4443, 4442
3433, 4583, 4584, 4619, 4618, 4408, 4409, 4444, 4443
3434, 4584, 4585, 4620, 4619, 4409, 4410, 4445, 4444
3435, 4586, 4587, 4622, 4621, 4411, 4412, 4447, 4446
3436, 4587, 4588, 4623, 4622, 4412, 4413, 4448, 4447
3437, 4588, 4589, 4624, 4623, 4413, 4414, 4449, 4448
3438, 4589, 4590, 4625, 4624, 4414, 4415, 4450, 4449
3439, 4590, 4591, 4626, 4625, 4415, 4416, 4451, 4450
3440, 4591, 4592, 4627, 4626, 4416, 4417, 4452, 4451
3441, 4592, 4593, 4628, 4627, 4417, 4418, 4453, 4452
3442, 4593, 4594, 4629, 4628, 4418, 4419, 4454, 4453
3443, 4594, 4595, 4630, 4629, 4419, 4420, 4455, 4454
3444, 4595, 4596, 4631, 4630, 4420, 4421, 4456, 4455
3445, 4596, 4597, 4632, 4631, 4421, 4422, 4457, 4456
3446, 4597, 4598, 4633, 4632, 4422, 4423, 4458, 4457
3447, 4598, 4599, 4634, 4633, 4423, 4424, 4459, 4458
3448, 4599, 4600, 4635, 4634, 4424, 4425, 4460, 4459
3449, 4600, 4601, 4636, 4635, 4425, 4426, 4461, 4460
3450, 4601, 4602, 4637, 4636, 4426, 4427, 4462, 4461
3451, 4602, 4603, 4638, 4637, 4427, 4428, 4463, 4462
3452, 4603, 4604, 4639, 4638, 4428, 4429, 4464, 4463
3453, 4604, 4605, 4640, 4639, 4429, 4430, 4465, 4464
3454, 4605, 4606, 4641, 4640, 4430, 4431, 4466, 4465
3455, 4606, 4607, 4642, 4641, 4431, 4432, 4467, 4466
3456, 4607, 4608, 4643, 4642, 4432, 4433, 4468, 4467
3457, 4608, 4609, 4644, 4643, 4433, 4434, 4469, 4468
3458, 4609, 4610, 4645, 4644, 4434, 4435, 4470, 4469
3459, 4610, 4611, 4646, 4645, 4435, 4436, 4471, 4470
3460, 4611, 4612, 4647, 4646, 4436, 4437, 4472, 4471
3461, 4612, 4613, 4648, 4647, 4437, 4438, 4473, 4472
3462, 4613, 4614, 4649, 4648, 4438, 4439, 4474, 4473
3463, 4614, 4615, 4650, 4649, 4439, 4440, 4475, 4474
3464, 4615, 4616, 4651, 4650, 4440, 4441, 4476, 4475
3465, 4616, 4617, 4652, 4651, 4441, 4442, 4477, 4476
3466, 4617, 4618, 4653, 4652, 4442, 4443, 4478, 4477
3467, 4618, 4619, 4654, 4653, 4443, 4444, 4479, 4478
3468, 4619, 4620, 4655, 4654, 4444, 4445, 4480, 4479
3469, 4621, 4622, 4657, 4656, 4446, 4447, 4482, 4481
3470, 4622, 4623, 4658, 4657, 4447, 4448, 4483, 4482
3471, 4623, 4624, 4659, 4658, 4448, 4449, 4484, 4483
3472, 4624, 4625, 4660, 4659, 4449, 4450, 4485, 4484
3473, 4625, 4626, 4661, 4660, 4450, 4451, 4486, 4485
3474, 4626, 4627, 4662, 4661, 4451, 4452, 4487, 4486
3475, 4627, 4628, 4663, 4662, 4452, 4453, 4488, 4487
3476, 4628, 4629, 4664, 4663, 4453, 4454, 4489, 4488
3477, 4629, 4630, 4665, 4664, 4454, 4455, 4490, 4489
3478, 4630, 4631, 4666, 4665, 4455, 4456, 4491, 4490
3479, 4631, 4632, 4667, 4666, 4456, 4457, 4492, 4491
3480, 4632, 4633, 4668, 4667, 4457, 4458, 4493, 4492
3481, 4633, 4634, 4669, 4668, 4458, 4459, 4494, 4493
3482, 4634, 4635, 4670, 4669, 4459, 4460, 4495, 4494
3483, 4635, 4636, 4671, 4670, 4460, 4461, 4496, 4495
3484, 4636, 4637, 4672, 4671, 4461, 4462, 4497, 4496
3485, 4637, 4638, 4673, 4672, 4462, 4463, 4498, 4497
3486, 4638, 4639, 4674, 4673, 4463, 4464, 4499, 4498
3487, 4639, 4640, 4675, 4674, 4464, 4465, 4500, 4499
3488, 4640, 4641, 4676, 4675, 4465, 4466, 4501, 4500
3489, 4641, 4642, 4677, 4676, 4466, 4467, 4502, 4501
3490, 4642, 4643, 4678, 4677, 4467, 4468, 4503, 4502
3491, 4643, 4644, 4679, 4678, 4468, 4469, 4504, 4503
3492, 4644, 4645, 4680, 4679, 4469, 4470, 4505, 4504
3493, 4645, 4646, 4681, 4680, 4470, 4471, 4506, 4505
3494, 4646, 4647, 4682, 4681, 4471, 4472, 4507, 4506
3495, 4647, 4648, 4683, 4682, 4472, 4473, 4508, 4507
3496, 4648, 4649, 4684, 4683, 4473, 4474, 4509, 4508
3497, 4649, 4650, 4685, 4684, 4474, 4475, 4510, 4509
3498, 4650, 4651, 4686, 4685, 4475, 4476, 4511, 4510
3499, 4651, 4652, 4687, 4686, 4476, 4477, 4512, 4511
3500, 4652, 4653, 4688, 4687, 4477, 4478, 4513, 4512
3501, 4653, 4654, 4689, 4688, 4478, 4479, 4514, 4513
3502, 4654, 4655, 4690, 4689, 4479, 4480, 4515, 4514
3503, 4656, 4657, 4692, 4691, 4481, 4482, 4517, 4516
3504, 4657, 4658, 4693, 4692, 4482, 4483, 4518, 4517
3505, 4658, 4659, 4694, 4693, 4483, 4484, 4519, 4518
3506, 4659, 4660, 4695, 4694, 4484, 4485, 4520, 4519
3507, 4660, 4661, 4696, 4695, 4485, 4486, 4521, 4520
3508, 4661, 4662, 4697, 4696, 4486, 4487, 4522, 4521
3509, 4662, 4663, 4698, 4697, 4487, 4488, 4523, 4522
3510, 4663, 4664, 4699, 4698, 4488, 4489, 4524, 4523
3511, 4664, 4665, 4700, 4699, 4489, 4490, 4525, 4524
3512, 4665, 4666, 4701, 4700, 4490, 4491, 4526, 4525
3513, 4666, 4667, 4702, 4701, 4491, 4492, 4527, 4526
3514, 4667, 4668, 4703, 4702, 4492, 4493, 4528, 4527
3515, 4668, 4669, 4704, 4703, 4493, 4494, 4529, 4528
3516, 4669, 4670, 4705, 4704, 4494, 4495, 4530, 4529
3517, 4670, 4671, 4706, 4705, 4495, 4496, 4531, 4530
3518, 4671, 4672, 4707, 4706, 4496, 4497, 4532, 4531
3519, 4672, 4673, 4708, 4707, 4497, 4498, 4533, 4532
3520, 4673, 4674, 4709, 4708, 4498, 4499, 4534, 4533
3521, 4674, 4675, 4710, 4709, 4499, 4500, 4535, 4534
3522, 4675, 4676, 4711, 4710, 4500, 4501, 4536, 4535
3523, 4676, 4677, 4712, 4711, 4501, 4502, 4537, 4536
3524, 4677, 4678, 4713, 4712, 4502, 4503, 4538, 4537
3525, 4678, 4679, 4714, 4713, 4503, 4504, 4539, 4538
3526, 4679, 4680, 4715, 4714, 4504, 4505, 4540, 4539
3527, 4680, 4681, 4716, 4715, 4505, 4506, 4541, 4540
3528, 4681, 4682, 4717, 4716, 4506, 4507, 4542, 4541
3529, 4682, 4683, 4718, 4717, 4507, 4508, 4543, 4542
3530, 4683, 4684, 4719, 4718, 4508, 4509, 4544, 4543
3531, 4684, 4685, 4720, 4719, 4509, 4510, 4545, 4544
3532, 4685, 4686, 4721, 4720, 4510, 4511, 4546, 4545
3533, 4686, 4687, 4722, 4721, 4511, 4512, 4547, 4546
3534, 4687, 4688, 4723, 4722, 4512, 4513, 4548, 4547
3535, 4688, 4689, 4724, 4723, 4513, 4514, 4549, 4548
3536, 4689, 4690, 4725, 4724, 4514, 4515, 4550, 4549
3537, 4726, 4727, 4762, 4761, 4551, 4552, 4587, 4586
3538, 4727, 4728, 4763, 4762, 4552, 4553, 4588, 4587
3539, 4728, 4729, 4764, 4763, 4553, 4554, 4589, 4588
3540, 4729, 4730, 4765, 4764, 4554, 4555, 4590, 4589
3541, 4730, 4731, 4766, 4765, 4555, 4556, 4591, 4590
3542, 4731, 4732, 4767, 4766, 4556, 4557, 4592, 4591
3543, 4732, 4733, 4768, 4767, 4557, 4558, 4593, 4592
3544, 4733, 4734, 4769, 4768, 4558, 4559, 4594, 4593
3545, 4734, 4735, 4770, 4769, 4559, 4560, 4595, 4594
3546, 4735, 4736, 4771, 4770, 4560, 4561, 4596, 4595
3547, 4736, 4737, 4772, 4771, 4561, 4562, 4597, 4596
3548, 4737, 4738, 4773, 4772, 4562, 4563, 4598, 4597
3549, 4738, 4739, 4774, 4773, 4563, 4564, 4599, 4598
3550, 4739, 4740, 4775, 4774, 4564, 4565, 4600, 4599
3551, 4740, 4741, 4776, 4775, 4565, 4566, 4601, 4600
3552, 4741, 4742, 4777, 4776, 4566, 4567, 4602, 4601
3553, 4742, 4743, 4778, 4777, 4567, 4568, 4603, 4602
3554, 4743, 4744, 4779, 4778, 4568, 4569, 4604, 4603
3555, 4744, 4745, 4780, 4779, 4569, 4570, 4605, 4604
3556, 4745, 4746, 4781, 4780, 4570, 4571, 4606, 4605
3557, 4746, 4747, 4782, 4781, 4571, 4572, 4607, 4606
3558, 4747, 4748, 4783, 4782, 4572, 4573, 4608, 4607
3559, 4748, 4749, 4784, 4783, 4573, 4574, 4609, 4608
3560, 4749, 4750, 4785, 4784, 4574, 4575, 4610, 4609
3561, 4750, 4751, 4786, 4785, 4575, 4576, 4611, 4610
3562, 4751, 4752, 4787, 4786, 4576, 4577, 4612, 4611
3563, 4752, 4753, 4788, 4787, 4577, 4578, 4613, 4612
3564, 4753, 4754, 4789, 4788, 4578, 4579, 4614, 4613
3565, 4754, 4755, 4790, 4789, 4579, 4580, 4615, 4614
3566, 4755, 4756, 4791, 4790, 4580, 4581, 4616, 4615
3567, 4756, 4757, 4792, 4791, 4581, 4582, 4617, 4616
3568, 4757, 4758, 4793, 4792, 4582, 4583, 4618, 4617
3569, 4758, 4759, 4794, 4793, 4583, 4584, 4619, 4618
3570, 4759, 4760, 4795, 4794, 4584, 4585, 4620, 4619
3571, 4761, 4762, 4797, 4796, 4586, 4587, 4622, 4621
3572, 4762, 4763, 4798, 4797, 4587, 4588, 4623, 4622
3573, 4763, 4764, 4799, 4798, 4588, 4589, 4624, 4623
3574, 4764, 4765, 4800, 4799, 4589, 4590, 4625, 4624
3575, 4765, 4766, 4801, 4800, 4590, 4591, 4626, 4625
3576, 4766, 4767, 4802, 4801, 4591, 4592, 4627, 4626
3577, 4767, 4768, 4803, 4802, 4592, 4593, 4628, 4627
3578, 4768, 4769, 4804, 4803, 4593, 4594, 4629, 4628
3579, 4769, 4770, 4805, 4804, 4594, 4595, 4630, 4629
3580, 4770, 4771, 4806, 4805, 4595, 4596, 4631, 4630
3581, 4771, 4772, 4807, 4806, 4596, 4597, 4632, 4631
3582, 4772, 4773, 4808, 4807, 4597, 4598, 4633, 4632
3583, 4773, 4774, 4809, 4808, 4598, 4599, 4634, 4633
3584, 4774, 4775, 4810, 4809, 4599, 4600, 4635, 4634
3585, 4775, 4776, 4811, 4810, 4600, 4601, 4636, 4635
3586, 4776, 4777, 4812, 4811, 4601, 4602, 4637, 4636
3587, 4777, 4778, 4813, 4812, 4602, 4603, 4638, 4637
3588, 4778, 4779, 4814, 4813, 4603, 4604, 4639, 4638
3589, 4779, 4780, 4815, 4814, 4604, 4605, 4640, 4639
3590, 4780, 4781, 4816, 4815, 4605, 4606, 4641, 4640
3591, 4781, 4782, 4817, 4816, 4606, 4607, 4642, 4641
3592, 4782, 4783, 4818, 4817, 4607, 4608, 4643, 4642
3593, 4783, 4784, 4819, 4818, 4608, 4609, 4644, 4643
3594, 4784, 4785, 4820, 4819, 4609, 4610, 4645, 4644
3595, 4785, 4786, 4821, 4820, 4610, 4611, 4646, 4645
3596, 4786, 4787, 4822, 4821, 4611, 4612, 4647, 4646
3597, 4787, 4788, 4823, 4822, 4612, 4613, 4648, 4647
3598, 4788, 4789, 4824, 4823, 4613, 4614, 4649, 4648
3599, 4789, 4790, 4825, 4824, 4614, 4615, 4650, 4649
3600, 4790, 4791, 4826, 4825, 4615, 4616, 4651, 4650
3601, 4791, 4792, 4827, 4826, 4616, 4617, 4652, 4651
3602, 4792, 4793, 4828, 4827, 4617, 4618, 4653, 4652
3603, 4793, 4794, 4829, 4828, 4618, 4619, 4654, 4653
3604, 4794, 4795, 4830, 4829, 4619, 4620, 4655, 4654
3605, 4796, 4797, 4832, 4831, 4621, 4622, 4657, 4656
3606, 4797, 4798, 4833, 4832, 4622, 4623, 4658, 4657
3607, 4798, 4799, 4834, 4833, 4623, 4624, 4659, 4658
3608, 4799, 4800, 4835, 4834, 4624, 4625, 4660, 4659
3609, 4800, 4801, 4836, 4835, 4625, 4626, 4661, 4660
3610, 4801, 4802, 4837, 4836, 4626, 4627, 4662, 4661
3611, 4802, 4803, 4838, 4837, 4627, 4628, 4663, 4662
3612, 4803, 4804, 4839, 4838, 4628, 4629, 4664, 4663
3613, 4804, 4805, 4840, 4839, 4629, 4630, 4665, 4664
3614, 4805, 4806, 4841, 4840, 4630, 4631, 4666, 4665
3615, 4806, 4807, 4842, 4841, 4631, 4632, 4667, 4666
3616, 4807, 4808, 4843, 4842, 4632, 4633, 4668, 4667
3617, 4808, 4809, 4844, 4843, 4633, 4634, 4669, 4668
3618, 4809, 4810, 4845, 4844, 4634, 4635, 4670, 4669
3619, 4810, 4811, 4846, 4845, 4635, 4636, 4671, 4670
3620, 4811, 4812, 4847, 4846, 4636, 4637, 4672, 4671
3621, 4812, 4813, 4848, 4847, 4637, 4638, 4673, 4672
3622, 4813, 4814, 4849, 4848, 4638, 4639, 4674, 4673
3623, 4814, 4815, 4850, 4849, 4639, 4640, 4675, 4674
3624, 4815, 4816, 4851, 4850, 4640, 4641, 4676, 4675
3625, 4816, 4817, 4852, 4851, 4641, 4642, 4677, 4676
3626, 4817, 4818, 4853, 4852, 4642, 4643, 4678, 4677
3627, 4818, 4819, 4854, 4853, 4643, 4644, 4679, 4678
3628, 4819, 4820, 4855, 4854, 4644, 4645, 4680, 4679
3629, 4820, 4821, 4856, 4855, 4645, 4646, 4681, 4680
3630, 4821, 4822, 4857, 4856, 4646, 4647, 4682, 4681
3631, 4822, 4823, 4858, 4857, 4647, 4648, 4683, 4682
3632, 4823, 4824, 4859, 4858, 4648, 4649, 4684, 4683
3633, 4824, 4825, 4860, 4859, 4649, 4650, 4685, 4684
3634, 4825, 4826, 4861, 4860, 4650, 4651, 4686, 4685
3635, 4826, 4827, 4862, 4861, 4651, 4652, 4687, 4686
3636, 4827, 4828, 4863, 4862, 4652, 4653, 4688, 4687
3637, 4828, 4829, 4864, 4863, 4653, 4654, 4689, 4688
3638, 4829, 4830, 4865, 4864, 4654, 4655, 4690, 4689
3639, 4831, 4832, 4867, 4866, 4656, 4657, 4692, 4691
3640, 4832, 4833, 4868, 4867, 4657, 4658, 4693, 4692
3641, 4833, 4834, 4869, 4868, 4658, 4659, 4694, 4693
3642, 4834, 4835, 4870, 4869, 4659, 4660, 4695, 4694
3643, 4835, 4836, 4871, 4870, 4660, 4661, 4696, 4695
3644, 4836, 4837, 4872, 4871, 4661, 4662, 4697, 4696
3645, 4837, 4838, 4873, 4872, 4662, 4663, 4698, 4697
3646, 4838, 4839, 4874, 4873, 4663, 4664, 4699, 4698
3647, 4839, 4840, 4875, 4874, 4664, 4665, 4700, 4699
3648, 4840, 4841, 4876, 4875, 4665, 4666, 4701, 4700
3649, 4841, 4842, 4877, 4876, 4666, 4667, 4702, 4701
3650, 4842, 4843, 4878, 4877, 4667, 4668, 4703, 4702
3651, 4843, 4844, 4879, 4878, 4668, 4669, 4704, 4703
3652, 4844, 4845, 4880, 4879, 4669, 4670, 4705, 4704
3653, 4845, 4846, 4881, 4880, 4670, 4671, 4706, 4705
3654, 4846, 4847, 4882, 4881, 4671, 4672, 4707, 4706
3655, 4847, 4848, 4883, 4882, 4672, 4673, 4708, 4707
3656, 4848, 4849, 4884, 4883, 4673, 4674, 4709, 4708
3657, 4849, 4850, 4885, 4884, 4674, 4675, 4710, 4709
3658, 4850, 4851, 4886, 4885, 4675, 4676, 4711, 4710
3659, 4851, 4852, 4887, 4886, 4676, 4677, 4712, 4711
3660, 4852, 4853, 4888, 4887, 4677, 4678, 4713, 4712
3661, 4853, 4854, 4889, 4888, 4678, 4679, 4714, 4713
3662, 4854, 4855, 4890, 4889, 4679, 4680, 4715, 4714
3663, 4855, 4856, 4891, 4890, 4680, 4681, 4716, 4715
3664, 4856, 4857, 4892, 4891, 4681, 4682, 4717, 4716
3665, 4857, 4858, 4893, 4892, 4682, 4683, 4718, 4717
3666, 4858, 4859, 4894, 4893, 4683, 4684, 4719, 4718
3667, 4859, 4860, 4895, 4894, 4684, 4685, 4720, 4719
3668, 4860, 4861, 4896, 4895, 4685, 4686, 4721, 4720
3669, 4861, 4862, 4897, 4896, 4686, 4687, 4722, 4721
3670, 4862, 4863, 4898, 4897, 4687, 4688, 4723, 4722
3671, 4863, 4864, 4899, 4898, 4688, 4689, 4724, 4723
3672, 4864, 4865, 4900, 4899, 4689, 4690, 4725, 4724
3673, 4901, 4902, 4937, 4936, 4726, 4727, 4762, 4761
3674, 4902, 4903, 4938, 4937, 4727, 4728, 4763, 4762
3675, 4903, 4904, 4939, 4938, 4728, 4729, 4764, 4763
3676, 4904, 4905, 4940, 4939, 4729, 4730, 4765, 4764
3677, 4905, 4906, 4941, 4940, 4730, 4731, 4766, 4765
3678, 4906, 4907, 4942, 4941, 4731, 4732, 4767, 4766
3679, 4907, 4908, 4943, 4942, 4732, 4733, 4768, 4767
3680, 4908, 4909, 4944, 4943, 4733, 4734, 4769, 4768
3681, 4909, 4910, 4945, 4944, 4734, 4735, 4770, 4769
3682, 4910, 4911, 4946, 4945, 4735, 4736, 4771, 4770
3683, 4911, 4912, 4947, 4946, 4736, 4737, 4772, 4771
3684, 4912, 4913, 4948, 4947, 4737, 4738, 4773, 4772
3685, 4913, 4914, 4949, 4948, 4738, 4739, 4774, 4773
3686, 4914, 4915, 4950, 4949, 4739, 4740, 4775, 4774
3687, 4915, 4916, 4951, 4950, 4740, 4741, 4776, 4775
3688, 4916, 4917, 4952, 4951, 4741, 4742, 4777, 4776
3689, 4917, 4918, 4953, 4952, 4742, 4743, 4778, 4777
3690, 4918, 4919, 4954, 4953, 4743, 4744, 4779, 4778
3691, 4919, 4920, 4955, 4954, 4744, 4745, 4780, 4779
3692, 4920, 4921, 4956, 4955, 4745, 4746, 4781, 4780
3693, 4921, 4922, 4957, 4956, 4746, 4747, 4782, 4781
3694, 4922, 4923, 4958, 4957, 4747, 4748, 4783, 4782
3695, 4923, 4924, 4959, 4958, 4748, 4749, 4784, 4783
3696, 4924, 4925, 4960, 4959, 4749, 4750, 4785, 4784
3697, 4925, 4926, 4961, 4960, 4750, 4751, 4786, 4785
3698, 4926, 4927, 4962, 4961, 4751, 4752, 4787, 4786
3699, 4927, 4928, 4963, 4962, 4752, 4753, 4788, 4787
3700, 4928, 4929, 4964, 4963, 4753, 4754, 4789, 4788
3701, 4929, 4930, 4965, 4964, 4754, 4755, 4790, 4789
3702, 4930, 4931, 4966, 4965, 4755, 4756, 4791, 4790
3703, 4931, 4932, 4967, 4966, 4756, 4757, 4792, 4791
3704, 4932, 4933, 4968, 4967, 4757, 4758, 4793, 4792
3705, 4933, 4934, 4969, 4968, 4758, 4759, 4794, 4793
3706, 4934, 4935, 4970, 4969, 4759, 4760, 4795, 4794
3707, 4936, 4937, 4972, 4971, 4761, 4762, 4797, 4796
3708, 4937, 4938, 4973, 4972, 4762, 4763, 4798, 4797
3709, 4938, 4939, 4974, 4973, 4763, 4764, 4799, 4798
3710, 4939, 4940, 4975, 4974, 4764, 4765, 4800, 4799
3711, 4940, 4941, 4976, 4975, 4765, 4766, 4801, 4800
3712, 4941, 4942, 4977, 4976, 4766, 4767, 4802, 4801
3713, 4942, 4943, 4978, 4977, 4767, 4768, 4803, 4802
3714, 4943, 4944, 4979, 4978, 4768, 4769, 4804, 4803
3715, 4944, 4945, 4980, 4979, 4769, 4770, 4805, 4804
3716, 4945, 4946, 4981, 4980, 4770, 4771, 4806, 4805
3717, 4946, 4947, 4982, 4981, 4771, 4772, 4807, 4806
3718, 4947, 4948, 4983, 4982, 4772, 4773, 4808, 4807
3719, 4948, 4949, 4984, 4983, 4773, 4774, 4809, 4808
3720, 4949, 4950, 4985, 4984, 4774, 4775, 4810, 4809
3721, 4950, 4951, 4986, 4985, 4775, 4776, 4811, 4810
3722, 4951, 4952, 4987, 4986, 4776, 4777, 4812, 4811
3723, 4952, 4953, 4988, 4987, 4777, 4778, 4813, 4812
3724, 4953, 4954, 4989, 4988, 4778, 4779, 4814, 4813
3725, 4954, 4955, 4990, 4989, 4779, 4780, 4815, 4814
3726, 4955, 4956, 4991, 4990, 4780, 4781, 4816, 4815
3727, 4956, 4957, 4992, 4991, 4781, 4782, 4817, 4816
3728, 4957, 4958, 4993, 4992, 4782, 4783, 4818, 4817
3729, 4958, 4959, 4994, 4993, 4783, 4784, 4819, 4818
3730, 4959, 4960, 4995, 4994, 4784, 4785, 4820, 4819
3731, 4960, 4961, 4996, 4995, 4785, 4786, 4821, 4820
3732, 4961, 4962, 4997, 4996, 4786, 4787, 4822, 4821
3733, 4962, 4963, 4998, 4997, 4787, 4788, 4823, 4822
3734, 4963, 4964, 4999, 4998, 4788, 4789, 4824, 4823
3735, 4964, 4965, 5000, 4999, 4789, 4790, 4825, 4824
3736, 4965, 4966, 5001, 5000, 4790, 4791, 4826, 4825
3737, 4966, 4967, 5002, 5001, 4791, 4792, 4827, 4826
3738, 4967, 4968, 5003, 5002, 4792, 4793, 4828, 4827
3739, 4968, 4969, 5004, 5003, 4793, 4794, 4829, 4828
3740, 4969, 4970, 5005, 5004, 4794, 4795, 4830, 4829
3741, 4971, 4972, 5007, 5006, 4796, 4797, 4832, 4831
3742, 4972, 4973, 5008, 5007, 4797, 4798, 4833, 4832
3743, 4973, 4974, 5009, 5008, 4798, 4799, 4834, 4833
3744, 4974, 4975, 5010, 5009, 4799, 4800, 4835, 4834
3745, 4975, 4976, 5011, 5010, 4800, 4801, 4836, 4835
3746, 4976, 4977, 5012, 5011, 4801, 4802, 4837, 4836
3747, 4977, 4978, 5013, 5012, 4802, 4803, 4838, 4837
3748, 4978, 4979, 5014, 5013, 4803, 4804, 4839, 4838
3749, 4979, 4980, 5015, 5014, 4804, 4805, 4840, 4839
3750, 4980, 4981, 5016, 5015, 4805, 4806, 4841, 4840
3751, 4981, 4982, 5017, 5016, 4806, 4807, 4842, 4841
3752, 4982, 4983, 5018, 5017, 4807, 4808, 4843, 4842
3753, 4983, 4984, 5019, 5018, 4808, 4809, 4844, 4843
3754, 4984, 4985, 5020, 5019, 4809, 4810, 4845, 4844
3755, 4985, 4986, 5021, 5020, 4810, 4811, 4846, 4845
3756, 4986, 4987, 5022, 5021, 4811, 4812, 4847, 4846
3757, 4987, 4988, 5023, 5022, 4812, 4813, 4848, 4847
3758, 4988, 4989, 5024, 5023, 4813, 4814, 4849, 4848
3759, 4989, 4990, 5025, 5024, 4814, 4815, 4850, 4849
3760, 4990, 4991, 5026, 5025, 4815, 4816, 4851, 4850
3761, 4991, 4992, 5027, 5026, 4816, 4817, 4852, 4851
3762, 4992, 4993, 5028, 5027, 4817, 4818, 4853, 4852
3763, 4993, 4994, 5029, 5028, 4818, 4819, 4854, 4853
3764, 4994, 4995, 5030, 5029, 4819, 4820, 4855, 4854
3765, 4995, 4996, 5031, 5030, 4820, 4821, 4856, 4855
3766, 4996, 4997, 5032, 5031, 4821, 4822, 4857, 4856
3767, 4997, 4998, 5033, 5032, 4822, 4823, 4858, 4857
3768, 4998, 4999, 5034, 5033, 4823, 4824, 4859, 4858
3769, 4999, 5000, 5035, 5034, 4824, 4825, 4860, 4859
3770, 5000, 5001, 5036, 5035, 4825, 4826, 4861, 4860
3771, 5001, 5002, 5037, 5036, 4826, 4827, 4862, 4861
3772, 5002, 5003, 5038, 5037, 4827, 4828, 4863, 4862
3773, 5003, 5004, 5039, 5038, 4828, 4829, 4864, 4863
3774, 5004, 5005, 5040, 5039, 4829, 4830, 4865, 4864
3775, 5006, 5007, 5042, 5041, 4831, 4832, 4867, 4866
3776, 5007, 5008, 5043, 5042, 4832, 4833, 4868, 4867
3777, 5008, 5009, 5044, 5043, 4833, 4834, 4869, 4868
3778, 5009, 5010, 5045, 5044, 4834, 4835, 4870, 4869
3779, 5010, 5011, 5046, 5045, 4835, 4836, 4871, 4870
3780, 5011, 5012, 5047, 5046, 4836, 4837, 4872, 4871
3781, 5012, 5013, 5048, 5047, 4837, 4838, 4873, 4872
3782, 5013, 5014, 5049, 5048, 4838, 4839, 4874, 4873
3783, 5014, 5015, 5050, 5049, 4839, 4840, 4875, 4874
3784, 5015, 5016, 5051, 5050, 4840, 4841, 4876, 4875
3785, 5016, 5017, 5052, 5051, 4841, 4842, 4877, 4876
3786, 5017, 5018, 5053, 5052, 4842, 4843, 4878, 4877
3787, 5018, 5019, 5054, 5053, 4843, 4844, 4879, 4878
3788, 5019, 5020, 5055, 5054, 4844, 4845, 4880, 4879
3789, 5020, 5021, 5056, 5055, 4845, 4846, 4881, 4880
3790, 5021, 5022, 5057, 5056, 4846, 4847, 4882, 4881
3791, 5022, 5023, 5058, 5057, 4847, 4848, 4883, 4882
3792, 5023, 5024, 5059, 5058, 4848, 4849, 4884, 4883
3793, 5024, 5025, 5060, 5059, 4849, 4850, 4885, 4884
3794, 5025, 5026, 5061, 5060, 4850, 4851, 4886, 4885
3795, 5026, 5027, 5062, 5061, 4851, 4852, 4887, 4886
3796, 5027, 5028, 5063, 5062, 4852, 4853, 4888, 4887
3797, 5028, 5029, 5064, 5063, 4853, 4854, 4889, 4888
3798, 5029, 5030, 5065, 5064, 4854, 4855, 4890, 4889
3799, 5030, 5031, 5066, 5065, 4855, 4856, 4891, 4890
3800, 5031, 5032, 5067, 5066, 4856, 4857, 4892, 4891
3801, 5032, 5033, 5068, 5067, 4857, 4858, 4893, 4892
3802, 5033, 5034, 5069, 5068, 4858, 4859, 4894, 4893
3803, 5034, 5035, 5070, 5069, 4859, 4860, 4895, 4894
3804, 5035, 5036, 5071, 5070, 4860, 4861, 4896, 4895
3805, 5036, 5037, 5072, 5071, 4861, 4862, 4897, 4896
3806, 5037, 5038, 5073, 5072, 4862, 4863, 4898, 4897
3807, 5038, 5039, 5074, 5073, 4863, 4864, 4899, 4898
3808, 5039, 5040, 5075, 5074, 4864, 4865, 4900, 4899
3809, 5076, 5077, 5112, 5111, 4901, 4902, 4937, 4936
3810, 5077, 5078, 5113, 5112, 4902, 4903, 4938, 4937
3811, 5078, 5079, 5114, 5113, 4903, 4904, 4939, 4938
3812, 5079, 5080, 5115, 5114, 4904, 4905, 4940, 4939
3813, 5080, 5081, 5116, 5115, 4905, 4906, 4941, 4940
3814, 5081, 5082, 5117, 5116, 4906, 4907, 4942, 4941
3815, 5082, 5083, 5118, 5117, 4907, 4908, 4943, 4942
3816, 5083, 5084, 5119, 5118, 4908, 4909, 4944, 4943
3817, 5084, 5085, 5120, 5119, 4909, 4910, 4945, 4944
3818, 5085, 5086, 5121, 5120, 4910, 4911, 4946, 4945
3819, 5086, 5087, 5122, 5121, 4911, 4912, 4947, 4946
3820, 5087, 5088, 5123, 5122, 4912, 4913, 4948, 4947
3821, 5088, 5089, 5124, 5123, 4913, 4914, 4949, 4948
3822, 5089, 5090, 5125, 5124, 4914, 4915, 4950, 4949
3823, 5090, 5091, 5126, 5125, 4915, 4916, 4951, 4950
3824, 5091, 5092, 5127, 5126, 4916, 4917, 4952, 4951
3825, 5092, 5093, 5128, 5127, 4917, 4918, 4953, 4952
3826, 5093, 5094, 5129, 5128, 4918, 4919, 4954, 4953
3827, 5094, 5095, 5130, 5129, 4919, 4920, 4955, 4954
3828, 5095, 5096, 5131, 5130, 4920, 4921, 4956, 4955
3829, 5096, 5097, 5132, 5131, 4921, 4922, 4957, 4956
3830, 5097, 5098, 5133, 5132, 4922, 4923, 4958, 4957
3831, 5098, 5099, 5134, 5133, 4923, 4924, 4959, 4958
3832, 5099, 5100, 5135, 5134, 4924, 4925, 4960, 4959
3833, 5100, 5101, 5136, 5135, 4925, 4926, 4961, 4960
3834, 5101, 5102, 5137, 5136, 4926, 4927, 4962, 4961
3835, 5102, 5103, 5138, 5137, 4927, 4928, 4963, 4962
3836, 5103, 5104, 5139, 5138, 4928, 4929, 4964, 4963
3837, 5104, 5105, 5140, 5139, 4929, 4930, 4965, 4964
3838, 5105, 5106, 5141, 5140, 4930, 4931, 4966, 4965
3839, 5106, 5107, 5142, 5141, 4931, 4932, 4967, 4966
3840, 5107, 5108, 5143, 5142, 4932, 4933, 4968, 4967
3841, 5108, 5109, 5144, 5143, 4933, 4934, 4969, 4968
3842, 5109, 5110, 5145, 5144, 4934, 4935, 4970, 4969
3843, 5111, 5112, 5147, 5146, 4936, 4937, 4972, 4971
3844, 5112, 5113, 5148, 5147, 4937, 4938, 4973, 4972
3845, 5113, 5114, 5149, 5148, 4938, 4939, 4974, 4973
3846, 5114, 5115, 5150, 5149, 4939, 4940, 4975, 4974
3847, 5115, 5116, 5151, 5150, 4940, 4941, 4976, 4975
3848, 5116, 5117, 5152, 5151, 4941, 4942, 4977, 4976
3849, 5117, 5118, 5153, 5152, 4942, 4943, 4978, 4977
3850, 5118, 5119, 5154, 5153, 4943, 4944, 4979, 4978
3851, 5119, 5120, 5155, 5154, 4944, 4945, 4980, 4979
3852, 5120, 5121, 5156, 5155, 4945, 4946, 4981, 4980
3853, 5121, 5122, 5157, 5156, 4946, 4947, 4982, 4981
3854, 5122, 5123, 5158, 5157, 4947, 4948, 4983, 4982
3855, 5123, 5124, 5159, 5158, 4948, 4949, 4984, 4983
3856, 5124, 5125, 5160, 5159, 4949, 4950, 4985, 4984
3857, 5125, 5126, 5161, 5160, 4950, 4951, 4986, 4985
3858, 5126, 5127, 5162, 5161, 4951, 4952, 4987, 4986
3859, 5127, 5128, 5163, 5162, 4952, 4953, 4988, 4987
3860, 5128, 5129, 5164, 5163, 4953, 4954, 4989, 4988
3861, 5129, 5130, 5165, 5164, 4954, 4955, 4990, 4989
3862, 5130, 5131, 5166, 5165, 4955, 4956, 4991, 4990
3863, 5131, 5132, 5167, 5166, 4956, 4957, 4992, 4991
3864, 5132, 5133, 5168, 5167, 4957, 4958, 4993, 4992
3865, 5133, 5134, 5169, 5168, 4958, 4959, 4994, 4993
3866, 5134, 5135, 5170, 5169, 4959, 4960, 4995, 4994
3867, 5135, 5136, 5171, 5170, 4960, 4961, 4996, 4995
3868, 5136, 5137, 5172, 5171, 4961, 4962, 4997, 4996
3869, 5137, 5138, 5173, 5172, 4962, 4963, 4998, 4997
3870, 5138, 5139, 5174, 5173, 4963, 4964, 4999, 4998
3871, 5139, 5140, 5175, 5174, 4964, 4965, 5000, 4999
3872, 5140, 5141, 5176, 5175, 4965, 4966, 5001, 5000
3873, 5141, 5142, 5177, 5176, 4966, 4967, 5002, 5001
3874, 5142, 5143, 5178, 5177, 4967, 4968, 5003, 5002
3875, 5143, 5144, 5179, 5178, 4968, 4969, 5004, 5003
3876, 5144, 5145, 5180, 5179, 4969, 4970, 5005, 5004
3877, 5146, 5147, 5182, 5181, 4971, 4972, 5007, 5006
3878, 5147, 5148, 5183, 5182, 4972, 4973, 5008, 5007
3879, 5148, 5149, 5184, 5183, 4973, 4974, 5009, 5008
3880, 5149, 5150, 5185, 5184, 4974, 4975, 5010, 5009
3881, 5150, 5151, 5186, 5185, 4975, 4976, 5011, 5010
3882, 5151, 5152, 5187, 5186, 4976, 4977, 5012, 5011
3883, 5152, 5153, 5188, 5187, 4977, 4978, 5013, 5012
3884, 5153, 5154, 5189, 5188, 4978, 4979, 5014, 5013
3885, 5154, 5155, 5190, 5189, 4979, 4980, 5015, 5014
3886, 5155, 5156, 5191, 5190, 4980, 4981, 5016, 5015
3887, 5156, 5157, 5192, 5191, 4981, 4982, 5017, 5016
3888, 5157, 5158, 5193, 5192, 4982, 4983, 5018, 5017
3889, 5158, 5159, 5194, 5193, 4983, 4984, 5019, 5018
3890, 5159, 5160, 5195, 5194, 4984, 4985, 5020, 5019
3891, 5160, 5161, 5196, 5195, 4985, 4986, 5021, 5020
3892, 5161, 5162, 5197, 5196, 4986, 4987, 5022, 5021
3893, 5162, 5163, 5198, 5197, 4987, 4988, 5023, 5022
3894, 5163, 5164, 5199, 5198, 4988, 4989, 5024, 5023
3895, 5164, 5165, 5200, 5199, 4989, 4990, 5025, 5024
3896, 5165, 5166, 5201, 5200, 4990, 4991, 5026, 5025
3897, 5166, 5167, 5202, 5201, 4991, 4992, 5027, 5026
3898, 5167, 5168, 5203, 5202, 4992, 4993, 5028, 5027
3899, 5168, 5169, 5204, 5203, 4993, 4994, 5029, 5028
3900, 5169, 5170, 5205, 5204, 4994, 4995, 5030, 5029
3901, 5170, 5171, 5206, 5205, 4995, 4996, 5031, 5030
3902, 5171, 5172, 5207, 5206, 4996, 4997, 5032, 5031
3903, 5172, 5173, 5208, 5207, 4997, 4998, 5033, 5032
3904, 5173, 5174, 5209, 5208, 4998, 4999, 5034, 5033
3905, 5174, 5175, 5210, 5209, 4999, 5000, 5035, 5034
3906, 5175, 5176, 5211, 5210, 5000, 5001, 5036, 5035
3907, 5176, 5177, 5212, 5211, 5001, 5002, 5037, 5036
3908, 5177, 5178, 5213, 5212, 5002, 5003, 5038, 5037
3909, 5178, 5179, 5214, 5213, 5003, 5004, 5039, 5038
3910, 5179, 5180, 5215, 5214, 5004, 5005, 5040, 5039
3911, 5181, 5182, 5217, 5216, 5006, 5007, 5042, 5041
3912, 5182, 5183, 5218, 5217, 5007, 5008, 5043, 5042
3913, 5183, 5184, 5219, 5218, 5008, 5009, 5044, 5043
3914, 5184, 5185, 5220, 5219, 5009, 5010, 5045, 5044
3915, 5185, 5186, 5221, 5220, 5010, 5011, 5046, 5045
3916, 5186, 5187, 5222, 5221, 5011, 5012, 5047, 5046
3917, 5187, 5188, 5223, 5222, 5012, 5013, 5048, 5047
3918, 5188, 5189, 5224, 5223, 5013, 5014, 5049, 5048
3919, 5189, 5190, 5225, 5224, 5014, 5015, 5050, 5049
3920, 5190, 5191, 5226, 5225, 5015, 5016, 5051, 5050
3921, 5191, 5192, 5227, 5226, 5016, 5017, 5052, 5051
3922, 5192, 5193, 5228, 5227, 5017, 5018, 5053, 5052
3923, 5193, 5194, 5229, 5228, 5018, 5019, 5054, 5053
3924, 5194, 5195, 5230, 5229, 5019, 5020, 5055, 5054
3925, 5195, 5196, 5231, 5230, 5020, 5021, 5056, 5055
3926, 5196, 5197, 5232, 5231, 5021, 5022, 5057, 5056
3927, 5197, 5198, 5233, 5232, 5022, 5023, 5058, 5057
3928, 5198, 5199, 5234, 5233, 5023, 5024, 5059, 5058
3929, 5199, 5200, 5235, 5234, 5024, 5025, 5060, 5059
3930, 5200, 5201, 5236, 5235, 5025, 5026, 5061, 5060
3931, 5201, 5202, 5237, 5236, 5026, 5027, 5062, 5061
3932, 5202, 5203, 5238, 5237, 5027, 5028, 5063, 5062
3933, 5203, 5204, 5239, 5238, 5028, 5029, 5064, 5063
3934, 5204, 5205, 5240, 5239, 5029, 5030, 5065, 5064
3935, 5205, 5206, 5241, 5240, 5030, 5031, 5066, 5065
3936, 5206, 5207, 5242, 5241, 5031, 5032, 5067, 5066
3937, 5207, 5208, 5243, 5242, 5032, 5033, 5068, 5067
3938, 5208, 5209, 5244, 5243, 5033, 5034, 5069, 5068
3939, 5209, 5210, 5245, 5244, 5034, 5035, 5070, 5069
3940, 5210, 5211, 5246, 5245, 5035, 5036, 5071, 5070
3941, 5211, 5212, 5247, 5246, 5036, 5037, 5072, 5071
3942, 5212, 5213, 5248, 5247, 5037, 5038, 5073, 5072
3943, 5213, 5214, 5249, 5248, 5038, 5039, 5074, 5073
3944, 5214, 5215, 5250, 5249, 5039, 5040, 5075, 5074
3945, 5251, 5252, 5287, 5286, 5076, 5077, 5112, 5111
3946, 5252, 5253, 5288, 5287, 5077, 5078, 5113, 5112
3947, 5253, 5254, 5289, 5288, 5078, 5079, 5114, 5113
3948, 5254, 5255, 5290, 5289, 5079, 5080, 5115, 5114
3949, 5255, 5256, 5291, 5290, 5080, 5081, 5116, 5115
3950, 5256, 5257, 5292, 5291, 5081, 5082, 5117, 5116
3951, 5257, 5258, 5293, 5292, 5082, 5083, 5118, 5117
3952, 5258, 5259, 5294, 5293, 5083, 5084, 5119, 5118
3953, 5259, 5260, 5295, 5294, 5084, 5085, 5120, 5119
3954, 5260, 5261, 5296, 5295, 5085, 5086, 5121, 5120
3955, 5261, 5262, 5297, 5296, 5086, 5087, 5122, 5121
3956, 5262, 5263, 5298, 5297, 5087, 5088, 5123, 5122
3957, 5263, 5264, 5299, 5298, 5088, 5089, 5124, 5123
3958, 5264, 5265, 5300, 5299, 5089, 5090, 5125, 5124
3959, 5265, 5266, 5301, 5300, 5090, 5091, 5126, 5125
3960, 5266, 5267, 5302, 5301, 5091, 5092, 5127, 5126
3961, 5267, 5268, 5303, 5302, 5092, 5093, 5128, 5127
3962, 5268, 5269, 5304, 5303, 5093, 5094, 5129, 5128
3963, 5269, 5270, 5305, 5304, 5094, 5095, 5130, 5129
3964, 5270, 5271, 5306, 5305, 5095, 5096, 5131, 5130
3965, 5271, 5272, 5307, 5306, 5096, 5097, 5132, 5131
3966, 5272, 5273, 5308, 5307, 5097, 5098, 5133, 5132
3967, 5273, 5274, 5309, 5308, 5098, 5099, 5134, 5133
3968, 5274, 5275, 5310, 5309, 5099, 5100, 5135, 5134
3969, 5275, 5276, 5311, 5310, 5100, 5101, 5136, 5135
3970, 5276, 5277, 5312, 5311, 5101, 5102, 5137, 5136
3971, 5277, 5278, 5313, 5312, 5102, 5103, 5138, 5137
3972, 5278, 5279, 5314, 5313, 5103, 5104, 5139, 5138
3973, 5279, 5280, 5315, 5314, 5104, 5105, 5140, 5139
3974, 5280, 5281, 5316, 5315, 5105, 5106, 5141, 5140
3975, 5281, 5282, 5317, 5316, 5106, 5107, 5142, 5141
3976, 5282, 5283, 5318, 5317, 5107, 5108, 5143, 5142
3977, 5283, 5284, 5319, 5318, 5108, 5109, 5144, 5143
3978, 5284, 5285, 5320, 5319, 5109, 5110, 5145, 5144
3979, 5286, 5287, 5322, 5321, 5111, 5112, 5147, 5146
3980, 5287, 5288, 5323, 5322, 5112, 5113, 5148, 5147
3981, 5288, 5289, 5324, 5323, 5113, 5114, 5149, 5148
3982, 5289, 5290, 5325, 5324, 5114, 5115, 5150, 5149
3983, 5290, 5291, 5326, 5325, 5115, 5116, 5151, 5150
3984, 5291, 5292, 5327, 5326, 5116, 5117, 5152, 5151
3985, 5292, 5293, 5328, 5327, 5117, 5118, 5153, 5152
3986, 5293, 5294, 5329, 5328, 5118, 5119, 5154, 5153
3987, 5294, 5295, 5330, 5329, 5119, 5120, 5155, 5154
3988, 5295, 5296, 5331, 5330, 5120, 5121, 5156, 5155
3989, 5296, 5297, 5332, 5331, 5121, 5122, 5157, 5156
3990, 5297, 5298, 5333, 5332, 5122, 5123, 5158, 5157
3991, 5298, 5299, 5334, 5333, 5123, 5124, 5159, 5158
3992, 5299, 5300, 5335, 5334, 5124, 5125, 5160, 5159
3993, 5300, 5301, 5336, 5335, 5125, 5126, 5161, 5160
3994, 5301, 5302, 5337, 5336, 5126, 5127, 5162, 5161
3995, 5302, 5303, 5338, 5337, 5127, 5128, 5163, 5162
3996, 5303, 5304, 5339, 5338, 5128, 5129, 5164, 5163
3997, 5304, 5305, 5340, 5339, 5129, 5130, 5165, 5164
3998, 5305, 5306, 5341, 5340, 5130, 5131, 5166, 5165
3999, 5306, 5307, 5342, 5341, 5131, 5132, 5167, 5166
4000, 5307, 5308, 5343, 5342, 5132, 5133, 5168, 5167
4001, 5308, 5309, 5344, 5343, 5133, 5134, 5169, 5168
4002, 5309, 5310, 5345, 5344, 5134, 5135, 5170, 5169
4003, 5310, 5311, 5346, 5345, 5135, 5136, 5171, 5170
4004, 5311, 5312, 5347, 5346, 5136, 5137, 5172, 5171
4005, 5312, 5313, 5348, 5347, 5137, 5138, 5173, 5172
4006, 5313, 5314, 5349, 5348, 5138, 5139, 5174, 5173
4007, 5314, 5315, 5350, 5349, 5139, 5140, 5175, 5174
4008, 5315, 5316, 5351, 5350, 5140, 5141, 5176, 5175
4009, 5316, 5317, 5352, 5351, 5141, 5142, 5177, 5176
4010, 5317, 5318, 5353, 5352, 5142, 5143, 5178, 5177
4011, 5318, 5319, 5354, 5353, 5143, 5144, 5179, 5178
4012, 5319, 5320, 5355, 5354, 5144, 5145, 5180, 5179
4013, 5321, 5322, 5357, 5356, 5146, 5147, 5182, 5181
4014, 5322, 5323, 5358, 5357, 5147, 5148, 5183, 5182
4015, 5323, 5324, 5359, 5358, 5148, 5149, 5184, 5183
4016, 5324, 5325, 5360, 5359, 5149, 5150, 5185, 5184
4017, 5325, 5326, 5361, 5360, 5150, 5151, 5186, 5185
4018, 5326, 5327, 5362, 5361, 5151, 5152, 5187, 5186
4019, 5327, 5328, 5363, 5362, 5152, 5153, 5188, 5187
4020, 5328, 5329, 5364, 5363, 5153, 5154, 5189, 5188
4021, 5329, 5330, 5365, 5364, 5154, 5155, 5190, 5189
4022, 5330, 5331, 5366, 5365, 5155, 5156, 5191, 5190
4023, 5331, 5332, 5367, 5366, 5156, 5157, 5192, 5191
4024, 5332, 5333, 5368, 5367, 5157, 5158, 5193, 5192
4025, 5333, 5334, 5369, 5368, 5158, 5159, 5194, 5193
4026, 5334, 5335, 5370, 5369, 5159, 5160, 5195, 5194
4027, 5335, 5336, 5371, 5370, 5160, 5161, 5196, 5195
4028, 5336, 5337, 5372, 5371, 5161, 5162, 5197, 5196
4029, 5337, 5338, 5373, 5372, 5162, 5163, 5198, 5197
4030, 5338, 5339, 5374, 5373, 5163, 5164, 5199, 5198
4031, 5339, 5340, 5375, 5374, 5164, 5165, 5200, 5199
4032, 5340, 5341, 5376, 5375, 5165, 5166, 5201, 5200
4033, 5341, 5342, 5377, 5376, 5166, 5167, 5202, 5201
4034, 5342, 5343, 5378, 5377, 5167, 5168, 5203, 5202
4035, 5343, 5344, 5379, 5378, 5168, 5169, 5204, 5203
4036, 5344, 5345, 5380, 5379, 5169, 5170, 5205, 5204
4037, 5345, 5346, 5381, 5380, 5170, 5171, 5206, 5205
4038, 5346, 5347, 5382, 5381, 5171, 5172, 5207, 5206
4039, 5347, 5348, 5383, 5382, 5172, 5173, 5208, 5207
4040, 5348, 5349, 5384, 5383, 5173, 5174, 5209, 5208
4041, 5349, 5350, 5385, 5384, 5174, 5175, 5210, 5209
4042, 5350, 5351, 5386, 5385, 5175, 5176, 5211, 5210
4043, 5351, 5352, 5387, 5386, 5176, 5177, 5212, 5211
4044, 5352, 5353, 5388, 5387, 5177, 5178, 5213, 5212
4045, 5353, 5354, 5389, 5388, 5178, 5179, 5214, 5213
4046, 5354, 5355, 5390, 5389, 5179, 5180, 5215, 5214
4047, 5356, 5357, 5392, 5391, 5181, 5182, 5217, 5216
4048, 5357, 5358, 5393, 5392, 5182, 5183, 5218, 5217
4049, 5358, 5359, 5394, 5393, 5183, 5184, 5219, 5218
4050, 5359, 5360, 5395, 5394, 5184, 5185, 5220, 5219
4051, 5360, 5361, 5396, 5395, 5185, 5186, 5221, 5220
4052, 5361, 5362, 5397, 5396, 5186, 5187, 5222, 5221
4053, 5362, 5363, 5398, 5397, 5187, 5188, 5223, 5222
4054, 5363, 5364, 5399, 5398, 5188, 5189, 5224, 5223
4055, 5364, 5365, 5400, 5399, 5189, 5190, 5225, 5224
4056, 5365, 5366, 5401, 5400, 5190, 5191, 5226, 5225
4057, 5366, 5367, 5402, 5401, 5191, 5192, 5227, 5226
4058, 5367, 5368, 5403, 5402, 5192, 5193, 5228, 5227
4059, 5368, 5369, 5404, 5403, 5193, 5194, 5229, 5228
4060, 5369, 5370, 5405, 5404, 5194, 5195, 5230, 5229
4061, 5370, 5371, 5406, 5405, 5195, 5196, 5231, 5230
4062, 5371, 5372, 5407, 5406, 5196, 5197, 5232, 5231
4063, 5372, 5373, 5408, 5407, 5197, 5198, 5233, 5232
4064, 5373, 5374, 5409, 5408, 5198, 5199, 5234, 5233
4065, 5374, 5375, 5410, 5409, 5199, 5200, 5235, 5234
4066, 5375, 5376, 5411, 5410, 5200, 5201, 5236, 5235
4067, 5376, 5377, 5412, 5411, 5201, 5202, 5237, 5236
4068, 5377, 5378, 5413, 5412, 5202, 5203, 5238, 5237
4069, 5378, 5379, 5414, 5413, 5203, 5204, 5239, 5238
4070, 5379, 5380, 5415, 5414, 5204, 5205, 5240, 5239
4071, 5380, 5381, 5416, 5415, 5205, 5206, 5241, 5240
4072, 5381, 5382, 5417, 5416, 5206, 5207, 5242, 5241
4073, 5382, 5383, 5418, 5417, 5207, 5208, 5243, 5242
4074, 5383, 5384, 5419, 5418, 5208, 5209, 5244, 5243
4075, 5384, 5385, 5420, 5419, 5209, 5210, 5245, 5244
4076, 5385, 5386, 5421, 5420, 5210, 5211, 5246, 5245
4077, 5386, 5387, 5422, 5421, 5211, 5212, 5247, 5246
4078, 5387, 5388, 5423, 5422, 5212, 5213, 5248, 5247
4079, 5388, 5389, 5424, 5423, 5213, 5214, 5249, 5248
4080, 5389, 5390, 5425, 5424, 5214, 5215, 5250, 5249
4081, 5426, 5427, 5462, 5461, 5251, 5252, 5287, 5286
4082, 5427, 5428, 5463, 5462, 5252, 5253, 5288, 5287
4083, 5428, 5429, 5464, 5463, 5253, 5254, 5289, 5288
4084, 5429, 5430, 5465, 5464, 5254, 5255, 5290, 5289
4085, 5430, 5431, 5466, 5465, 5255, 5256, 5291, 5290
4086, 5431, 5432, 5467, 5466, 5256, 5257, 5292, 5291
4087, 5432, 5433, 5468, 5467, 5257, 5258, 5293, 5292
4088, 5433, 5434, 5469, 5468, 5258, 5259, 5294, 5293
4089, 5434, 5435, 5470, 5469, 5259, 5260, 5295, 5294
4090, 5435, 5436, 5471, 5470, 5260, 5261, 5296, 5295
4091, 5436, 5437, 5472, 5471, 5261, 5262, 5297, 5296
4092, 5437, 5438, 5473, 5472, 5262, 5263, 5298, 5297
4093, 5438, 5439, 5474, 5473, 5263, 5264, 5299, 5298
4094, 5439, 5440, 5475, 5474, 5264, 5265, 5300, 5299
4095, 5440, 5441, 5476, 5475, 5265, 5266, 5301, 5300
4096, 5441, 5442, 5477, 5476, 5266, 5267, 5302, 5301
4097, 5442, 5443, 5478, 5477, 5267, 5268, 5303, 5302
4098, 5443, 5444, 5479, 5478, 5268, 5269, 5304, 5303
4099, 5444, 5445, 5480, 5479, 5269, 5270, 5305, 5304
4100, 5445, 5446, 5481, 5480, 5270, 5271, 5306, 5305
4101, 5446, 5447, 5482, 5481, 5271, 5272, 5307, 5306
4102, 5447, 5448, 5483, 5482, 5272, 5273, 5308, 5307
4103, 5448, 5449, 5484, 5483, 5273, 5274, 5309, 5308
4104, 5449, 5450, 5485, 5484, 5274, 5275, 5310, 5309
4105, 5450, 5451, 5486, 5485, 5275, 5276, 5311, 5310
4106, 5451, 5452, 5487, 5486, 5276, 5277, 5312, 5311
4107, 5452, 5453, 5488, 5487, 5277, 5278, 5313, 5312
4108, 5453, 5454, 5489, 5488, 5278, 5279, 5314, 5313
4109, 5454, 5455, 5490, 5489, 5279, 5280, 5315, 5314
4110, 5455, 5456, 5491, 5490, 5280, 5281, 5316, 5315
4111, 5456, 5457, 5492, 5491, 5281, 5282, 5317, 5316
4112, 5457, 5458, 5493, 5492, 5282, 5283, 5318, 5317
4113, 5458, 5459, 5494, 5493, 5283, 5284, 5319, 5318
4114, 5459, 5460, 5495, 5494, 5284, 5285, 5320, 5319
4115, 5461, 5462, 5497, 5496, 5286, 5287, 5322, 5321
4116, 5462, 5463, 5498, 5497, 5287, 5288, 5323, 5322
4117, 5463, 5464, 5499, 5498, 5288, 5289, 5324, 5323
4118, 5464, 5465, 5500, 5499, 5289, 5290, 5325, 5324
4119, 5465, 5466, 5501, 5500, 5290, 5291, 5326, 5325
4120, 5466, 5467, 5502, 5501, 5291, 5292, 5327, 5326
4121, 5467, 5468, 5503, 5502, 5292, 5293, 5328, 5327
4122, 5468, 5469, 5504, 5503, 5293, 5294, 5329, 5328
4123, 5469, 5470, 5505, 5504, 5294, 5295, 5330, 5329
4124, 5470, 5471, 5506, 5505, 5295, 5296, 5331, 5330
4125, 5471, 5472, 5507, 5506, 5296, 5297, 5332, 5331
4126, 5472, 5473, 5508, 5507, 5297, 5298, 5333, 5332
4127, 5473, 5474, 5509, 5508, 5298, 5299, 5334, 5333
4128, 5474, 5475, 5510, 5509, 5299, 5300, 5335, 5334
4129, 5475, 5476, 5511, 5510, 5300, 5301, 5336, 5335
4130, 5476, 5477, 5512, 5511, 5301, 5302, 5337, 5336
4131, 5477, 5478, 5513, 5512, 5302, 5303, 5338, 5337
4132, 5478, 5479, 5514, 5513, 5303, 5304, 5339, 5338
4133, 5479, 5480, 5515, 5514, 5304, 5305, 5340, 5339
4134, 5480, 5481, 5516, 5515, 5305, 5306, 5341, 5340
4135, 5481, 5482, 5517, 5516, 5306, 5307, 5342, 5341
4136, 5482, 5483, 5518, 5517, 5307, 5308, 5343, 5342
4137, 5483, 5484, 5519, 5518, 5308, 5309, 5344, 5343
4138, 5484, 5485, 5520, 5519, 5309, 5310, 5345, 5344
4139, 5485, 5486, 5521, 5520, 5310, 5311, 5346, 5345
4140, 5486, 5487, 5522, 5521, 5311, 5312, 5347, 5346
4141, 5487, 5488, 5523, 5522, 5312, 5313, 5348, 5347
4142, 5488, 5489, 5524, 5523, 5313, 5314, 5349, 5348
4143, 5489, 5490, 5525, 5524, 5314, 5315, 5350, 5349
4144, 5490, 5491, 5526, 5525, 5315, 5316, 5351, 5350
4145, 5491, 5492, 5527, 5526, 5316, 5317, 5352, 5351
4146, 5492, 5493, 5528, 5527, 5317, 5318, 5353, 5352
4147, 5493, 5494, 5529, 5528, 5318, 5319, 5354, 5353
4148, 5494, 5495, 5530, 5529, 5319, 5320, 5355, 5354
4149, 5496, 5497, 5532, 5531, 5321, 5322, 5357, 5356
4150, 5497, 5498, 5533, 5532, 5322, 5323, 5358, 5357
4151, 5498, 5499, 5534, 5533, 5323, 5324, 5359, 5358
4152, 5499, 5500, 5535, 5534, 5324, 5325, 5360, 5359
4153, 5500, 5501, 5536, 5535, 5325, 5326, 5361, 5360
4154, 5501, 5502, 5537, 5536, 5326, 5327, 5362, 5361
4155, 5502, 5503, 5538, 5537, 5327, 5328, 5363, 5362
4156, 5503, 5504, 5539, 5538, 5328, 5329, 5364, 5363
4157, 5504, 5505, 5540, 5539, 5329, 5330, 5365, 5364
4158, 5505, 5506, 5541, 5540, 5330, 5331, 5366, 5365
4159, 5506, 5507, 5542, 5541, 5331, 5332, 5367, 5366
4160, 5507, 5508, 5543, 5542, 5332, 5333, 5368, 5367
4161, 5508, 5509, 5544, 5543, 5333, 5334, 5369, 5368
4162, 5509, 5510, 5545, 5544, 5334, 5335, 5370, 5369
4163, 5510, 5511, 5546, 5545, 5335, 5336, 5371, 5370
4164, 5511, 5512, 5547, 5546, 5336, 5337, 5372, 5371
4165, 5512, 5513, 5548, 5547, 5337, 5338, 5373, 5372
4166, 5513, 5514, 5549, 5548, 5338, 5339, 5374, 5373
4167, 5514, 5515, 5550, 5549, 5339, 5340, 5375, 5374
4168, 5515, 5516, 5551, 5550, 5340, 5341, 5376, 5375
4169, 5516, 5517, 5552, 5551, 5341, 5342, 5377, 5376
4170, 5517, 5518, 5553, 5552, 5342, 5343, 5378, 5377
4171, 5518, 5519, 5554, 5553, 5343, 5344, 5379, 5378
4172, 5519, 5520, 5555, 5554, 5344, 5345, 5380, 5379
4173, 5520, 5521, 5556, 5555, 5345, 5346, 5381, 5380
4174, 5521, 5522, 5557, 5556, 5346, 5347, 5382, 5381
4175, 5522, 5523, 5558, 5557, 5347, 5348, 5383, 5382
4176, 5523, 5524, 5559, 5558, 5348, 5349, 5384, 5383
4177, 5524, 5525, 5560, 5559, 5349, 5350, 5385, 5384
4178, 5525, 5526, 5561, 5560, 5350, 5351, 5386, 5385
4179, 5526, 5527, 5562, 5561, 5351, 5352, 5387, 5386
4180, 5527, 5528, 5563, 5562, 5352, 5353, 5388, 5387
4181, 5528, 5529, 5564, 5563, 5353, 5354, 5389, 5388
4182, 5529, 5530, 5565, 5564, 5354, 5355, 5390, 5389
4183, 5531, 5532, 5567, 5566, 5356, 5357, 5392, 5391
4184, 5532, 5533, 5568, 5567, 5357, 5358, 5393, 5392
4185, 5533, 5534, 5569, 5568, 5358, 5359, 5394, 5393
4186, 5534, 5535, 5570, 5569, 5359, 5360, 5395, 5394
4187, 5535, 5536, 5571, 5570, 5360, 5361, 5396, 5395
4188, 5536, 5537, 5572, 5571, 5361, 5362, 5397, 5396
4189, 5537, 5538, 5573, 5572, 5362, 5363, 5398, 5397
4190, 5538, 5539, 5574, 5573, 5363, 5364, 5399, 5398
4191, 5539, 5540, 5575, 5574, 5364, 5365, 5400, 5399
4192, 5540, 5541, 5576, 5575, 5365, 5366, 5401, 5400
4193, 5541, 5542, 5577, 5576, 5366, 5367, 5402, 5401
4194, 5542, 5543, 5578, 5577, 5367, 5368, 5403, 5402
4195, 5543, 5544, 5579, 5578, 5368, 5369, 5404, 5403
4196, 5544, 5545, 5580, 5579, 5369, 5370, 5405, 5404
4197, 5545, 5546, 5581, 5580, 5370, 5371, 5406, 5405
4198, 5546, 5547, 5582, 5581, 5371, 5372, 5407, 5406
4199, 5547, 5548, 5583, 5582, 5372, 5373, 5408, 5407
4200, 5548, 5549, 5584, 5583, 5373, 5374, 5409, 5408
4201, 5549, 5550, 5585, 5584, 5374, 5375, 5410, 5409
4202, 5550, 5551, 5586, 5585, 5375, 5376, 5411, 5410
4203, 5551, 5552, 5587, 5586, 5376, 5377, 5412, 5411
4204, 5552, 5553, 5588, 5587, 5377, 5378, 5413, 5412
4205, 5553, 5554, 5589, 5588, 5378, 5379, 5414, 5413
4206, 5554, 5555, 5590, 5589, 5379, 5380, 5415, 5414
4207, 5555, 5556, 5591, 5590, 5380, 5381, 5416, 5415
4208, 5556, 5557, 5592, 5591, 5381, 5382, 5417, 5416
4209, 5557, 5558, 5593, 5592, 5382, 5383, 5418, 5417
4210, 5558, 5559, 5594, 5593, 5383, 5384, 5419, 5418
4211, 5559, 5560, 5595, 5594, 5384, 5385, 5420, 5419
4212, 5560, 5561, 5596, 5595, 5385, 5386, 5421, 5420
4213, 5561, 5562, 5597, 5596, 5386, 5387, 5422, 5421
4214, 5562, 5563, 5598, 5597, 5387, 5388, 5423, 5422
4215, 5563, 5564, 5599, 5598, 5388, 5389, 5424, 5423
4216, 5564, 5565, 5600, 5599, 5389, 5390, 5425, 5424
4217, 5601, 5602, 5637, 5636, 5426, 5427, 5462, 5461
4218, 5602, 5603, 5638, 5637, 5427, 5428, 5463, 5462
4219, 5603, 5604, 5639, 5638, 5428, 5429, 5464, 5463
4220, 5604, 5605, 5640, 5639, 5429, 5430, 5465, 5464
4221, 5605, 5606, 5641, 5640, 5430, 5431, 5466, 5465
4222, 5606, 5607, 5642, 5641, 5431, 5432, 5467, 5466
4223, 5607, 5608, 5643, 5642, 5432, 5433, 5468, 5467
4224, 5608, 5609, 5644, 5643, 5433, 5434, 5469, 5468
4225, 5609, 5610, 5645, 5644, 5434, 5435, 5470, 5469
4226, 5610, 5611, 5646, 5645, 5435, 5436, 5471, 5470
4227, 5611, 5612, 5647, 5646, 5436, 5437, 5472, 5471
4228, 5612, 5613, 5648, 5647, 5437, 5438, 5473, 5472
4229, 5613, 5614, 5649, 5648, 5438, 5439, 5474, 5473
4230, 5614, 5615, 5650, 5649, 5439, 5440, 5475, 5474
4231, 5615, 5616, 5651, 5650, 5440, 5441, 5476, 5475
4232, 5616, 5617, 5652, 5651, 5441, 5442, 5477, 5476
4233, 5617, 5618, 5653, 5652, 5442, 5443, 5478, 5477
4234, 5618, 5619, 5654, 5653, 5443, 5444, 5479, 5478
4235, 5619, 5620, 5655, 5654, 5444, 5445, 5480, 5479
4236, 5620, 5621, 5656, 5655, 5445, 5446, 5481, 5480
4237, 5621, 5622, 5657, 5656, 5446, 5447, 5482, 5481
4238, 5622, 5623, 5658, 5657, 5447, 5448, 5483, 5482
4239, 5623, 5624, 5659, 5658, 5448, 5449, 5484, 5483
4240, 5624, 5625, 5660, 5659, 5449, 5450, 5485, 5484
4241, 5625, 5626, 5661, 5660, 5450, 5451, 5486, 5485
4242, 5626, 5627, 5662, 5661, 5451, 5452, 5487, 5486
4243, 5627, 5628, 5663, 5662, 5452, 5453, 5488, 5487
4244, 5628, 5629, 5664, 5663, 5453, 5454, 5489, 5488
4245, 5629, 5630, 5665, 5664, 5454, 5455, 5490, 5489
4246, 5630, 5631, 5666, 5665, 5455, 5456, 5491, 5490
4247, 5631, 5632, 5667, 5666, 5456, 5457, 5492, 5491
4248, 5632, 5633, 5668, 5667, 5457, 5458, 5493, 5492
4249, 5633, 5634, 5669, 5668, 5458, 5459, 5494, 5493
4250, 5634, 5635, 5670, 5669, 5459, 5460, 5495, 5494
4251, 5636, 5637, 5672, 5671, 5461, 5462, 5497, 5496
4252, 5637, 5638, 5673, 5672, 5462, 5463, 5498, 5497
4253, 5638, 5639, 5674, 5673, 5463, 5464, 5499, 5498
4254, 5639, 5640, 5675, 5674, 5464, 5465, 5500, 5499
4255, 5640, 5641, 5676, 5675, 5465, 5466, 5501, 5500
4256, 5641, 5642, 5677, 5676, 5466, 5467, 5502, 5501
4257, 5642, 5643, 5678, 5677, 5467, 5468, 5503, 5502
4258, 5643, 5644, 5679, 5678, 5468, 5469, 5504, 5503
4259, 5644, 5645, 5680, 5679, 5469, 5470, 5505, 5504
4260, 5645, 5646, 5681, 5680, 5470, 5471, 5506, 5505
4261, 5646, 5647, 5682, 5681, 5471, 5472, 5507, 5506
4262, 5647, 5648, 5683, 5682, 5472, 5473, 5508, 5507
4263, 5648, 5649, 5684, 5683, 5473, 5474, 5509, 5508
4264, 5649, 5650, 5685, 5684, 5474, 5475, 5510, 5509
4265, 5650, 5651, 5686, 5685, 5475, 5476, 5511, 5510
4266, 5651, 5652, 5687, 5686, 5476, 5477, 5512, 5511
4267, 5652, 5653, 5688, 5687, 5477, 5478, 5513, 5512
4268, 5653, 5654, 5689, 5688, 5478, 5479, 5514, 5513
4269, 5654, 5655, 5690, 5689, 5479, 5480, 5515, 5514
4270, 5655, 5656, 5691, 5690, 5480, 5481, 5516, 5515
4271, 5656, 5657, 5692, 5691, 5481, 5482, 5517, 5516
4272, 5657, 5658, 5693, 5692, 5482, 5483, 5518, 5517
4273, 5658, 5659, 5694, 5693, 5483, 5484, 5519, 5518
4274, 5659, 5660, 5695, 5694, 5484, 5485, 5520, 5519
4275, 5660, 5661, 5696, 5695, 5485, 5486, 5521, 5520
4276, 5661, 5662, 5697, 5696, 5486, 5487, 5522, 5521
4277, 5662, 5663, 5698, 5697, 5487, 5488, 5523, 5522
4278, 5663, 5664, 5699, 5698, 5488, 5489, 5524, 5523
4279, 5664, 5665, 5700, 5699, 5489, 5490, 5525, 5524
4280, 5665, 5666, 5701, 5700, 5490, 5491, 5526, 5525
4281, 5666, 5667, 5702, 5701, 5491, 5492, 5527, 5526
4282, 5667, 5668, 5703, 5702, 5492, 5493, 5528, 5527
4283, 5668, 5669, 5704, 5703, 5493, 5494, 5529, 5528
4284, 5669, 5670, 5705, 5704, 5494, 5495, 5530, 5529
4285, 5671, 5672, 5707, 5706, 5496, 5497, 5532, 5531
4286, 5672, 5673, 5708, 5707, 5497, 5498, 5533, 5532
4287, 5673, 5674, 5709, 5708, 5498, 5499, 5534, 5533
4288, 5674, 5675, 5710, 5709, 5499, 5500, 5535, 5534
4289, 5675, 5676, 5711, 5710, 5500, 5501, 5536, 5535
4290, 5676, 5677, 5712, 5711, 5501, 5502, 5537, 5536
4291, 5677, 5678, 5713, 5712, 5502, 5503, 5538, 5537
4292, 5678, 5679, 5714, 5713, 5503, 5504, 5539, 5538
4293, 5679, 5680, 5715, 5714, 5504, 5505, 5540, 5539
4294, 5680, 5681, 5716, 5715, 5505, 5506, 5541, 5540
4295, 5681, 5682, 5717, 5716, 5506, 5507, 5542, 5541
4296, 5682, 5683, 5718, 5717, 5507, 5508, 5543, 5542
4297, 5683, 5684, 5719, 5718, 5508, 5509, 5544, 5543
4298, 5684, 5685, 5720, 5719, 5509, 5510, 5545, 5544
4299, 5685, 5686, 5721, 5720, 5510, 5511, 5546, 5545
4300, 5686, 5687, 5722, 5721, 5511, 5512, 5547, 5546
4301, 5687, 5688, 5723, 5722, 5512, 5513, 5548, 5547
4302, 5688, 5689, 5724, 5723, 5513, 5514, 5549, 5548
4303, 5689, 5690, 5725, 5724, 5514, 5515, 5550, 5549
4304, 5690, 5691, 5726, 5725, 5515, 5516, 5551, 5550
4305, 5691, 5692, 5727, 5726, 5516, 5517, 5552, 5551
4306, 5692, 5693, 5728, 5727, 5517, 5518, 5553, 5552
4307, 5693, 5694, 5729, 5728, 5518, 5519, 5554, 5553
4308, 5694, 5695, 5730, 5729, 5519, 5520, 5555, 5554
4309, 5695, 5696, 5731, 5730, 5520, 5521, 5556, 5555
4310, 5696, 5697, 5732, 5731, 5521, 5522, 5557, 5556
4311, 5697, 5698, 5733, 5732, 5522, 5523, 5558, 5557
4312, 5698, 5699, 5734, 5733, 5523, 5524, 5559, 5558
4313, 5699, 5700, 5735, 5734, 5524, 5525, 5560, 5559
4314, 5700, 5701, 5736, 5735, 5525, 5526, 5561, 5560
4315, 5701, 5702, 5737, 5736, 5526, 5527, 5562, 5561
4316, 5702, 5703, 5738, 5737, 5527, 5528, 5563, 5562
4317, 5703, 5704, 5739, 5738, 5528, 5529, 5564, 5563
4318, 5704, 5705, 5740, 5739, 5529, 5530, 5565, 5564
4319, 5706, 5707, 5742, 5741, 5531, 5532, 5567, 5566
4320, 5707, 5708, 5743, 5742, 5532, 5533, 5568, 5567
4321, 5708, 5709, 5744, 5743, 5533, 5534, 5569, 5568
4322, 5709, 5710, 5745, 5744, 5534, 5535, 5570, 5569
4323, 5710, 5711, 5746, 5745, 5535, 5536, 5571, 5570
4324, 5711, 5712, 5747, 5746, 5536, 5537, 5572, 5571
4325, 5712, 5713, 5748, 5747, 5537, 5538, 5573, 5572
4326, 5713, 5714, 5749, 5748, 5538, 5539, 5574, 5573
4327, 5714, 5715, 5750, 5749, 5539, 5540, 5575, 5574
4328, 5715, 5716, 5751, 5750, 5540, 5541, 5576, 5575
4329, 5716, 5717, 5752, 5751, 5541, 5542, 5577, 5576
4330, 5717, 5718, 5753, 5752, 5542, 5543, 5578, 5577
4331, 5718, 5719, 5754, 5753, 5543, 5544, 5579, 5578
4332, 5719, 5720, 5755, 5754, 5544, 5545, 5580, 5579
4333, 5720, 5721, 5756, 5755, 5545, 5546, 5581, 5580
4334, 5721, 5722, 5757, 5756, 5546, 5547, 5582, 5581
4335, 5722, 5723, 5758, 5757, 5547, 5548, 5583, 5582
4336, 5723, 5724, 5759, 5758, 5548, 5549, 5584, 5583
4337, 5724, 5725, 5760, 5759, 5549, 5550, 5585, 5584
4338, 5725, 5726, 5761, 5760, 5550, 5551, 5586, 5585
4339, 5726, 5727, 5762, 5761, 5551, 5552, 5587, 5586
4340, 5727, 5728, 5763, 5762, 5552, 5553, 5588, 5587
4341, 5728, 5729, 5764, 5763, 5553, 5554, 5589, 5588
4342, 5729, 5730, 5765, 5764, 5554, 5555, 5590, 5589
4343, 5730, 5731, 5766, 5765, 5555, 5556, 5591, 5590
4344, 5731, 5732, 5767, 5766, 5556, 5557, 5592, 5591
4345, 5732, 5733, 5768, 5767, 5557, 5558, 5593, 5592
4346, 5733, 5734, 5769, 5768, 5558, 5559, 5594, 5593
4347, 5734, 5735, 5770, 5769, 5559, 5560, 5595, 5594
4348, 5735, 5736, 5771, 5770, 5560, 5561, 5596, 5595
4349, 5736, 5737, 5772, 5771, 5561, 5562, 5597, 5596
4350, 5737, 5738, 5773, 5772, 5562, 5563, 5598, 5597
4351, 5738, 5739, 5774, 5773, 5563, 5564, 5599, 5598
4352, 5739, 5740, 5775, 5774, 5564, 5565, 5600, 5599
4353, 5776, 5777, 5812, 5811, 5601, 5602, 5637, 5636
4354, 5777, 5778, 5813, 5812, 5602, 5603, 5638, 5637
4355, 5778, 5779, 5814, 5813, 5603, 5604, 5639, 5638
4356, 5779, 5780, 5815, 5814, 5604, 5605, 5640, 5639
4357, 5780, 5781, 5816, 5815, 5605, 5606, 5641, 5640
4358, 5781, 5782, 5817, 5816, 5606, 5607, 5642, 5641
4359, 5782, 5783, 5818, 5817, 5607, 5608, 5643, 5642
4360, 5783, 5784, 5819, 5818, 5608, 5609, 5644, 5643
4361, 5784, 5785, 5820, 5819, 5609, 5610, 5645, 5644
4362, 5785, 5786, 5821, 5820, 5610, 5611, 5646, 5645
4363, 5786, 5787, 5822, 5821, 5611, 5612, 5647, 5646
4364, 5787, 5788, 5823, 5822, 5612, 5613, 5648, 5647
4365, 5788, 5789, 5824, 5823, 5613, 5614, 5649, 5648
4366, 5789, 5790, 5825, 5824, 5614, 5615, 5650, 5649
4367, 5790, 5791, 5826, 5825, 5615, 5616, 5651, 5650
4368, 5791, 5792, 5827, 5826, 5616, 5617, 5652, 5651
4369, 5792, 5793, 5828, 5827, 5617, 5618, 5653, 5652
4370, 5793, 5794, 5829, 5828, 5618, 5619, 5654, 5653
4371, 5794, 5795, 5830, 5829, 5619, 5620, 5655, 5654
4372, 5795, 5796, 5831, 5830, 5620, 5621, 5656, 5655
4373, 5796, 5797, 5832, 5831, 5621, 5622, 5657, 5656
4374, 5797, 5798, 5833, 5832, 5622, 5623, 5658, 5657
4375, 5798, 5799, 5834, 5833, 5623, 5624, 5659, 5658
4376, 5799, 5800, 5835, 5834, 5624, 5625, 5660, 5659
4377, 5800, 5801, 5836, 5835, 5625, 5626, 5661, 5660
4378, 5801, 5802, 5837, 5836, 5626, 5627, 5662, 5661
4379, 5802, 5803, 5838, 5837, 5627, 5628, 5663, 5662
4380, 5803, 5804, 5839, 5838, 5628, 5629, 5664, 5663
4381, 5804, 5805, 5840, 5839, 5629, 5630, 5665, 5664
4382, 5805, 5806, 5841, 5840, 5630, 5631, 5666, 5665
4383, 5806, 5807, 5842, 5841, 5631, 5632, 5667, 5666
4384, 5807, 5808, 5843, 5842, 5632, 5633, 5668, 5667
4385, 5808, 5809, 5844, 5843, 5633, 5634, 5669, 5668
4386, 5809, 5810, 5845, 5844, 5634, 5635, 5670, 5669
4387, 5811, 5812, 5847, 5846, 5636, 5637, 5672, 5671
4388, 5812, 5813, 5848, 5847, 5637, 5638, 5673, 5672
4389, 5813, 5814, 5849, 5848, 5638, 5639, 5674, 5673
4390, 5814, 5815, 5850, 5849, 5639, 5640, 5675, 5674
4391, 5815, 5816, 5851, 5850, 5640, 5641, 5676, 5675
4392, 5816, 5817, 5852, 5851, 5641, 5642, 5677, 5676
4393, 5817, 5818, 5853, 5852, 5642, 5643, 5678, 5677
4394, 5818, 5819, 5854, 5853, 5643, 5644, 5679, 5678
4395, 5819, 5820, 5855, 5854, 5644, 5645, 5680, 5679
4396, 5820, 5821, 5856, 5855, 5645, 5646, 5681, 5680
4397, 5821, 5822, 5857, 5856, 5646, 5647, 5682, 5681
4398, 5822, 5823, 5858, 5857, 5647, 5648, 5683, 5682
4399, 5823, 5824, 5859, 5858, 5648, 5649, 5684, 5683
4400, 5824, 5825, 5860, 5859, 5649, 5650, 5685, 5684
4401, 5825, 5826, 5861, 5860, 5650, 5651, 5686, 5685
4402, 5826, 5827, 5862, 5861, 5651, 5652, 5687, 5686
4403, 5827, 5828, 5863, 5862, 5652, 5653, 5688, 5687
4404, 5828, 5829, 5864, 5863, 5653, 5654, 5689, 5688
4405, 5829, 5830, 5865, 5864, 5654, 5655, 5690, 5689
4406, 5830, 5831, 5866, 5865, 5655, 5656, 5691, 5690
4407, 5831, 5832, 5867, 5866, 5656, 5657, 5692, 5691
4408, 5832, 5833, 5868, 5867, 5657, 5658, 5693, 5692
4409, 5833, 5834, 5869, 5868, 5658, 5659, 5694, 5693
4410, 5834, 5835, 5870, 5869, 5659, 5660, 5695, 5694
4411, 5835, 5836, 5871, 5870, 5660, 5661, 5696, 5695
4412, 5836, 5837, 5872, 5871, 5661, 5662, 5697, 5696
4413, 5837, 5838, 5873, 5872, 5662, 5663, 5698, 5697
4414, 5838, 5839, 5874, 5873, 5663, 5664, 5699, 5698
4415, 5839, 5840, 5875, 5874, 5664, 5665, 5700, 5699
4416, 5840, 5841, 5876, 5875, 5665, 5666, 5701, 5700
4417, 5841, 5842, 5877, 5876, 5666, 5667, 5702, 5701
4418, 5842, 5843, 5878, 5877, 5667, 5668, 5703, 5702
4419, 5843, 5844, 5879, 5878, 5668, 5669, 5704, 5703
4420, 5844, 5845, 5880, 5879, 5669, 5670, 5705, 5704
4421, 5846, 5847, 5882, 5881, 5671, 5672, 5707, 5706
4422, 5847, 5848, 5883, 5882, 5672, 5673, 5708, 5707
4423, 5848, 5849, 5884, 5883, 5673, 5674, 5709, 5708
4424, 5849, 5850, 5885, 5884, 5674, 5675, 5710, 5709
4425, 5850, 5851, 5886, 5885, 5675, 5676, 5711, 5710
4426, 5851, 5852, 5887, 5886, 5676, 5677, 5712, 5711
4427, 5852, 5853, 5888, 5887, 5677, 5678, 5713, 5712
4428, 5853, 5854, 5889, 5888, 5678, 5679, 5714, 5713
4429, 5854, 5855, 5890, 5889, 5679, 5680, 5715, 5714
4430, 5855, 5856, 5891, 5890, 5680, 5681, 5716, 5715
4431, 5856, 5857, 5892, 5891, 5681, 5682, 5717, 5716
4432, 5857, 5858, 5893, 5892, 5682, 5683, 5718, 5717
4433, 5858, 5859, 5894, 5893, 5683, 5684, 5719, 5718
4434, 5859, 5860, 5895, 5894, 5684, 5685, 5720, 5719
4435, 5860, 5861, 5896, 5895, 5685, 5686, 5721, 5720
4436, 5861, 5862, 5897, 5896, 5686, 5687, 5722, 5721
4437, 5862, 5863, 5898, 5897, 5687, 5688, 5723, 5722
4438, 5863, 5864, 5899, 5898, 5688, 5689, 5724, 5723
4439, 5864, 5865, 5900, 5899, 5689, 5690, 5725, 5724
4440, 5865, 5866, 5901, 5900, 5690, 5691, 5726, 5725
4441, 5866, 5867, 5902, 5901, 5691, 5692, 5727, 5726
4442, 5867, 5868, 5903, 5902, 5692, 5693, 5728, 5727
4443, 5868, 5869, 5904, 5903, 5693, 5694, 5729, 5728
4444, 5869, 5870, 5905, 5904, 5694, 5695, 5730, 5729
4445, 5870, 5871, 5906, 5905, 5695, 5696, 5731, 5730
4446, 5871, 5872, 5907, 5906, 5696, 5697, 5732, 5731
4447, 5872, 5873, 5908, 5907, 5697, 5698, 5733, 5732
4448, 5873, 5874, 5909, 5908, 5698, 5699, 5734, 5733
4449, 5874, 5875, 5910, 5909, 5699, 5700, 5735, 5734
4450, 5875, 5876, 5911, 5910, 5700, 5701, 5736, 5735
4451, 5876, 5877, 5912, 5911, 5701, 5702, 5737, 5736
4452, 5877, 5878, 5913, 5912, 5702, 5703, 5738, 5737
4453, 5878, 5879, 5914, 5913, 5703, 5704, 5739, 5738
4454, 5879, 5880, 5915, 5914, 5704, 5705, 5740, 5739
4455, 5881, 5882, 5917, 5916, 5706, 5707, 5742, 5741
4456, 5882, 5883, 5918, 5917, 5707, 5708, 5743, 5742
4457, 5883, 5884, 5919, 5918, 5708, 5709, 5744, 5743
4458, 5884, 5885, 5920, 5919, 5709, 5710, 5745, 5744
4459, 5885, 5886, 5921, 5920, 5710, 5711, 5746, 5745
4460, 5886, 5887, 5922, 5921, 5711, 5712, 5747, 5746
4461, 5887, 5888, 5923, 5922, 5712, 5713, 5748, 5747
4462, 5888, 5889, 5924, 5923, 5713, 5714, 5749, 5748
4463, 5889, 5890, 5925, 5924, 5714, 5715, 5750, 5749
4464, 5890, 5891, 5926, 5925, 5715, 5716, 5751, 5750
4465, 5891, 5892, 5927, 5926, 5716, 5717, 5752, 5751
4466, 5892, 5893, 5928, 5927, 5717, 5718, 5753, 5752
4467, 5893, 5894, 5929, 5928, 5718, 5719, 5754, 5753
4468, 5894, 5895, 5930, 5929, 5719, 5720, 5755, 5754
4469, 5895, 5896, 5931, 5930, 5720, 5721, 5756, 5755
4470, 5896, 5897, 5932, 5931, 5721, 5722, 5757, 5756
4471, 5897, 5898, 5933, 5932, 5722, 5723, 5758, 5757
4472, 5898, 5899, 5934, 5933, 5723, 5724, 5759, 5758
4473, 5899, 5900, 5935, 5934, 5724, 5725, 5760, 5759
4474, 5900, 5901, 5936, 5935, 5725, 5726, 5761, 5760
4475, 5901, 5902, 5937, 5936, 5726, 5727, 5762, 5761
4476, 5902, 5903, 5938, 5937, 5727, 5728, 5763, 5762
4477, 5903, 5904, 5939, 5938, 5728, 5729, 5764, 5763
4478, 5904, 5905, 5940, 5939, 5729, 5730, 5765, 5764
4479, 5905, 5906, 5941, 5940, 5730, 5731, 5766, 5765
4480, 5906, 5907, 5942, 5941, 5731, 5732, 5767, 5766
4481, 5907, 5908, 5943, 5942, 5732, 5733, 5768, 5767
4482, 5908, 5909, 5944, 5943, 5733, 5734, 5769, 5768
4483, 5909, 5910, 5945, 5944, 5734, 5735, 5770, 5769
4484, 5910, 5911, 5946, 5945, 5735, 5736, 5771, 5770
4485, 5911, 5912, 5947, 5946, 5736, 5737, 5772, 5771
4486, 5912, 5913, 5948, 5947, 5737, 5738, 5773, 5772
4487, 5913, 5914, 5949, 5948, 5738, 5739, 5774, 5773
4488, 5914, 5915, 5950, 5949, 5739, 5740, 5775, 5774
4489, 5951, 5952, 5987, 5986, 5776, 5777, 5812, 5811
4490, 5952, 5953, 5988, 5987, 5777, 5778, 5813, 5812
4491, 5953, 5954, 5989, 5988, 5778, 5779, 5814, 5813
4492, 5954, 5955, 5990, 5989, 5779, 5780, 5815, 5814
4493, 5955, 5956, 5991, 5990, 5780, 5781, 5816, 5815
4494, 5956, 5957, 5992, 5991, 5781, 5782, 5817, 5816
4495, 5957, 5958, 5993, 5992, 5782, 5783, 5818, 5817
4496, 5958, 5959, 5994, 5993, 5783, 5784, 5819, 5818
4497, 5959, 5960, 5995, 5994, 5784, 5785, 5820, 5819
4498, 5960, 5961, 5996, 5995, 5785, 5786, 5821, 5820
4499, 5961, 5962, 5997, 5996, 5786, 5787, 5822, 5821
4500, 5962, 5963, 5998, 5997, 5787, 5788, 5823, 5822
4501, 5963, 5964, 5999, 5998, 5788, 5789, 5824, 5823
4502, 5964, 5965, 6000, 5999, 5789, 5790, 5825, 5824
4503, 5965, 5966, 6001, 6000, 5790, 5791, 5826, 5825
4504, 5966, 5967, 6002, 6001, 5791, 5792, 5827, 5826
4505, 5967, 5968, 6003, 6002, 5792, 5793, 5828, 5827
4506, 5968, 5969, 6004, 6003, 5793, 5794, 5829, 5828
4507, 5969, 5970, 6005, 6004, 5794, 5795, 5830, 5829
4508, 5970, 5971, 6006, 6005, 5795, 5796, 5831, 5830
4509, 5971, 5972, 6007, 6006, 5796, 5797, 5832, 5831
4510, 5972, 5973, 6008, 6007, 5797, 5798, 5833, 5832
4511, 5973, 5974, 6009, 6008, 5798, 5799, 5834, 5833
4512, 5974, 5975, 6010, 6009, 5799, 5800, 5835, 5834
4513, 5975, 5976, 6011, 6010, 5800, 5801, 5836, 5835
4514, 5976, 5977, 6012, 6011, 5801, 5802, 5837, 5836
4515, 5977, 5978, 6013, 6012, 5802, 5803, 5838, 5837
4516, 5978, 5979, 6014, 6013, 5803, 5804, 5839, 5838
4517, 5979, 5980, 6015, 6014, 5804, 5805, 5840, 5839
4518, 5980, 5981, 6016, 6015, 5805, 5806, 5841, 5840
4519, 5981, 5982, 6017, 6016, 5806, 5807, 5842, 5841
4520, 5982, 5983, 6018, 6017, 5807, 5808, 5843, 5842
4521, 5983, 5984, 6019, 6018, 5808, 5809, 5844, 5843
4522, 5984, 5985, 6020, 6019, 5809, 5810, 5845, 5844
4523, 5986, 5987, 6022, 6021, 5811, 5812, 5847, 5846
4524, 5987, 5988, 6023, 6022, 5812, 5813, 5848, 5847
4525, 5988, 5989, 6024, 6023, 5813, 5814, 5849, 5848
4526, 5989, 5990, 6025, 6024, 5814, 5815, 5850, 5849
4527, 5990, 5991, 6026, 6025, 5815, 5816, 5851, 5850
4528, 5991, 5992, 6027, 6026, 5816, 5817, 5852, 5851
4529, 5992, 5993, 6028, 6027, 5817, 5818, 5853, 5852
4530, 5993, 5994, 6029, 6028, 5818, 5819, 5854, 5853
4531, 5994, 5995, 6030, 6029, 5819, 5820, 5855, 5854
4532, 5995, 5996, 6031, 6030, 5820, 5821, 5856, 5855
4533, 5996, 5997, 6032, 6031, 5821, 5822, 5857, 5856
4534, 5997, 5998, 6033, 6032, 5822, 5823, 5858, 5857
4535, 5998, 5999, 6034, 6033, 5823, 5824, 5859, 5858
4536, 5999, 6000, 6035, 6034, 5824, 5825, 5860, 5859
4537, 6000, 6001, 6036, 6035, 5825, 5826, 5861, 5860
4538, 6001, 6002, 6037, 6036, 5826, 5827, 5862, 5861
4539, 6002, 6003, 6038, 6037, 5827, 5828, 5863, 5862
4540, 6003, 6004, 6039, 6038, 5828, 5829, 5864, 5863
4541, 6004, 6005, 6040, 6039, 5829, 5830, 5865, 5864
4542, 6005, 6006, 6041, 6040, 5830, 5831, 5866, 5865
4543, 6006, 6007, 6042, 6041, 5831, 5832, 5867, 5866
4544, 6007, 6008, 6043, 6042, 5832, 5833, 5868, 5867
4545, 6008, 6009, 6044, 6043, 5833, 5834, 5869, 5868
4546, 6009, 6010, 6045, 6044, 5834, 5835, 5870, 5869
4547, 6010, 6011, 6046, 6045, 5835, 5836, 5871, 5870
4548, 6011, 6012, 6047, 6046, 5836, 5837, 5872, 5871
4549, 6012, 6013, 6048, 6047, 5837, 5838, 5873, 5872
4550, 6013, 6014, 6049, 6048, 5838, 5839, 5874, 5873
4551, 6014, 6015, 6050, 6049, 5839, 5840, 5875, 5874
4552, 6015, 6016, 6051, 6050, 5840, 5841, 5876, 5875
4553, 6016, 6017, 6052, 6051, 5841, 5842, 5877, 5876
4554, 6017, 6018, 6053, 6052, 5842, 5843, 5878, 5877
4555, 6018, 6019, 6054, 6053, 5843, 5844, 5879, 5878
4556, 6019, 6020, 6055, 6054, 5844, 5845, 5880, 5879
4557, 6021, 6022, 6057, 6056, 5846, 5847, 5882, 5881
4558, 6022, 6023, 6058, 6057, 5847, 5848, 5883, 5882
4559, 6023, 6024, 6059, 6058, 5848, 5849, 5884, 5883
4560, 6024, 6025, 6060, 6059, 5849, 5850, 5885, 5884
4561, 6025, 6026, 6061, 6060, 5850, 5851, 5886, 5885
4562, 6026, 6027, 6062, 6061, 5851, 5852, 5887, 5886
4563, 6027, 6028, 6063, 6062, 5852, 5853, 5888, 5887
4564, 6028, 6029, 6064, 6063, 5853, 5854, 5889, 5888
4565, 6029, 6030, 6065, 6064, 5854, 5855, 5890, 5889
4566, 6030, 6031, 6066, 6065, 5855, 5856, 5891, 5890
4567, 6031, 6032, 6067, 6066, 5856, 5857, 5892, 5891
4568, 6032, 6033, 6068, 6067, 5857, 5858, 5893, 5892
4569, 6033, 6034, 6069, 6068, 5858, 5859, 5894, 5893
4570, 6034, 6035, 6070, 6069, 5859, 5860, 5895, 5894
4571, 6035, 6036, 6071, 6070, 5860, 5861, 5896, 5895
4572, 6036, 6037, 6072, 6071, 5861, 5862, 5897, 5896
4573, 6037, 6038, 6073, 6072, 5862, 5863, 5898, 5897
4574, 6038, 6039, 6074, 6073, 5863, 5864, 5899, 5898
4575, 6039, 6040, 6075, 6074, 5864, 5865, 5900, 5899
4576, 6040, 6041, 6076, 6075, 5865, 5866, 5901, 5900
4577, 6041, 6042, 6077, 6076, 5866, 5867, 5902, 5901
4578, 6042, 6043, 6078, 6077, 5867, 5868, 5903, 5902
4579, 6043, 6044, 6079, 6078, 5868, 5869, 5904, 5903
4580, 6044, 6045, 6080, 6079, 5869, 5870, 5905, 5904
4581, 6045, 6046, 6081, 6080, 5870, 5871, 5906, 5905
4582, 6046, 6047, 6082, 6081, 5871, 5872, 5907, 5906
4583, 6047, 6048, 6083, 6082, 5872, 5873, 5908, 5907
4584, 6048, 6049, 6084, 6083, 5873, 5874, 5909, 5908
4585, 6049, 6050, 6085, 6084, 5874, 5875, 5910, 5909
4586, 6050, 6051, 6086, 6085, 5875, 5876, 5911, 5910
4587, 6051, 6052, 6087, 6086, 5876, 5877, 5912, 5911
4588, 6052, 6053, 6088, 6087, 5877, 5878, 5913, 5912
4589, 6053, 6054, 6089, 6088, 5878, 5879, 5914, 5913
4590, 6054, 6055, 6090, 6089, 5879, 5880, 5915, 5914
4591, 6056, 6057, 6092, 6091, 5881, 5882, 5917, 5916
4592, 6057, 6058, 6093, 6092, 5882, 5883, 5918, 5917
4593, 6058, 6059, 6094, 6093, 5883, 5884, 5919, 5918
4594, 6059, 6060, 6095, 6094, 5884, 5885, 5920, 5919
4595, 6060, 6061, 6096, 6095, 5885, 5886, 5921, 5920
4596, 6061, 6062, 6097, 6096, 5886, 5887, 5922, 5921
4597, 6062, 6063, 6098, 6097, 5887, 5888, 5923, 5922
4598, 6063, 6064, 6099, 6098, 5888, 5889, 5924, 5923
4599, 6064, 6065, 6100, 6099, 5889, 5890, 5925, 5924
4600, 6065, 6066, 6101, 6100, 5890, 5891, 5926, 5925
4601, 6066, 6067, 6102, 6101, 5891, 5892, 5927, 5926
4602, 6067, 6068, 6103, 6102, 5892, 5893, 5928, 5927
4603, 6068, 6069, 6104, 6103, 5893, 5894, 5929, 5928
4604, 6069, 6070, 6105, 6104, 5894, 5895, 5930, 5929
4605, 6070, 6071, 6106, 6105, 5895, 5896, 5931, 5930
4606, 6071, 6072, 6107, 6106, 5896, 5897, 5932, 5931
4607, 6072, 6073, 6108, 6107, 5897, 5898, 5933, 5932
4608, 6073, 6074, 6109, 6108, 5898, 5899, 5934, 5933
4609, 6074, 6075, 6110, 6109, 5899, 5900, 5935, 5934
4610, 6075, 6076, 6111, 6110, 5900, 5901, 5936, 5935
4611, 6076, 6077, 6112, 6111, 5901, 5902, 5937, 5936
4612, 6077, 6078, 6113, 6112, 5902, 5903, 5938, 5937
4613, 6078, 6079, 6114, 6113, 5903, 5904, 5939, 5938
4614, 6079, 6080, 6115, 6114, 5904, 5905, 5940, 5939
4615, 6080, 6081, 6116, 6115, 5905, 5906, 5941, 5940
4616, 6081, 6082, 6117, 6116, 5906, 5907, 5942, 5941
4617, 6082, 6083, 6118, 6117, 5907, 5908, 5943, 5942
4618, 6083, 6084, 6119, 6118, 5908, 5909, 5944, 5943
4619, 6084, 6085, 6120, 6119, 5909, 5910, 5945, 5944
4620, 6085, 6086, 6121, 6120, 5910, 5911, 5946, 5945
4621, 6086, 6087, 6122, 6121, 5911, 5912, 5947, 5946
4622, 6087, 6088, 6123, 6122, 5912, 5913, 5948, 5947
4623, 6088, 6089, 6124, 6123, 5913, 5914, 5949, 5948
4624, 6089, 6090, 6125, 6124, 5914, 5915, 5950, 5949
4625, 6126, 6127, 6162, 6161, 5951, 5952, 5987, 5986
4626, 6127, 6128, 6163, 6162, 5952, 5953, 5988, 5987
4627, 6128, 6129, 6164, 6163, 5953, 5954, 5989, 5988
4628, 6129, 6130, 6165, 6164, 5954, 5955, 5990, 5989
4629, 6130, 6131, 6166, 6165, 5955, 5956, 5991, 5990
4630, 6131, 6132, 6167, 6166, 5956, 5957, 5992, 5991
4631, 6132, 6133, 6168, 6167, 5957, 5958, 5993, 5992
4632, 6133, 6134, 6169, 6168, 5958, 5959, 5994, 5993
4633, 6134, 6135, 6170, 6169, 5959, 5960, 5995, 5994
4634, 6135, 6136, 6171, 6170, 5960, 5961, 5996, 5995
4635, 6136, 6137, 6172, 6171, 5961, 5962, 5997, 5996
4636, 6137, 6138, 6173, 6172, 5962, 5963, 5998, 5997
4637, 6138, 6139, 6174, 6173, 5963, 5964, 5999, 5998
4638, 6139, 6140, 6175, 6174, 5964, 5965, 6000, 5999
4639, 6140, 6141, 6176, 6175, 5965, 5966, 6001, 6000
4640, 6141, 6142, 6177, 6176, 5966, 5967, 6002, 6001
4641, 6142, 6143, 6178, 6177, 5967, 5968, 6003, 6002
4642, 6143, 6144, 6179, 6178, 5968, 5969, 6004, 6003
4643, 6144, 6145, 6180, 6179, 5969, 5970, 6005, 6004
4644, 6145, 6146, 6181, 6180, 5970, 5971, 6006, 6005
4645, 6146, 6147, 6182, 6181, 5971, 5972, 6007, 6006
4646, 6147, 6148, 6183, 6182, 5972, 5973, 6008, 6007
4647, 6148, 6149, 6184, 6183, 5973, 5974, 6009, 6008
4648, 6149, 6150, 6185, 6184, 5974, 5975, 6010, 6009
4649, 6150, 6151, 6186, 6185, 5975, 5976, 6011, 6010
4650, 6151, 6152, 6187, 6186, 5976, 5977, 6012, 6011
4651, 6152, 6153, 6188, 6187, 5977, 5978, 6013, 6012
4652, 6153, 6154, 6189, 6188, 5978, 5979, 6014, 6013
4653, 6154, 6155, 6190, 6189, 5979, 5980, 6015, 6014
4654, 6155, 6156, 6191, 6190, 5980, 5981, 6016, 6015
4655, 6156, 6157, 6192, 6191, 5981, 5982, 6017, 6016
4656, 6157, 6158, 6193, 6192, 5982, 5983, 6018, 6017
4657, 6158, 6159, 6194, 6193, 5983, 5984, 6019, 6018
4658, 6159, 6160, 6195, 6194, 5984, 5985, 6020, 6019
4659, 6161, 6162, 6197, 6196, 5986, 5987, 6022, 6021
4660, 6162, 6163, 6198, 6197, 5987, 5988, 6023, 6022
4661, 6163, 6164, 6199, 6198, 5988, 5989, 6024, 6023
4662, 6164, 6165, 6200, 6199, 5989, 5990, 6025, 6024
4663, 6165, 6166, 6201, 6200, 5990, 5991, 6026, 6025
4664, 6166, 6167, 6202, 6201, 5991, 5992, 6027, 6026
4665, 6167, 6168, 6203, 6202, 5992, 5993, 6028, 6027
4666, 6168, 6169, 6204, 6203, 5993, 5994, 6029, 6028
4667, 6169, 6170, 6205, 6204, 5994, 5995, 6030, 6029
4668, 6170, 6171, 6206, 6205, 5995, 5996, 6031, 6030
4669, 6171, 6172, 6207, 6206, 5996, 5997, 6032, 6031
4670, 6172, 6173, 6208, 6207, 5997, 5998, 6033, 6032
4671, 6173, 6174, 6209, 6208, 5998, 5999, 6034, 6033
4672, 6174, 6175, 6210, 6209, 5999, 6000, 6035, 6034
4673, 6175, 6176, 6211, 6210, 6000, 6001, 6036, 6035
4674, 6176, 6177, 6212, 6211, 6001, 6002, 6037, 6036
4675, 6177, 6178, 6213, 6212, 6002, 6003, 6038, 6037
4676, 6178, 6179, 6214, 6213, 6003, 6004, 6039, 6038
4677, 6179, 6180, 6215, 6214, 6004, 6005, 6040, 6039
4678, 6180, 6181, 6216, 6215, 6005, 6006, 6041, 6040
4679, 6181, 6182, 6217, 6216, 6006, 6007, 6042, 6041
4680, 6182, 6183, 6218, 6217, 6007, 6008, 6043, 6042
4681, 6183, 6184, 6219, 6218, 6008, 6009, 6044, 6043
4682, 6184, 6185, 6220, 6219, 6009, 6010, 6045, 6044
4683, 6185, 6186, 6221, 6220, 6010, 6011, 6046, 6045
4684, 6186, 6187, 6222, 6221, 6011, 6012, 6047, 6046
4685, 6187, 6188, 6223, 6222, 6012, 6013, 6048, 6047
4686, 6188, 6189, 6224, 6223, 6013, 6014, 6049, 6048
4687, 6189, 6190, 6225, 6224, 6014, 6015, 6050, 6049
4688, 6190, 6191, 6226, 6225, 6015, 6016, 6051, 6050
4689, 6191, 6192, 6227, 6226, 6016, 6017, 6052, 6051
4690, 6192, 6193, 6228, 6227, 6017, 6018, 6053, 6052
4691, 6193, 6194, 6229, 6228, 6018, 6019, 6054, 6053
4692, 6194, 6195, 6230, 6229, 6019, 6020, 6055, 6054
4693, 6196, 6197, 6232, 6231, 6021, 6022, 6057, 6056
4694, 6197, 6198, 6233, 6232, 6022, 6023, 6058, 6057
4695, 6198, 6199, 6234, 6233, 6023, 6024, 6059, 6058
4696, 6199, 6200, 6235, 6234, 6024, 6025, 6060, 6059
4697, 6200, 6201, 6236, 6235, 6025, 6026, 6061, 6060
4698, 6201, 6202, 6237, 6236, 6026, 6027, 6062, 6061
4699, 6202, 6203, 6238, 6237, 6027, 6028, 6063, 6062
4700, 6203, 6204, 6239, 6238, 6028, 6029, 6064, 6063
4701, 6204, 6205, 6240, 6239, 6029, 6030, 6065, 6064
4702, 6205, 6206, 6241, 6240, 6030, 6031, 6066, 6065
4703, 6206, 6207, 6242, 6241, 6031, 6032, 6067, 6066
4704, 6207, 6208, 6243, 6242, 6032, 6033, 6068, 6067
4705, 6208, 6209, 6244, 6243, 6033, 6034, 6069, 6068
4706, 6209, 6210, 6245, 6244, 6034, 6035, 6070, 6069
4707, 6210, 6211, 6246, 6245, 6035, 6036, 6071, 6070
4708, 6211, 6212, 6247, 6246, 6036, 6037, 6072, 6071
4709, 6212, 6213, 6248, 6247, 6037, 6038, 6073, 6072
4710, 6213, 6214, 6249, 6248, 6038, 6039, 6074, 6073
4711, 6214, 6215, 6250, 6249, 6039, 6040, 6075, 6074
4712, 6215, 6216, 6251, 6250, 6040, 6041, 6076, 6075
4713, 6216, 6217, 6252, 6251, 6041, 6042, 6077, 6076
4714, 6217, 6218, 6253, 6252, 6042, 6043, 6078, 6077
4715, 6218, 6219, 6254, 6253, 6043, 6044, 6079, 6078
4716, 6219, 6220, 6255, 6254, 6044, 6045, 6080, 6079
4717, 6220, 6221, 6256, 6255, 6045, 6046, 6081, 6080
4718, 6221, 6222, 6257, 6256, 6046, 6047, 6082, 6081
4719, 6222, 6223, 6258, 6257, 6047, 6048, 6083, 6082
4720, 6223, 6224, 6259, 6258, 6048, 6049, 6084, 6083
4721, 6224, 6225, 6260, 6259, 6049, 6050, 6085, 6084
4722, 6225, 6226, 6261, 6260, 6050, 6051, 6086, 6085
4723, 6226, 6227, 6262, 6261, 6051, 6052, 6087, 6086
4724, 6227, 6228, 6263, 6262, 6052, 6053, 6088, 6087
4725, 6228, 6229, 6264, 6263, 6053, 6054, 6089, 6088
4726, 6229, 6230, 6265, 6264, 6054, 6055, 6090, 6089
4727, 6231, 6232, 6267, 6266, 6056, 6057, 6092, 6091
4728, 6232, 6233, 6268, 6267, 6057, 6058, 6093, 6092
4729, 6233, 6234, 6269, 6268, 6058, 6059, 6094, 6093
4730, 6234, 6235, 6270, 6269, 6059, 6060, 6095, 6094
4731, 6235, 6236, 6271, 6270, 6060, 6061, 6096, 6095
4732, 6236, 6237, 6272, 6271, 6061, 6062, 6097, 6096
4733, 6237, 6238, 6273, 6272, 6062, 6063, 6098, 6097
4734, 6238, 6239, 6274, 6273, 6063, 6064, 6099, 6098
4735, 6239, 6240, 6275, 6274, 6064, 6065, 6100, 6099
4736, 6240, 6241, 6276, 6275, 6065, 6066, 6101, 6100
4737, 6241, 6242, 6277, 6276, 6066, 6067, 6102, 6101
4738, 6242, 6243, 6278, 6277, 6067, 6068, 6103, 6102
4739, 6243, 6244, 6279, 6278, 6068, 6069, 6104, 6103
4740, 6244, 6245, 6280, 6279, 6069, 6070, 6105, 6104
4741, 6245, 6246, 6281, 6280, 6070, 6071, 6106, 6105
4742, 6246, 6247, 6282, 6281, 6071, 6072, 6107, 6106
4743, 6247, 6248, 6283, 6282, 6072, 6073, 6108, 6107
4744, 6248, 6249, 6284, 6283, 6073, 6074, 6109, 6108
4745, 6249, 6250, 6285, 6284, 6074, 6075, 6110, 6109
4746, 6250, 6251, 6286, 6285, 6075, 6076, 6111, 6110
4747, 6251, 6252, 6287, 6286, 6076, 6077, 6112, 6111
4748, 6252, 6253, 6288, 6287, 6077, 6078, 6113, 6112
4749, 6253, 6254, 6289, 6288, 6078, 6079, 6114, 6113
4750, 6254, 6255, 6290, 6289, 6079, 6080, 6115, 6114
4751, 6255, 6256, 6291, 6290, 6080, 6081, 6116, 6115
4752, 6256, 6257, 6292, 6291, 6081, 6082, 6117, 6116
4753, 6257, 6258, 6293, 6292, 6082, 6083, 6118, 6117
4754, 6258, 6259, 6294, 6293, 6083, 6084, 6119, 6118
4755, 6259, 6260, 6295, 6294, 6084, 6085, 6120, 6119
4756, 6260, 6261, 6296, 6295, 6085, 6086, 6121, 6120
4757, 6261, 6262, 6297, 6296, 6086, 6087, 6122, 6121
4758, 6262, 6263, 6298, 6297, 6087, 6088, 6123, 6122
4759, 6263, 6264, 6299, 6298, 6088, 6089, 6124, 6123
4760, 6264, 6265, 6300, 6299, 6089, 6090, 6125, 6124
*End Part
**  
**
** ASSEMBLY
**
*Assembly, name=Assembly
**  
*Instance, name=Part-1-1, part=Part-1
*End Instance
**  
*End Assembly
