*Heading
** Job name: Plate_T2 Model name: Model-1
** Generated by: Abaqus/CAE 2020
*Preprint, echo=NO, model=NO, history=NO, contact=NO
**
** PARTS
**
*Part, name=Part-1
*Node
      1,          -1.,          -1.,  0.100000001
      2,          -1., -0.857142866,  0.100000001
      3,          -1., -0.714285731,  0.100000001
      4,          -1., -0.571428597,  0.100000001
      5,          -1., -0.428571433,  0.100000001
      6,          -1., -0.285714298,  0.100000001
      7,          -1., -0.142857149,  0.100000001
      8,          -1.,           0.,  0.100000001
      9,          -1.,  0.142857149,  0.100000001
     10,          -1.,  0.285714298,  0.100000001
     11,          -1.,  0.428571433,  0.100000001
     12,          -1.,  0.571428597,  0.100000001
     13,          -1.,  0.714285731,  0.100000001
     14,          -1.,  0.857142866,  0.100000001
     15,          -1.,           1.,  0.100000001
     16,          -1.,          -1., 0.0500000007
     17,          -1., -0.857142866, 0.0500000007
     18,          -1., -0.714285731, 0.0500000007
     19,          -1., -0.571428597, 0.0500000007
     20,          -1., -0.428571433, 0.0500000007
     21,          -1., -0.285714298, 0.0500000007
     22,          -1., -0.142857149, 0.0500000007
     23,          -1.,           0., 0.0500000007
     24,          -1.,  0.142857149, 0.0500000007
     25,          -1.,  0.285714298, 0.0500000007
     26,          -1.,  0.428571433, 0.0500000007
     27,          -1.,  0.571428597, 0.0500000007
     28,          -1.,  0.714285731, 0.0500000007
     29,          -1.,  0.857142866, 0.0500000007
     30,          -1.,           1., 0.0500000007
     31,          -1.,          -1.,           0.
     32,          -1., -0.857142866,           0.
     33,          -1., -0.714285731,           0.
     34,          -1., -0.571428597,           0.
     35,          -1., -0.428571433,           0.
     36,          -1., -0.285714298,           0.
     37,          -1., -0.142857149,           0.
     38,          -1.,           0.,           0.
     39,          -1.,  0.142857149,           0.
     40,          -1.,  0.285714298,           0.
     41,          -1.,  0.428571433,           0.
     42,          -1.,  0.571428597,           0.
     43,          -1.,  0.714285731,           0.
     44,          -1.,  0.857142866,           0.
     45,          -1.,           1.,           0.
     46, -0.866666675,          -1.,  0.100000001
     47, -0.866666675, -0.857142866,  0.100000001
     48, -0.866666675, -0.714285731,  0.100000001
     49, -0.866666675, -0.571428597,  0.100000001
     50, -0.866666675, -0.428571433,  0.100000001
     51, -0.866666675, -0.285714298,  0.100000001
     52, -0.866666675, -0.142857149,  0.100000001
     53, -0.866666675,           0.,  0.100000001
     54, -0.866666675,  0.142857149,  0.100000001
     55, -0.866666675,  0.285714298,  0.100000001
     56, -0.866666675,  0.428571433,  0.100000001
     57, -0.866666675,  0.571428597,  0.100000001
     58, -0.866666675,  0.714285731,  0.100000001
     59, -0.866666675,  0.857142866,  0.100000001
     60, -0.866666675,           1.,  0.100000001
     61, -0.866666675,          -1., 0.0500000007
     62, -0.866666675, -0.857142866, 0.0500000007
     63, -0.866666675, -0.714285731, 0.0500000007
     64, -0.866666675, -0.571428597, 0.0500000007
     65, -0.866666675, -0.428571433, 0.0500000007
     66, -0.866666675, -0.285714298, 0.0500000007
     67, -0.866666675, -0.142857149, 0.0500000007
     68, -0.866666675,           0., 0.0500000007
     69, -0.866666675,  0.142857149, 0.0500000007
     70, -0.866666675,  0.285714298, 0.0500000007
     71, -0.866666675,  0.428571433, 0.0500000007
     72, -0.866666675,  0.571428597, 0.0500000007
     73, -0.866666675,  0.714285731, 0.0500000007
     74, -0.866666675,  0.857142866, 0.0500000007
     75, -0.866666675,           1., 0.0500000007
     76, -0.866666675,          -1.,           0.
     77, -0.866666675, -0.857142866,           0.
     78, -0.866666675, -0.714285731,           0.
     79, -0.866666675, -0.571428597,           0.
     80, -0.866666675, -0.428571433,           0.
     81, -0.866666675, -0.285714298,           0.
     82, -0.866666675, -0.142857149,           0.
     83, -0.866666675,           0.,           0.
     84, -0.866666675,  0.142857149,           0.
     85, -0.866666675,  0.285714298,           0.
     86, -0.866666675,  0.428571433,           0.
     87, -0.866666675,  0.571428597,           0.
     88, -0.866666675,  0.714285731,           0.
     89, -0.866666675,  0.857142866,           0.
     90, -0.866666675,           1.,           0.
     91, -0.733333349,          -1.,  0.100000001
     92, -0.733333349, -0.857142866,  0.100000001
     93, -0.733333349, -0.714285731,  0.100000001
     94, -0.733333349, -0.571428597,  0.100000001
     95, -0.733333349, -0.428571433,  0.100000001
     96, -0.733333349, -0.285714298,  0.100000001
     97, -0.733333349, -0.142857149,  0.100000001
     98, -0.733333349,           0.,  0.100000001
     99, -0.733333349,  0.142857149,  0.100000001
    100, -0.733333349,  0.285714298,  0.100000001
    101, -0.733333349,  0.428571433,  0.100000001
    102, -0.733333349,  0.571428597,  0.100000001
    103, -0.733333349,  0.714285731,  0.100000001
    104, -0.733333349,  0.857142866,  0.100000001
    105, -0.733333349,           1.,  0.100000001
    106, -0.733333349,          -1., 0.0500000007
    107, -0.733333349, -0.857142866, 0.0500000007
    108, -0.733333349, -0.714285731, 0.0500000007
    109, -0.733333349, -0.571428597, 0.0500000007
    110, -0.733333349, -0.428571433, 0.0500000007
    111, -0.733333349, -0.285714298, 0.0500000007
    112, -0.733333349, -0.142857149, 0.0500000007
    113, -0.733333349,           0., 0.0500000007
    114, -0.733333349,  0.142857149, 0.0500000007
    115, -0.733333349,  0.285714298, 0.0500000007
    116, -0.733333349,  0.428571433, 0.0500000007
    117, -0.733333349,  0.571428597, 0.0500000007
    118, -0.733333349,  0.714285731, 0.0500000007
    119, -0.733333349,  0.857142866, 0.0500000007
    120, -0.733333349,           1., 0.0500000007
    121, -0.733333349,          -1.,           0.
    122, -0.733333349, -0.857142866,           0.
    123, -0.733333349, -0.714285731,           0.
    124, -0.733333349, -0.571428597,           0.
    125, -0.733333349, -0.428571433,           0.
    126, -0.733333349, -0.285714298,           0.
    127, -0.733333349, -0.142857149,           0.
    128, -0.733333349,           0.,           0.
    129, -0.733333349,  0.142857149,           0.
    130, -0.733333349,  0.285714298,           0.
    131, -0.733333349,  0.428571433,           0.
    132, -0.733333349,  0.571428597,           0.
    133, -0.733333349,  0.714285731,           0.
    134, -0.733333349,  0.857142866,           0.
    135, -0.733333349,           1.,           0.
    136, -0.600000024,          -1.,  0.100000001
    137, -0.600000024, -0.857142866,  0.100000001
    138, -0.600000024, -0.714285731,  0.100000001
    139, -0.600000024, -0.571428597,  0.100000001
    140, -0.600000024, -0.428571433,  0.100000001
    141, -0.600000024, -0.285714298,  0.100000001
    142, -0.600000024, -0.142857149,  0.100000001
    143, -0.600000024,           0.,  0.100000001
    144, -0.600000024,  0.142857149,  0.100000001
    145, -0.600000024,  0.285714298,  0.100000001
    146, -0.600000024,  0.428571433,  0.100000001
    147, -0.600000024,  0.571428597,  0.100000001
    148, -0.600000024,  0.714285731,  0.100000001
    149, -0.600000024,  0.857142866,  0.100000001
    150, -0.600000024,           1.,  0.100000001
    151, -0.600000024,          -1., 0.0500000007
    152, -0.600000024, -0.857142866, 0.0500000007
    153, -0.600000024, -0.714285731, 0.0500000007
    154, -0.600000024, -0.571428597, 0.0500000007
    155, -0.600000024, -0.428571433, 0.0500000007
    156, -0.600000024, -0.285714298, 0.0500000007
    157, -0.600000024, -0.142857149, 0.0500000007
    158, -0.600000024,           0., 0.0500000007
    159, -0.600000024,  0.142857149, 0.0500000007
    160, -0.600000024,  0.285714298, 0.0500000007
    161, -0.600000024,  0.428571433, 0.0500000007
    162, -0.600000024,  0.571428597, 0.0500000007
    163, -0.600000024,  0.714285731, 0.0500000007
    164, -0.600000024,  0.857142866, 0.0500000007
    165, -0.600000024,           1., 0.0500000007
    166, -0.600000024,          -1.,           0.
    167, -0.600000024, -0.857142866,           0.
    168, -0.600000024, -0.714285731,           0.
    169, -0.600000024, -0.571428597,           0.
    170, -0.600000024, -0.428571433,           0.
    171, -0.600000024, -0.285714298,           0.
    172, -0.600000024, -0.142857149,           0.
    173, -0.600000024,           0.,           0.
    174, -0.600000024,  0.142857149,           0.
    175, -0.600000024,  0.285714298,           0.
    176, -0.600000024,  0.428571433,           0.
    177, -0.600000024,  0.571428597,           0.
    178, -0.600000024,  0.714285731,           0.
    179, -0.600000024,  0.857142866,           0.
    180, -0.600000024,           1.,           0.
    181, -0.466666669,          -1.,  0.100000001
    182, -0.466666669, -0.857142866,  0.100000001
    183, -0.466666669, -0.714285731,  0.100000001
    184, -0.466666669, -0.571428597,  0.100000001
    185, -0.466666669, -0.428571433,  0.100000001
    186, -0.466666669, -0.285714298,  0.100000001
    187, -0.466666669, -0.142857149,  0.100000001
    188, -0.466666669,           0.,  0.100000001
    189, -0.466666669,  0.142857149,  0.100000001
    190, -0.466666669,  0.285714298,  0.100000001
    191, -0.466666669,  0.428571433,  0.100000001
    192, -0.466666669,  0.571428597,  0.100000001
    193, -0.466666669,  0.714285731,  0.100000001
    194, -0.466666669,  0.857142866,  0.100000001
    195, -0.466666669,           1.,  0.100000001
    196, -0.466666669,          -1., 0.0500000007
    197, -0.466666669, -0.857142866, 0.0500000007
    198, -0.466666669, -0.714285731, 0.0500000007
    199, -0.466666669, -0.571428597, 0.0500000007
    200, -0.466666669, -0.428571433, 0.0500000007
    201, -0.466666669, -0.285714298, 0.0500000007
    202, -0.466666669, -0.142857149, 0.0500000007
    203, -0.466666669,           0., 0.0500000007
    204, -0.466666669,  0.142857149, 0.0500000007
    205, -0.466666669,  0.285714298, 0.0500000007
    206, -0.466666669,  0.428571433, 0.0500000007
    207, -0.466666669,  0.571428597, 0.0500000007
    208, -0.466666669,  0.714285731, 0.0500000007
    209, -0.466666669,  0.857142866, 0.0500000007
    210, -0.466666669,           1., 0.0500000007
    211, -0.466666669,          -1.,           0.
    212, -0.466666669, -0.857142866,           0.
    213, -0.466666669, -0.714285731,           0.
    214, -0.466666669, -0.571428597,           0.
    215, -0.466666669, -0.428571433,           0.
    216, -0.466666669, -0.285714298,           0.
    217, -0.466666669, -0.142857149,           0.
    218, -0.466666669,           0.,           0.
    219, -0.466666669,  0.142857149,           0.
    220, -0.466666669,  0.285714298,           0.
    221, -0.466666669,  0.428571433,           0.
    222, -0.466666669,  0.571428597,           0.
    223, -0.466666669,  0.714285731,           0.
    224, -0.466666669,  0.857142866,           0.
    225, -0.466666669,           1.,           0.
    226, -0.333333343,          -1.,  0.100000001
    227, -0.333333343, -0.857142866,  0.100000001
    228, -0.333333343, -0.714285731,  0.100000001
    229, -0.333333343, -0.571428597,  0.100000001
    230, -0.333333343, -0.428571433,  0.100000001
    231, -0.333333343, -0.285714298,  0.100000001
    232, -0.333333343, -0.142857149,  0.100000001
    233, -0.333333343,           0.,  0.100000001
    234, -0.333333343,  0.142857149,  0.100000001
    235, -0.333333343,  0.285714298,  0.100000001
    236, -0.333333343,  0.428571433,  0.100000001
    237, -0.333333343,  0.571428597,  0.100000001
    238, -0.333333343,  0.714285731,  0.100000001
    239, -0.333333343,  0.857142866,  0.100000001
    240, -0.333333343,           1.,  0.100000001
    241, -0.333333343,          -1., 0.0500000007
    242, -0.333333343, -0.857142866, 0.0500000007
    243, -0.333333343, -0.714285731, 0.0500000007
    244, -0.333333343, -0.571428597, 0.0500000007
    245, -0.333333343, -0.428571433, 0.0500000007
    246, -0.333333343, -0.285714298, 0.0500000007
    247, -0.333333343, -0.142857149, 0.0500000007
    248, -0.333333343,           0., 0.0500000007
    249, -0.333333343,  0.142857149, 0.0500000007
    250, -0.333333343,  0.285714298, 0.0500000007
    251, -0.333333343,  0.428571433, 0.0500000007
    252, -0.333333343,  0.571428597, 0.0500000007
    253, -0.333333343,  0.714285731, 0.0500000007
    254, -0.333333343,  0.857142866, 0.0500000007
    255, -0.333333343,           1., 0.0500000007
    256, -0.333333343,          -1.,           0.
    257, -0.333333343, -0.857142866,           0.
    258, -0.333333343, -0.714285731,           0.
    259, -0.333333343, -0.571428597,           0.
    260, -0.333333343, -0.428571433,           0.
    261, -0.333333343, -0.285714298,           0.
    262, -0.333333343, -0.142857149,           0.
    263, -0.333333343,           0.,           0.
    264, -0.333333343,  0.142857149,           0.
    265, -0.333333343,  0.285714298,           0.
    266, -0.333333343,  0.428571433,           0.
    267, -0.333333343,  0.571428597,           0.
    268, -0.333333343,  0.714285731,           0.
    269, -0.333333343,  0.857142866,           0.
    270, -0.333333343,           1.,           0.
    271, -0.200000003,          -1.,  0.100000001
    272, -0.200000003, -0.857142866,  0.100000001
    273, -0.200000003, -0.714285731,  0.100000001
    274, -0.200000003, -0.571428597,  0.100000001
    275, -0.200000003, -0.428571433,  0.100000001
    276, -0.200000003, -0.285714298,  0.100000001
    277, -0.200000003, -0.142857149,  0.100000001
    278, -0.200000003,           0.,  0.100000001
    279, -0.200000003,  0.142857149,  0.100000001
    280, -0.200000003,  0.285714298,  0.100000001
    281, -0.200000003,  0.428571433,  0.100000001
    282, -0.200000003,  0.571428597,  0.100000001
    283, -0.200000003,  0.714285731,  0.100000001
    284, -0.200000003,  0.857142866,  0.100000001
    285, -0.200000003,           1.,  0.100000001
    286, -0.200000003,          -1., 0.0500000007
    287, -0.200000003, -0.857142866, 0.0500000007
    288, -0.200000003, -0.714285731, 0.0500000007
    289, -0.200000003, -0.571428597, 0.0500000007
    290, -0.200000003, -0.428571433, 0.0500000007
    291, -0.200000003, -0.285714298, 0.0500000007
    292, -0.200000003, -0.142857149, 0.0500000007
    293, -0.200000003,           0., 0.0500000007
    294, -0.200000003,  0.142857149, 0.0500000007
    295, -0.200000003,  0.285714298, 0.0500000007
    296, -0.200000003,  0.428571433, 0.0500000007
    297, -0.200000003,  0.571428597, 0.0500000007
    298, -0.200000003,  0.714285731, 0.0500000007
    299, -0.200000003,  0.857142866, 0.0500000007
    300, -0.200000003,           1., 0.0500000007
    301, -0.200000003,          -1.,           0.
    302, -0.200000003, -0.857142866,           0.
    303, -0.200000003, -0.714285731,           0.
    304, -0.200000003, -0.571428597,           0.
    305, -0.200000003, -0.428571433,           0.
    306, -0.200000003, -0.285714298,           0.
    307, -0.200000003, -0.142857149,           0.
    308, -0.200000003,           0.,           0.
    309, -0.200000003,  0.142857149,           0.
    310, -0.200000003,  0.285714298,           0.
    311, -0.200000003,  0.428571433,           0.
    312, -0.200000003,  0.571428597,           0.
    313, -0.200000003,  0.714285731,           0.
    314, -0.200000003,  0.857142866,           0.
    315, -0.200000003,           1.,           0.
    316, -0.0666666701,          -1.,  0.100000001
    317, -0.0666666701, -0.857142866,  0.100000001
    318, -0.0666666701, -0.714285731,  0.100000001
    319, -0.0666666701, -0.571428597,  0.100000001
    320, -0.0666666701, -0.428571433,  0.100000001
    321, -0.0666666701, -0.285714298,  0.100000001
    322, -0.0666666701, -0.142857149,  0.100000001
    323, -0.0666666701,           0.,  0.100000001
    324, -0.0666666701,  0.142857149,  0.100000001
    325, -0.0666666701,  0.285714298,  0.100000001
    326, -0.0666666701,  0.428571433,  0.100000001
    327, -0.0666666701,  0.571428597,  0.100000001
    328, -0.0666666701,  0.714285731,  0.100000001
    329, -0.0666666701,  0.857142866,  0.100000001
    330, -0.0666666701,           1.,  0.100000001
    331, -0.0666666701,          -1., 0.0500000007
    332, -0.0666666701, -0.857142866, 0.0500000007
    333, -0.0666666701, -0.714285731, 0.0500000007
    334, -0.0666666701, -0.571428597, 0.0500000007
    335, -0.0666666701, -0.428571433, 0.0500000007
    336, -0.0666666701, -0.285714298, 0.0500000007
    337, -0.0666666701, -0.142857149, 0.0500000007
    338, -0.0666666701,           0., 0.0500000007
    339, -0.0666666701,  0.142857149, 0.0500000007
    340, -0.0666666701,  0.285714298, 0.0500000007
    341, -0.0666666701,  0.428571433, 0.0500000007
    342, -0.0666666701,  0.571428597, 0.0500000007
    343, -0.0666666701,  0.714285731, 0.0500000007
    344, -0.0666666701,  0.857142866, 0.0500000007
    345, -0.0666666701,           1., 0.0500000007
    346, -0.0666666701,          -1.,           0.
    347, -0.0666666701, -0.857142866,           0.
    348, -0.0666666701, -0.714285731,           0.
    349, -0.0666666701, -0.571428597,           0.
    350, -0.0666666701, -0.428571433,           0.
    351, -0.0666666701, -0.285714298,           0.
    352, -0.0666666701, -0.142857149,           0.
    353, -0.0666666701,           0.,           0.
    354, -0.0666666701,  0.142857149,           0.
    355, -0.0666666701,  0.285714298,           0.
    356, -0.0666666701,  0.428571433,           0.
    357, -0.0666666701,  0.571428597,           0.
    358, -0.0666666701,  0.714285731,           0.
    359, -0.0666666701,  0.857142866,           0.
    360, -0.0666666701,           1.,           0.
    361, 0.0666666701,          -1.,  0.100000001
    362, 0.0666666701, -0.857142866,  0.100000001
    363, 0.0666666701, -0.714285731,  0.100000001
    364, 0.0666666701, -0.571428597,  0.100000001
    365, 0.0666666701, -0.428571433,  0.100000001
    366, 0.0666666701, -0.285714298,  0.100000001
    367, 0.0666666701, -0.142857149,  0.100000001
    368, 0.0666666701,           0.,  0.100000001
    369, 0.0666666701,  0.142857149,  0.100000001
    370, 0.0666666701,  0.285714298,  0.100000001
    371, 0.0666666701,  0.428571433,  0.100000001
    372, 0.0666666701,  0.571428597,  0.100000001
    373, 0.0666666701,  0.714285731,  0.100000001
    374, 0.0666666701,  0.857142866,  0.100000001
    375, 0.0666666701,           1.,  0.100000001
    376, 0.0666666701,          -1., 0.0500000007
    377, 0.0666666701, -0.857142866, 0.0500000007
    378, 0.0666666701, -0.714285731, 0.0500000007
    379, 0.0666666701, -0.571428597, 0.0500000007
    380, 0.0666666701, -0.428571433, 0.0500000007
    381, 0.0666666701, -0.285714298, 0.0500000007
    382, 0.0666666701, -0.142857149, 0.0500000007
    383, 0.0666666701,           0., 0.0500000007
    384, 0.0666666701,  0.142857149, 0.0500000007
    385, 0.0666666701,  0.285714298, 0.0500000007
    386, 0.0666666701,  0.428571433, 0.0500000007
    387, 0.0666666701,  0.571428597, 0.0500000007
    388, 0.0666666701,  0.714285731, 0.0500000007
    389, 0.0666666701,  0.857142866, 0.0500000007
    390, 0.0666666701,           1., 0.0500000007
    391, 0.0666666701,          -1.,           0.
    392, 0.0666666701, -0.857142866,           0.
    393, 0.0666666701, -0.714285731,           0.
    394, 0.0666666701, -0.571428597,           0.
    395, 0.0666666701, -0.428571433,           0.
    396, 0.0666666701, -0.285714298,           0.
    397, 0.0666666701, -0.142857149,           0.
    398, 0.0666666701,           0.,           0.
    399, 0.0666666701,  0.142857149,           0.
    400, 0.0666666701,  0.285714298,           0.
    401, 0.0666666701,  0.428571433,           0.
    402, 0.0666666701,  0.571428597,           0.
    403, 0.0666666701,  0.714285731,           0.
    404, 0.0666666701,  0.857142866,           0.
    405, 0.0666666701,           1.,           0.
    406,  0.200000003,          -1.,  0.100000001
    407,  0.200000003, -0.857142866,  0.100000001
    408,  0.200000003, -0.714285731,  0.100000001
    409,  0.200000003, -0.571428597,  0.100000001
    410,  0.200000003, -0.428571433,  0.100000001
    411,  0.200000003, -0.285714298,  0.100000001
    412,  0.200000003, -0.142857149,  0.100000001
    413,  0.200000003,           0.,  0.100000001
    414,  0.200000003,  0.142857149,  0.100000001
    415,  0.200000003,  0.285714298,  0.100000001
    416,  0.200000003,  0.428571433,  0.100000001
    417,  0.200000003,  0.571428597,  0.100000001
    418,  0.200000003,  0.714285731,  0.100000001
    419,  0.200000003,  0.857142866,  0.100000001
    420,  0.200000003,           1.,  0.100000001
    421,  0.200000003,          -1., 0.0500000007
    422,  0.200000003, -0.857142866, 0.0500000007
    423,  0.200000003, -0.714285731, 0.0500000007
    424,  0.200000003, -0.571428597, 0.0500000007
    425,  0.200000003, -0.428571433, 0.0500000007
    426,  0.200000003, -0.285714298, 0.0500000007
    427,  0.200000003, -0.142857149, 0.0500000007
    428,  0.200000003,           0., 0.0500000007
    429,  0.200000003,  0.142857149, 0.0500000007
    430,  0.200000003,  0.285714298, 0.0500000007
    431,  0.200000003,  0.428571433, 0.0500000007
    432,  0.200000003,  0.571428597, 0.0500000007
    433,  0.200000003,  0.714285731, 0.0500000007
    434,  0.200000003,  0.857142866, 0.0500000007
    435,  0.200000003,           1., 0.0500000007
    436,  0.200000003,          -1.,           0.
    437,  0.200000003, -0.857142866,           0.
    438,  0.200000003, -0.714285731,           0.
    439,  0.200000003, -0.571428597,           0.
    440,  0.200000003, -0.428571433,           0.
    441,  0.200000003, -0.285714298,           0.
    442,  0.200000003, -0.142857149,           0.
    443,  0.200000003,           0.,           0.
    444,  0.200000003,  0.142857149,           0.
    445,  0.200000003,  0.285714298,           0.
    446,  0.200000003,  0.428571433,           0.
    447,  0.200000003,  0.571428597,           0.
    448,  0.200000003,  0.714285731,           0.
    449,  0.200000003,  0.857142866,           0.
    450,  0.200000003,           1.,           0.
    451,  0.333333343,          -1.,  0.100000001
    452,  0.333333343, -0.857142866,  0.100000001
    453,  0.333333343, -0.714285731,  0.100000001
    454,  0.333333343, -0.571428597,  0.100000001
    455,  0.333333343, -0.428571433,  0.100000001
    456,  0.333333343, -0.285714298,  0.100000001
    457,  0.333333343, -0.142857149,  0.100000001
    458,  0.333333343,           0.,  0.100000001
    459,  0.333333343,  0.142857149,  0.100000001
    460,  0.333333343,  0.285714298,  0.100000001
    461,  0.333333343,  0.428571433,  0.100000001
    462,  0.333333343,  0.571428597,  0.100000001
    463,  0.333333343,  0.714285731,  0.100000001
    464,  0.333333343,  0.857142866,  0.100000001
    465,  0.333333343,           1.,  0.100000001
    466,  0.333333343,          -1., 0.0500000007
    467,  0.333333343, -0.857142866, 0.0500000007
    468,  0.333333343, -0.714285731, 0.0500000007
    469,  0.333333343, -0.571428597, 0.0500000007
    470,  0.333333343, -0.428571433, 0.0500000007
    471,  0.333333343, -0.285714298, 0.0500000007
    472,  0.333333343, -0.142857149, 0.0500000007
    473,  0.333333343,           0., 0.0500000007
    474,  0.333333343,  0.142857149, 0.0500000007
    475,  0.333333343,  0.285714298, 0.0500000007
    476,  0.333333343,  0.428571433, 0.0500000007
    477,  0.333333343,  0.571428597, 0.0500000007
    478,  0.333333343,  0.714285731, 0.0500000007
    479,  0.333333343,  0.857142866, 0.0500000007
    480,  0.333333343,           1., 0.0500000007
    481,  0.333333343,          -1.,           0.
    482,  0.333333343, -0.857142866,           0.
    483,  0.333333343, -0.714285731,           0.
    484,  0.333333343, -0.571428597,           0.
    485,  0.333333343, -0.428571433,           0.
    486,  0.333333343, -0.285714298,           0.
    487,  0.333333343, -0.142857149,           0.
    488,  0.333333343,           0.,           0.
    489,  0.333333343,  0.142857149,           0.
    490,  0.333333343,  0.285714298,           0.
    491,  0.333333343,  0.428571433,           0.
    492,  0.333333343,  0.571428597,           0.
    493,  0.333333343,  0.714285731,           0.
    494,  0.333333343,  0.857142866,           0.
    495,  0.333333343,           1.,           0.
    496,  0.466666669,          -1.,  0.100000001
    497,  0.466666669, -0.857142866,  0.100000001
    498,  0.466666669, -0.714285731,  0.100000001
    499,  0.466666669, -0.571428597,  0.100000001
    500,  0.466666669, -0.428571433,  0.100000001
    501,  0.466666669, -0.285714298,  0.100000001
    502,  0.466666669, -0.142857149,  0.100000001
    503,  0.466666669,           0.,  0.100000001
    504,  0.466666669,  0.142857149,  0.100000001
    505,  0.466666669,  0.285714298,  0.100000001
    506,  0.466666669,  0.428571433,  0.100000001
    507,  0.466666669,  0.571428597,  0.100000001
    508,  0.466666669,  0.714285731,  0.100000001
    509,  0.466666669,  0.857142866,  0.100000001
    510,  0.466666669,           1.,  0.100000001
    511,  0.466666669,          -1., 0.0500000007
    512,  0.466666669, -0.857142866, 0.0500000007
    513,  0.466666669, -0.714285731, 0.0500000007
    514,  0.466666669, -0.571428597, 0.0500000007
    515,  0.466666669, -0.428571433, 0.0500000007
    516,  0.466666669, -0.285714298, 0.0500000007
    517,  0.466666669, -0.142857149, 0.0500000007
    518,  0.466666669,           0., 0.0500000007
    519,  0.466666669,  0.142857149, 0.0500000007
    520,  0.466666669,  0.285714298, 0.0500000007
    521,  0.466666669,  0.428571433, 0.0500000007
    522,  0.466666669,  0.571428597, 0.0500000007
    523,  0.466666669,  0.714285731, 0.0500000007
    524,  0.466666669,  0.857142866, 0.0500000007
    525,  0.466666669,           1., 0.0500000007
    526,  0.466666669,          -1.,           0.
    527,  0.466666669, -0.857142866,           0.
    528,  0.466666669, -0.714285731,           0.
    529,  0.466666669, -0.571428597,           0.
    530,  0.466666669, -0.428571433,           0.
    531,  0.466666669, -0.285714298,           0.
    532,  0.466666669, -0.142857149,           0.
    533,  0.466666669,           0.,           0.
    534,  0.466666669,  0.142857149,           0.
    535,  0.466666669,  0.285714298,           0.
    536,  0.466666669,  0.428571433,           0.
    537,  0.466666669,  0.571428597,           0.
    538,  0.466666669,  0.714285731,           0.
    539,  0.466666669,  0.857142866,           0.
    540,  0.466666669,           1.,           0.
    541,  0.600000024,          -1.,  0.100000001
    542,  0.600000024, -0.857142866,  0.100000001
    543,  0.600000024, -0.714285731,  0.100000001
    544,  0.600000024, -0.571428597,  0.100000001
    545,  0.600000024, -0.428571433,  0.100000001
    546,  0.600000024, -0.285714298,  0.100000001
    547,  0.600000024, -0.142857149,  0.100000001
    548,  0.600000024,           0.,  0.100000001
    549,  0.600000024,  0.142857149,  0.100000001
    550,  0.600000024,  0.285714298,  0.100000001
    551,  0.600000024,  0.428571433,  0.100000001
    552,  0.600000024,  0.571428597,  0.100000001
    553,  0.600000024,  0.714285731,  0.100000001
    554,  0.600000024,  0.857142866,  0.100000001
    555,  0.600000024,           1.,  0.100000001
    556,  0.600000024,          -1., 0.0500000007
    557,  0.600000024, -0.857142866, 0.0500000007
    558,  0.600000024, -0.714285731, 0.0500000007
    559,  0.600000024, -0.571428597, 0.0500000007
    560,  0.600000024, -0.428571433, 0.0500000007
    561,  0.600000024, -0.285714298, 0.0500000007
    562,  0.600000024, -0.142857149, 0.0500000007
    563,  0.600000024,           0., 0.0500000007
    564,  0.600000024,  0.142857149, 0.0500000007
    565,  0.600000024,  0.285714298, 0.0500000007
    566,  0.600000024,  0.428571433, 0.0500000007
    567,  0.600000024,  0.571428597, 0.0500000007
    568,  0.600000024,  0.714285731, 0.0500000007
    569,  0.600000024,  0.857142866, 0.0500000007
    570,  0.600000024,           1., 0.0500000007
    571,  0.600000024,          -1.,           0.
    572,  0.600000024, -0.857142866,           0.
    573,  0.600000024, -0.714285731,           0.
    574,  0.600000024, -0.571428597,           0.
    575,  0.600000024, -0.428571433,           0.
    576,  0.600000024, -0.285714298,           0.
    577,  0.600000024, -0.142857149,           0.
    578,  0.600000024,           0.,           0.
    579,  0.600000024,  0.142857149,           0.
    580,  0.600000024,  0.285714298,           0.
    581,  0.600000024,  0.428571433,           0.
    582,  0.600000024,  0.571428597,           0.
    583,  0.600000024,  0.714285731,           0.
    584,  0.600000024,  0.857142866,           0.
    585,  0.600000024,           1.,           0.
    586,  0.733333349,          -1.,  0.100000001
    587,  0.733333349, -0.857142866,  0.100000001
    588,  0.733333349, -0.714285731,  0.100000001
    589,  0.733333349, -0.571428597,  0.100000001
    590,  0.733333349, -0.428571433,  0.100000001
    591,  0.733333349, -0.285714298,  0.100000001
    592,  0.733333349, -0.142857149,  0.100000001
    593,  0.733333349,           0.,  0.100000001
    594,  0.733333349,  0.142857149,  0.100000001
    595,  0.733333349,  0.285714298,  0.100000001
    596,  0.733333349,  0.428571433,  0.100000001
    597,  0.733333349,  0.571428597,  0.100000001
    598,  0.733333349,  0.714285731,  0.100000001
    599,  0.733333349,  0.857142866,  0.100000001
    600,  0.733333349,           1.,  0.100000001
    601,  0.733333349,          -1., 0.0500000007
    602,  0.733333349, -0.857142866, 0.0500000007
    603,  0.733333349, -0.714285731, 0.0500000007
    604,  0.733333349, -0.571428597, 0.0500000007
    605,  0.733333349, -0.428571433, 0.0500000007
    606,  0.733333349, -0.285714298, 0.0500000007
    607,  0.733333349, -0.142857149, 0.0500000007
    608,  0.733333349,           0., 0.0500000007
    609,  0.733333349,  0.142857149, 0.0500000007
    610,  0.733333349,  0.285714298, 0.0500000007
    611,  0.733333349,  0.428571433, 0.0500000007
    612,  0.733333349,  0.571428597, 0.0500000007
    613,  0.733333349,  0.714285731, 0.0500000007
    614,  0.733333349,  0.857142866, 0.0500000007
    615,  0.733333349,           1., 0.0500000007
    616,  0.733333349,          -1.,           0.
    617,  0.733333349, -0.857142866,           0.
    618,  0.733333349, -0.714285731,           0.
    619,  0.733333349, -0.571428597,           0.
    620,  0.733333349, -0.428571433,           0.
    621,  0.733333349, -0.285714298,           0.
    622,  0.733333349, -0.142857149,           0.
    623,  0.733333349,           0.,           0.
    624,  0.733333349,  0.142857149,           0.
    625,  0.733333349,  0.285714298,           0.
    626,  0.733333349,  0.428571433,           0.
    627,  0.733333349,  0.571428597,           0.
    628,  0.733333349,  0.714285731,           0.
    629,  0.733333349,  0.857142866,           0.
    630,  0.733333349,           1.,           0.
    631,  0.866666675,          -1.,  0.100000001
    632,  0.866666675, -0.857142866,  0.100000001
    633,  0.866666675, -0.714285731,  0.100000001
    634,  0.866666675, -0.571428597,  0.100000001
    635,  0.866666675, -0.428571433,  0.100000001
    636,  0.866666675, -0.285714298,  0.100000001
    637,  0.866666675, -0.142857149,  0.100000001
    638,  0.866666675,           0.,  0.100000001
    639,  0.866666675,  0.142857149,  0.100000001
    640,  0.866666675,  0.285714298,  0.100000001
    641,  0.866666675,  0.428571433,  0.100000001
    642,  0.866666675,  0.571428597,  0.100000001
    643,  0.866666675,  0.714285731,  0.100000001
    644,  0.866666675,  0.857142866,  0.100000001
    645,  0.866666675,           1.,  0.100000001
    646,  0.866666675,          -1., 0.0500000007
    647,  0.866666675, -0.857142866, 0.0500000007
    648,  0.866666675, -0.714285731, 0.0500000007
    649,  0.866666675, -0.571428597, 0.0500000007
    650,  0.866666675, -0.428571433, 0.0500000007
    651,  0.866666675, -0.285714298, 0.0500000007
    652,  0.866666675, -0.142857149, 0.0500000007
    653,  0.866666675,           0., 0.0500000007
    654,  0.866666675,  0.142857149, 0.0500000007
    655,  0.866666675,  0.285714298, 0.0500000007
    656,  0.866666675,  0.428571433, 0.0500000007
    657,  0.866666675,  0.571428597, 0.0500000007
    658,  0.866666675,  0.714285731, 0.0500000007
    659,  0.866666675,  0.857142866, 0.0500000007
    660,  0.866666675,           1., 0.0500000007
    661,  0.866666675,          -1.,           0.
    662,  0.866666675, -0.857142866,           0.
    663,  0.866666675, -0.714285731,           0.
    664,  0.866666675, -0.571428597,           0.
    665,  0.866666675, -0.428571433,           0.
    666,  0.866666675, -0.285714298,           0.
    667,  0.866666675, -0.142857149,           0.
    668,  0.866666675,           0.,           0.
    669,  0.866666675,  0.142857149,           0.
    670,  0.866666675,  0.285714298,           0.
    671,  0.866666675,  0.428571433,           0.
    672,  0.866666675,  0.571428597,           0.
    673,  0.866666675,  0.714285731,           0.
    674,  0.866666675,  0.857142866,           0.
    675,  0.866666675,           1.,           0.
    676,           1.,          -1.,  0.100000001
    677,           1., -0.857142866,  0.100000001
    678,           1., -0.714285731,  0.100000001
    679,           1., -0.571428597,  0.100000001
    680,           1., -0.428571433,  0.100000001
    681,           1., -0.285714298,  0.100000001
    682,           1., -0.142857149,  0.100000001
    683,           1.,           0.,  0.100000001
    684,           1.,  0.142857149,  0.100000001
    685,           1.,  0.285714298,  0.100000001
    686,           1.,  0.428571433,  0.100000001
    687,           1.,  0.571428597,  0.100000001
    688,           1.,  0.714285731,  0.100000001
    689,           1.,  0.857142866,  0.100000001
    690,           1.,           1.,  0.100000001
    691,           1.,          -1., 0.0500000007
    692,           1., -0.857142866, 0.0500000007
    693,           1., -0.714285731, 0.0500000007
    694,           1., -0.571428597, 0.0500000007
    695,           1., -0.428571433, 0.0500000007
    696,           1., -0.285714298, 0.0500000007
    697,           1., -0.142857149, 0.0500000007
    698,           1.,           0., 0.0500000007
    699,           1.,  0.142857149, 0.0500000007
    700,           1.,  0.285714298, 0.0500000007
    701,           1.,  0.428571433, 0.0500000007
    702,           1.,  0.571428597, 0.0500000007
    703,           1.,  0.714285731, 0.0500000007
    704,           1.,  0.857142866, 0.0500000007
    705,           1.,           1., 0.0500000007
    706,           1.,          -1.,           0.
    707,           1., -0.857142866,           0.
    708,           1., -0.714285731,           0.
    709,           1., -0.571428597,           0.
    710,           1., -0.428571433,           0.
    711,           1., -0.285714298,           0.
    712,           1., -0.142857149,           0.
    713,           1.,           0.,           0.
    714,           1.,  0.142857149,           0.
    715,           1.,  0.285714298,           0.
    716,           1.,  0.428571433,           0.
    717,           1.,  0.571428597,           0.
    718,           1.,  0.714285731,           0.
    719,           1.,  0.857142866,           0.
    720,           1.,           1.,           0.
*Element, type=C3D8R
  1,  46,  47,  62,  61,   1,   2,  17,  16
  2,  47,  48,  63,  62,   2,   3,  18,  17
  3,  48,  49,  64,  63,   3,   4,  19,  18
  4,  49,  50,  65,  64,   4,   5,  20,  19
  5,  50,  51,  66,  65,   5,   6,  21,  20
  6,  51,  52,  67,  66,   6,   7,  22,  21
  7,  52,  53,  68,  67,   7,   8,  23,  22
  8,  53,  54,  69,  68,   8,   9,  24,  23
  9,  54,  55,  70,  69,   9,  10,  25,  24
 10,  55,  56,  71,  70,  10,  11,  26,  25
 11,  56,  57,  72,  71,  11,  12,  27,  26
 12,  57,  58,  73,  72,  12,  13,  28,  27
 13,  58,  59,  74,  73,  13,  14,  29,  28
 14,  59,  60,  75,  74,  14,  15,  30,  29
 15,  61,  62,  77,  76,  16,  17,  32,  31
 16,  62,  63,  78,  77,  17,  18,  33,  32
 17,  63,  64,  79,  78,  18,  19,  34,  33
 18,  64,  65,  80,  79,  19,  20,  35,  34
 19,  65,  66,  81,  80,  20,  21,  36,  35
 20,  66,  67,  82,  81,  21,  22,  37,  36
 21,  67,  68,  83,  82,  22,  23,  38,  37
 22,  68,  69,  84,  83,  23,  24,  39,  38
 23,  69,  70,  85,  84,  24,  25,  40,  39
 24,  70,  71,  86,  85,  25,  26,  41,  40
 25,  71,  72,  87,  86,  26,  27,  42,  41
 26,  72,  73,  88,  87,  27,  28,  43,  42
 27,  73,  74,  89,  88,  28,  29,  44,  43
 28,  74,  75,  90,  89,  29,  30,  45,  44
 29,  91,  92, 107, 106,  46,  47,  62,  61
 30,  92,  93, 108, 107,  47,  48,  63,  62
 31,  93,  94, 109, 108,  48,  49,  64,  63
 32,  94,  95, 110, 109,  49,  50,  65,  64
 33,  95,  96, 111, 110,  50,  51,  66,  65
 34,  96,  97, 112, 111,  51,  52,  67,  66
 35,  97,  98, 113, 112,  52,  53,  68,  67
 36,  98,  99, 114, 113,  53,  54,  69,  68
 37,  99, 100, 115, 114,  54,  55,  70,  69
 38, 100, 101, 116, 115,  55,  56,  71,  70
 39, 101, 102, 117, 116,  56,  57,  72,  71
 40, 102, 103, 118, 117,  57,  58,  73,  72
 41, 103, 104, 119, 118,  58,  59,  74,  73
 42, 104, 105, 120, 119,  59,  60,  75,  74
 43, 106, 107, 122, 121,  61,  62,  77,  76
 44, 107, 108, 123, 122,  62,  63,  78,  77
 45, 108, 109, 124, 123,  63,  64,  79,  78
 46, 109, 110, 125, 124,  64,  65,  80,  79
 47, 110, 111, 126, 125,  65,  66,  81,  80
 48, 111, 112, 127, 126,  66,  67,  82,  81
 49, 112, 113, 128, 127,  67,  68,  83,  82
 50, 113, 114, 129, 128,  68,  69,  84,  83
 51, 114, 115, 130, 129,  69,  70,  85,  84
 52, 115, 116, 131, 130,  70,  71,  86,  85
 53, 116, 117, 132, 131,  71,  72,  87,  86
 54, 117, 118, 133, 132,  72,  73,  88,  87
 55, 118, 119, 134, 133,  73,  74,  89,  88
 56, 119, 120, 135, 134,  74,  75,  90,  89
 57, 136, 137, 152, 151,  91,  92, 107, 106
 58, 137, 138, 153, 152,  92,  93, 108, 107
 59, 138, 139, 154, 153,  93,  94, 109, 108
 60, 139, 140, 155, 154,  94,  95, 110, 109
 61, 140, 141, 156, 155,  95,  96, 111, 110
 62, 141, 142, 157, 156,  96,  97, 112, 111
 63, 142, 143, 158, 157,  97,  98, 113, 112
 64, 143, 144, 159, 158,  98,  99, 114, 113
 65, 144, 145, 160, 159,  99, 100, 115, 114
 66, 145, 146, 161, 160, 100, 101, 116, 115
 67, 146, 147, 162, 161, 101, 102, 117, 116
 68, 147, 148, 163, 162, 102, 103, 118, 117
 69, 148, 149, 164, 163, 103, 104, 119, 118
 70, 149, 150, 165, 164, 104, 105, 120, 119
 71, 151, 152, 167, 166, 106, 107, 122, 121
 72, 152, 153, 168, 167, 107, 108, 123, 122
 73, 153, 154, 169, 168, 108, 109, 124, 123
 74, 154, 155, 170, 169, 109, 110, 125, 124
 75, 155, 156, 171, 170, 110, 111, 126, 125
 76, 156, 157, 172, 171, 111, 112, 127, 126
 77, 157, 158, 173, 172, 112, 113, 128, 127
 78, 158, 159, 174, 173, 113, 114, 129, 128
 79, 159, 160, 175, 174, 114, 115, 130, 129
 80, 160, 161, 176, 175, 115, 116, 131, 130
 81, 161, 162, 177, 176, 116, 117, 132, 131
 82, 162, 163, 178, 177, 117, 118, 133, 132
 83, 163, 164, 179, 178, 118, 119, 134, 133
 84, 164, 165, 180, 179, 119, 120, 135, 134
 85, 181, 182, 197, 196, 136, 137, 152, 151
 86, 182, 183, 198, 197, 137, 138, 153, 152
 87, 183, 184, 199, 198, 138, 139, 154, 153
 88, 184, 185, 200, 199, 139, 140, 155, 154
 89, 185, 186, 201, 200, 140, 141, 156, 155
 90, 186, 187, 202, 201, 141, 142, 157, 156
 91, 187, 188, 203, 202, 142, 143, 158, 157
 92, 188, 189, 204, 203, 143, 144, 159, 158
 93, 189, 190, 205, 204, 144, 145, 160, 159
 94, 190, 191, 206, 205, 145, 146, 161, 160
 95, 191, 192, 207, 206, 146, 147, 162, 161
 96, 192, 193, 208, 207, 147, 148, 163, 162
 97, 193, 194, 209, 208, 148, 149, 164, 163
 98, 194, 195, 210, 209, 149, 150, 165, 164
 99, 196, 197, 212, 211, 151, 152, 167, 166
100, 197, 198, 213, 212, 152, 153, 168, 167
101, 198, 199, 214, 213, 153, 154, 169, 168
102, 199, 200, 215, 214, 154, 155, 170, 169
103, 200, 201, 216, 215, 155, 156, 171, 170
104, 201, 202, 217, 216, 156, 157, 172, 171
105, 202, 203, 218, 217, 157, 158, 173, 172
106, 203, 204, 219, 218, 158, 159, 174, 173
107, 204, 205, 220, 219, 159, 160, 175, 174
108, 205, 206, 221, 220, 160, 161, 176, 175
109, 206, 207, 222, 221, 161, 162, 177, 176
110, 207, 208, 223, 222, 162, 163, 178, 177
111, 208, 209, 224, 223, 163, 164, 179, 178
112, 209, 210, 225, 224, 164, 165, 180, 179
113, 226, 227, 242, 241, 181, 182, 197, 196
114, 227, 228, 243, 242, 182, 183, 198, 197
115, 228, 229, 244, 243, 183, 184, 199, 198
116, 229, 230, 245, 244, 184, 185, 200, 199
117, 230, 231, 246, 245, 185, 186, 201, 200
118, 231, 232, 247, 246, 186, 187, 202, 201
119, 232, 233, 248, 247, 187, 188, 203, 202
120, 233, 234, 249, 248, 188, 189, 204, 203
121, 234, 235, 250, 249, 189, 190, 205, 204
122, 235, 236, 251, 250, 190, 191, 206, 205
123, 236, 237, 252, 251, 191, 192, 207, 206
124, 237, 238, 253, 252, 192, 193, 208, 207
125, 238, 239, 254, 253, 193, 194, 209, 208
126, 239, 240, 255, 254, 194, 195, 210, 209
127, 241, 242, 257, 256, 196, 197, 212, 211
128, 242, 243, 258, 257, 197, 198, 213, 212
129, 243, 244, 259, 258, 198, 199, 214, 213
130, 244, 245, 260, 259, 199, 200, 215, 214
131, 245, 246, 261, 260, 200, 201, 216, 215
132, 246, 247, 262, 261, 201, 202, 217, 216
133, 247, 248, 263, 262, 202, 203, 218, 217
134, 248, 249, 264, 263, 203, 204, 219, 218
135, 249, 250, 265, 264, 204, 205, 220, 219
136, 250, 251, 266, 265, 205, 206, 221, 220
137, 251, 252, 267, 266, 206, 207, 222, 221
138, 252, 253, 268, 267, 207, 208, 223, 222
139, 253, 254, 269, 268, 208, 209, 224, 223
140, 254, 255, 270, 269, 209, 210, 225, 224
141, 271, 272, 287, 286, 226, 227, 242, 241
142, 272, 273, 288, 287, 227, 228, 243, 242
143, 273, 274, 289, 288, 228, 229, 244, 243
144, 274, 275, 290, 289, 229, 230, 245, 244
145, 275, 276, 291, 290, 230, 231, 246, 245
146, 276, 277, 292, 291, 231, 232, 247, 246
147, 277, 278, 293, 292, 232, 233, 248, 247
148, 278, 279, 294, 293, 233, 234, 249, 248
149, 279, 280, 295, 294, 234, 235, 250, 249
150, 280, 281, 296, 295, 235, 236, 251, 250
151, 281, 282, 297, 296, 236, 237, 252, 251
152, 282, 283, 298, 297, 237, 238, 253, 252
153, 283, 284, 299, 298, 238, 239, 254, 253
154, 284, 285, 300, 299, 239, 240, 255, 254
155, 286, 287, 302, 301, 241, 242, 257, 256
156, 287, 288, 303, 302, 242, 243, 258, 257
157, 288, 289, 304, 303, 243, 244, 259, 258
158, 289, 290, 305, 304, 244, 245, 260, 259
159, 290, 291, 306, 305, 245, 246, 261, 260
160, 291, 292, 307, 306, 246, 247, 262, 261
161, 292, 293, 308, 307, 247, 248, 263, 262
162, 293, 294, 309, 308, 248, 249, 264, 263
163, 294, 295, 310, 309, 249, 250, 265, 264
164, 295, 296, 311, 310, 250, 251, 266, 265
165, 296, 297, 312, 311, 251, 252, 267, 266
166, 297, 298, 313, 312, 252, 253, 268, 267
167, 298, 299, 314, 313, 253, 254, 269, 268
168, 299, 300, 315, 314, 254, 255, 270, 269
169, 316, 317, 332, 331, 271, 272, 287, 286
170, 317, 318, 333, 332, 272, 273, 288, 287
171, 318, 319, 334, 333, 273, 274, 289, 288
172, 319, 320, 335, 334, 274, 275, 290, 289
173, 320, 321, 336, 335, 275, 276, 291, 290
174, 321, 322, 337, 336, 276, 277, 292, 291
175, 322, 323, 338, 337, 277, 278, 293, 292
176, 323, 324, 339, 338, 278, 279, 294, 293
177, 324, 325, 340, 339, 279, 280, 295, 294
178, 325, 326, 341, 340, 280, 281, 296, 295
179, 326, 327, 342, 341, 281, 282, 297, 296
180, 327, 328, 343, 342, 282, 283, 298, 297
181, 328, 329, 344, 343, 283, 284, 299, 298
182, 329, 330, 345, 344, 284, 285, 300, 299
183, 331, 332, 347, 346, 286, 287, 302, 301
184, 332, 333, 348, 347, 287, 288, 303, 302
185, 333, 334, 349, 348, 288, 289, 304, 303
186, 334, 335, 350, 349, 289, 290, 305, 304
187, 335, 336, 351, 350, 290, 291, 306, 305
188, 336, 337, 352, 351, 291, 292, 307, 306
189, 337, 338, 353, 352, 292, 293, 308, 307
190, 338, 339, 354, 353, 293, 294, 309, 308
191, 339, 340, 355, 354, 294, 295, 310, 309
192, 340, 341, 356, 355, 295, 296, 311, 310
193, 341, 342, 357, 356, 296, 297, 312, 311
194, 342, 343, 358, 357, 297, 298, 313, 312
195, 343, 344, 359, 358, 298, 299, 314, 313
196, 344, 345, 360, 359, 299, 300, 315, 314
197, 361, 362, 377, 376, 316, 317, 332, 331
198, 362, 363, 378, 377, 317, 318, 333, 332
199, 363, 364, 379, 378, 318, 319, 334, 333
200, 364, 365, 380, 379, 319, 320, 335, 334
201, 365, 366, 381, 380, 320, 321, 336, 335
202, 366, 367, 382, 381, 321, 322, 337, 336
203, 367, 368, 383, 382, 322, 323, 338, 337
204, 368, 369, 384, 383, 323, 324, 339, 338
205, 369, 370, 385, 384, 324, 325, 340, 339
206, 370, 371, 386, 385, 325, 326, 341, 340
207, 371, 372, 387, 386, 326, 327, 342, 341
208, 372, 373, 388, 387, 327, 328, 343, 342
209, 373, 374, 389, 388, 328, 329, 344, 343
210, 374, 375, 390, 389, 329, 330, 345, 344
211, 376, 377, 392, 391, 331, 332, 347, 346
212, 377, 378, 393, 392, 332, 333, 348, 347
213, 378, 379, 394, 393, 333, 334, 349, 348
214, 379, 380, 395, 394, 334, 335, 350, 349
215, 380, 381, 396, 395, 335, 336, 351, 350
216, 381, 382, 397, 396, 336, 337, 352, 351
217, 382, 383, 398, 397, 337, 338, 353, 352
218, 383, 384, 399, 398, 338, 339, 354, 353
219, 384, 385, 400, 399, 339, 340, 355, 354
220, 385, 386, 401, 400, 340, 341, 356, 355
221, 386, 387, 402, 401, 341, 342, 357, 356
222, 387, 388, 403, 402, 342, 343, 358, 357
223, 388, 389, 404, 403, 343, 344, 359, 358
224, 389, 390, 405, 404, 344, 345, 360, 359
225, 406, 407, 422, 421, 361, 362, 377, 376
226, 407, 408, 423, 422, 362, 363, 378, 377
227, 408, 409, 424, 423, 363, 364, 379, 378
228, 409, 410, 425, 424, 364, 365, 380, 379
229, 410, 411, 426, 425, 365, 366, 381, 380
230, 411, 412, 427, 426, 366, 367, 382, 381
231, 412, 413, 428, 427, 367, 368, 383, 382
232, 413, 414, 429, 428, 368, 369, 384, 383
233, 414, 415, 430, 429, 369, 370, 385, 384
234, 415, 416, 431, 430, 370, 371, 386, 385
235, 416, 417, 432, 431, 371, 372, 387, 386
236, 417, 418, 433, 432, 372, 373, 388, 387
237, 418, 419, 434, 433, 373, 374, 389, 388
238, 419, 420, 435, 434, 374, 375, 390, 389
239, 421, 422, 437, 436, 376, 377, 392, 391
240, 422, 423, 438, 437, 377, 378, 393, 392
241, 423, 424, 439, 438, 378, 379, 394, 393
242, 424, 425, 440, 439, 379, 380, 395, 394
243, 425, 426, 441, 440, 380, 381, 396, 395
244, 426, 427, 442, 441, 381, 382, 397, 396
245, 427, 428, 443, 442, 382, 383, 398, 397
246, 428, 429, 444, 443, 383, 384, 399, 398
247, 429, 430, 445, 444, 384, 385, 400, 399
248, 430, 431, 446, 445, 385, 386, 401, 400
249, 431, 432, 447, 446, 386, 387, 402, 401
250, 432, 433, 448, 447, 387, 388, 403, 402
251, 433, 434, 449, 448, 388, 389, 404, 403
252, 434, 435, 450, 449, 389, 390, 405, 404
253, 451, 452, 467, 466, 406, 407, 422, 421
254, 452, 453, 468, 467, 407, 408, 423, 422
255, 453, 454, 469, 468, 408, 409, 424, 423
256, 454, 455, 470, 469, 409, 410, 425, 424
257, 455, 456, 471, 470, 410, 411, 426, 425
258, 456, 457, 472, 471, 411, 412, 427, 426
259, 457, 458, 473, 472, 412, 413, 428, 427
260, 458, 459, 474, 473, 413, 414, 429, 428
261, 459, 460, 475, 474, 414, 415, 430, 429
262, 460, 461, 476, 475, 415, 416, 431, 430
263, 461, 462, 477, 476, 416, 417, 432, 431
264, 462, 463, 478, 477, 417, 418, 433, 432
265, 463, 464, 479, 478, 418, 419, 434, 433
266, 464, 465, 480, 479, 419, 420, 435, 434
267, 466, 467, 482, 481, 421, 422, 437, 436
268, 467, 468, 483, 482, 422, 423, 438, 437
269, 468, 469, 484, 483, 423, 424, 439, 438
270, 469, 470, 485, 484, 424, 425, 440, 439
271, 470, 471, 486, 485, 425, 426, 441, 440
272, 471, 472, 487, 486, 426, 427, 442, 441
273, 472, 473, 488, 487, 427, 428, 443, 442
274, 473, 474, 489, 488, 428, 429, 444, 443
275, 474, 475, 490, 489, 429, 430, 445, 444
276, 475, 476, 491, 490, 430, 431, 446, 445
277, 476, 477, 492, 491, 431, 432, 447, 446
278, 477, 478, 493, 492, 432, 433, 448, 447
279, 478, 479, 494, 493, 433, 434, 449, 448
280, 479, 480, 495, 494, 434, 435, 450, 449
281, 496, 497, 512, 511, 451, 452, 467, 466
282, 497, 498, 513, 512, 452, 453, 468, 467
283, 498, 499, 514, 513, 453, 454, 469, 468
284, 499, 500, 515, 514, 454, 455, 470, 469
285, 500, 501, 516, 515, 455, 456, 471, 470
286, 501, 502, 517, 516, 456, 457, 472, 471
287, 502, 503, 518, 517, 457, 458, 473, 472
288, 503, 504, 519, 518, 458, 459, 474, 473
289, 504, 505, 520, 519, 459, 460, 475, 474
290, 505, 506, 521, 520, 460, 461, 476, 475
291, 506, 507, 522, 521, 461, 462, 477, 476
292, 507, 508, 523, 522, 462, 463, 478, 477
293, 508, 509, 524, 523, 463, 464, 479, 478
294, 509, 510, 525, 524, 464, 465, 480, 479
295, 511, 512, 527, 526, 466, 467, 482, 481
296, 512, 513, 528, 527, 467, 468, 483, 482
297, 513, 514, 529, 528, 468, 469, 484, 483
298, 514, 515, 530, 529, 469, 470, 485, 484
299, 515, 516, 531, 530, 470, 471, 486, 485
300, 516, 517, 532, 531, 471, 472, 487, 486
301, 517, 518, 533, 532, 472, 473, 488, 487
302, 518, 519, 534, 533, 473, 474, 489, 488
303, 519, 520, 535, 534, 474, 475, 490, 489
304, 520, 521, 536, 535, 475, 476, 491, 490
305, 521, 522, 537, 536, 476, 477, 492, 491
306, 522, 523, 538, 537, 477, 478, 493, 492
307, 523, 524, 539, 538, 478, 479, 494, 493
308, 524, 525, 540, 539, 479, 480, 495, 494
309, 541, 542, 557, 556, 496, 497, 512, 511
310, 542, 543, 558, 557, 497, 498, 513, 512
311, 543, 544, 559, 558, 498, 499, 514, 513
312, 544, 545, 560, 559, 499, 500, 515, 514
313, 545, 546, 561, 560, 500, 501, 516, 515
314, 546, 547, 562, 561, 501, 502, 517, 516
315, 547, 548, 563, 562, 502, 503, 518, 517
316, 548, 549, 564, 563, 503, 504, 519, 518
317, 549, 550, 565, 564, 504, 505, 520, 519
318, 550, 551, 566, 565, 505, 506, 521, 520
319, 551, 552, 567, 566, 506, 507, 522, 521
320, 552, 553, 568, 567, 507, 508, 523, 522
321, 553, 554, 569, 568, 508, 509, 524, 523
322, 554, 555, 570, 569, 509, 510, 525, 524
323, 556, 557, 572, 571, 511, 512, 527, 526
324, 557, 558, 573, 572, 512, 513, 528, 527
325, 558, 559, 574, 573, 513, 514, 529, 528
326, 559, 560, 575, 574, 514, 515, 530, 529
327, 560, 561, 576, 575, 515, 516, 531, 530
328, 561, 562, 577, 576, 516, 517, 532, 531
329, 562, 563, 578, 577, 517, 518, 533, 532
330, 563, 564, 579, 578, 518, 519, 534, 533
331, 564, 565, 580, 579, 519, 520, 535, 534
332, 565, 566, 581, 580, 520, 521, 536, 535
333, 566, 567, 582, 581, 521, 522, 537, 536
334, 567, 568, 583, 582, 522, 523, 538, 537
335, 568, 569, 584, 583, 523, 524, 539, 538
336, 569, 570, 585, 584, 524, 525, 540, 539
337, 586, 587, 602, 601, 541, 542, 557, 556
338, 587, 588, 603, 602, 542, 543, 558, 557
339, 588, 589, 604, 603, 543, 544, 559, 558
340, 589, 590, 605, 604, 544, 545, 560, 559
341, 590, 591, 606, 605, 545, 546, 561, 560
342, 591, 592, 607, 606, 546, 547, 562, 561
343, 592, 593, 608, 607, 547, 548, 563, 562
344, 593, 594, 609, 608, 548, 549, 564, 563
345, 594, 595, 610, 609, 549, 550, 565, 564
346, 595, 596, 611, 610, 550, 551, 566, 565
347, 596, 597, 612, 611, 551, 552, 567, 566
348, 597, 598, 613, 612, 552, 553, 568, 567
349, 598, 599, 614, 613, 553, 554, 569, 568
350, 599, 600, 615, 614, 554, 555, 570, 569
351, 601, 602, 617, 616, 556, 557, 572, 571
352, 602, 603, 618, 617, 557, 558, 573, 572
353, 603, 604, 619, 618, 558, 559, 574, 573
354, 604, 605, 620, 619, 559, 560, 575, 574
355, 605, 606, 621, 620, 560, 561, 576, 575
356, 606, 607, 622, 621, 561, 562, 577, 576
357, 607, 608, 623, 622, 562, 563, 578, 577
358, 608, 609, 624, 623, 563, 564, 579, 578
359, 609, 610, 625, 624, 564, 565, 580, 579
360, 610, 611, 626, 625, 565, 566, 581, 580
361, 611, 612, 627, 626, 566, 567, 582, 581
362, 612, 613, 628, 627, 567, 568, 583, 582
363, 613, 614, 629, 628, 568, 569, 584, 583
364, 614, 615, 630, 629, 569, 570, 585, 584
365, 631, 632, 647, 646, 586, 587, 602, 601
366, 632, 633, 648, 647, 587, 588, 603, 602
367, 633, 634, 649, 648, 588, 589, 604, 603
368, 634, 635, 650, 649, 589, 590, 605, 604
369, 635, 636, 651, 650, 590, 591, 606, 605
370, 636, 637, 652, 651, 591, 592, 607, 606
371, 637, 638, 653, 652, 592, 593, 608, 607
372, 638, 639, 654, 653, 593, 594, 609, 608
373, 639, 640, 655, 654, 594, 595, 610, 609
374, 640, 641, 656, 655, 595, 596, 611, 610
375, 641, 642, 657, 656, 596, 597, 612, 611
376, 642, 643, 658, 657, 597, 598, 613, 612
377, 643, 644, 659, 658, 598, 599, 614, 613
378, 644, 645, 660, 659, 599, 600, 615, 614
379, 646, 647, 662, 661, 601, 602, 617, 616
380, 647, 648, 663, 662, 602, 603, 618, 617
381, 648, 649, 664, 663, 603, 604, 619, 618
382, 649, 650, 665, 664, 604, 605, 620, 619
383, 650, 651, 666, 665, 605, 606, 621, 620
384, 651, 652, 667, 666, 606, 607, 622, 621
385, 652, 653, 668, 667, 607, 608, 623, 622
386, 653, 654, 669, 668, 608, 609, 624, 623
387, 654, 655, 670, 669, 609, 610, 625, 624
388, 655, 656, 671, 670, 610, 611, 626, 625
389, 656, 657, 672, 671, 611, 612, 627, 626
390, 657, 658, 673, 672, 612, 613, 628, 627
391, 658, 659, 674, 673, 613, 614, 629, 628
392, 659, 660, 675, 674, 614, 615, 630, 629
393, 676, 677, 692, 691, 631, 632, 647, 646
394, 677, 678, 693, 692, 632, 633, 648, 647
395, 678, 679, 694, 693, 633, 634, 649, 648
396, 679, 680, 695, 694, 634, 635, 650, 649
397, 680, 681, 696, 695, 635, 636, 651, 650
398, 681, 682, 697, 696, 636, 637, 652, 651
399, 682, 683, 698, 697, 637, 638, 653, 652
400, 683, 684, 699, 698, 638, 639, 654, 653
401, 684, 685, 700, 699, 639, 640, 655, 654
402, 685, 686, 701, 700, 640, 641, 656, 655
403, 686, 687, 702, 701, 641, 642, 657, 656
404, 687, 688, 703, 702, 642, 643, 658, 657
405, 688, 689, 704, 703, 643, 644, 659, 658
406, 689, 690, 705, 704, 644, 645, 660, 659
407, 691, 692, 707, 706, 646, 647, 662, 661
408, 692, 693, 708, 707, 647, 648, 663, 662
409, 693, 694, 709, 708, 648, 649, 664, 663
410, 694, 695, 710, 709, 649, 650, 665, 664
411, 695, 696, 711, 710, 650, 651, 666, 665
412, 696, 697, 712, 711, 651, 652, 667, 666
413, 697, 698, 713, 712, 652, 653, 668, 667
414, 698, 699, 714, 713, 653, 654, 669, 668
415, 699, 700, 715, 714, 654, 655, 670, 669
416, 700, 701, 716, 715, 655, 656, 671, 670
417, 701, 702, 717, 716, 656, 657, 672, 671
418, 702, 703, 718, 717, 657, 658, 673, 672
419, 703, 704, 719, 718, 658, 659, 674, 673
420, 704, 705, 720, 719, 659, 660, 675, 674
*End Part
**  
**
** ASSEMBLY
**
*Assembly, name=Assembly
**  
*Instance, name=Part-1-1, part=Part-1
*End Instance
**  
*End Assembly
