*Heading
** Job name: Plate_T5 Model name: Model-1
** Generated by: Abaqus/CAE 2020
*Preprint, echo=NO, model=NO, history=NO, contact=NO
**
** PARTS
**
*Part, name=Part-1
*Node
      1,          -1.,          -1.,  0.100000001
      2,          -1., -0.857142866,  0.100000001
      3,          -1., -0.714285731,  0.100000001
      4,          -1., -0.571428597,  0.100000001
      5,          -1., -0.428571433,  0.100000001
      6,          -1., -0.285714298,  0.100000001
      7,          -1., -0.142857149,  0.100000001
      8,          -1.,           0.,  0.100000001
      9,          -1.,  0.142857149,  0.100000001
     10,          -1.,  0.285714298,  0.100000001
     11,          -1.,  0.428571433,  0.100000001
     12,          -1.,  0.571428597,  0.100000001
     13,          -1.,  0.714285731,  0.100000001
     14,          -1.,  0.857142866,  0.100000001
     15,          -1.,           1.,  0.100000001
     16,          -1.,          -1., 0.0799999982
     17,          -1., -0.857142866, 0.0799999982
     18,          -1., -0.714285731, 0.0799999982
     19,          -1., -0.571428597, 0.0799999982
     20,          -1., -0.428571433, 0.0799999982
     21,          -1., -0.285714298, 0.0799999982
     22,          -1., -0.142857149, 0.0799999982
     23,          -1.,           0., 0.0799999982
     24,          -1.,  0.142857149, 0.0799999982
     25,          -1.,  0.285714298, 0.0799999982
     26,          -1.,  0.428571433, 0.0799999982
     27,          -1.,  0.571428597, 0.0799999982
     28,          -1.,  0.714285731, 0.0799999982
     29,          -1.,  0.857142866, 0.0799999982
     30,          -1.,           1., 0.0799999982
     31,          -1.,          -1., 0.0599999987
     32,          -1., -0.857142866, 0.0599999987
     33,          -1., -0.714285731, 0.0599999987
     34,          -1., -0.571428597, 0.0599999987
     35,          -1., -0.428571433, 0.0599999987
     36,          -1., -0.285714298, 0.0599999987
     37,          -1., -0.142857149, 0.0599999987
     38,          -1.,           0., 0.0599999987
     39,          -1.,  0.142857149, 0.0599999987
     40,          -1.,  0.285714298, 0.0599999987
     41,          -1.,  0.428571433, 0.0599999987
     42,          -1.,  0.571428597, 0.0599999987
     43,          -1.,  0.714285731, 0.0599999987
     44,          -1.,  0.857142866, 0.0599999987
     45,          -1.,           1., 0.0599999987
     46,          -1.,          -1., 0.0399999991
     47,          -1., -0.857142866, 0.0399999991
     48,          -1., -0.714285731, 0.0399999991
     49,          -1., -0.571428597, 0.0399999991
     50,          -1., -0.428571433, 0.0399999991
     51,          -1., -0.285714298, 0.0399999991
     52,          -1., -0.142857149, 0.0399999991
     53,          -1.,           0., 0.0399999991
     54,          -1.,  0.142857149, 0.0399999991
     55,          -1.,  0.285714298, 0.0399999991
     56,          -1.,  0.428571433, 0.0399999991
     57,          -1.,  0.571428597, 0.0399999991
     58,          -1.,  0.714285731, 0.0399999991
     59,          -1.,  0.857142866, 0.0399999991
     60,          -1.,           1., 0.0399999991
     61,          -1.,          -1., 0.0199999996
     62,          -1., -0.857142866, 0.0199999996
     63,          -1., -0.714285731, 0.0199999996
     64,          -1., -0.571428597, 0.0199999996
     65,          -1., -0.428571433, 0.0199999996
     66,          -1., -0.285714298, 0.0199999996
     67,          -1., -0.142857149, 0.0199999996
     68,          -1.,           0., 0.0199999996
     69,          -1.,  0.142857149, 0.0199999996
     70,          -1.,  0.285714298, 0.0199999996
     71,          -1.,  0.428571433, 0.0199999996
     72,          -1.,  0.571428597, 0.0199999996
     73,          -1.,  0.714285731, 0.0199999996
     74,          -1.,  0.857142866, 0.0199999996
     75,          -1.,           1., 0.0199999996
     76,          -1.,          -1.,           0.
     77,          -1., -0.857142866,           0.
     78,          -1., -0.714285731,           0.
     79,          -1., -0.571428597,           0.
     80,          -1., -0.428571433,           0.
     81,          -1., -0.285714298,           0.
     82,          -1., -0.142857149,           0.
     83,          -1.,           0.,           0.
     84,          -1.,  0.142857149,           0.
     85,          -1.,  0.285714298,           0.
     86,          -1.,  0.428571433,           0.
     87,          -1.,  0.571428597,           0.
     88,          -1.,  0.714285731,           0.
     89,          -1.,  0.857142866,           0.
     90,          -1.,           1.,           0.
     91, -0.866666675,          -1.,  0.100000001
     92, -0.866666675, -0.857142866,  0.100000001
     93, -0.866666675, -0.714285731,  0.100000001
     94, -0.866666675, -0.571428597,  0.100000001
     95, -0.866666675, -0.428571433,  0.100000001
     96, -0.866666675, -0.285714298,  0.100000001
     97, -0.866666675, -0.142857149,  0.100000001
     98, -0.866666675,           0.,  0.100000001
     99, -0.866666675,  0.142857149,  0.100000001
    100, -0.866666675,  0.285714298,  0.100000001
    101, -0.866666675,  0.428571433,  0.100000001
    102, -0.866666675,  0.571428597,  0.100000001
    103, -0.866666675,  0.714285731,  0.100000001
    104, -0.866666675,  0.857142866,  0.100000001
    105, -0.866666675,           1.,  0.100000001
    106, -0.866666675,          -1., 0.0799999982
    107, -0.866666675, -0.857142866, 0.0799999982
    108, -0.866666675, -0.714285731, 0.0799999982
    109, -0.866666675, -0.571428597, 0.0799999982
    110, -0.866666675, -0.428571433, 0.0799999982
    111, -0.866666675, -0.285714298, 0.0799999982
    112, -0.866666675, -0.142857149, 0.0799999982
    113, -0.866666675,           0., 0.0799999982
    114, -0.866666675,  0.142857149, 0.0799999982
    115, -0.866666675,  0.285714298, 0.0799999982
    116, -0.866666675,  0.428571433, 0.0799999982
    117, -0.866666675,  0.571428597, 0.0799999982
    118, -0.866666675,  0.714285731, 0.0799999982
    119, -0.866666675,  0.857142866, 0.0799999982
    120, -0.866666675,           1., 0.0799999982
    121, -0.866666675,          -1., 0.0599999987
    122, -0.866666675, -0.857142866, 0.0599999987
    123, -0.866666675, -0.714285731, 0.0599999987
    124, -0.866666675, -0.571428597, 0.0599999987
    125, -0.866666675, -0.428571433, 0.0599999987
    126, -0.866666675, -0.285714298, 0.0599999987
    127, -0.866666675, -0.142857149, 0.0599999987
    128, -0.866666675,           0., 0.0599999987
    129, -0.866666675,  0.142857149, 0.0599999987
    130, -0.866666675,  0.285714298, 0.0599999987
    131, -0.866666675,  0.428571433, 0.0599999987
    132, -0.866666675,  0.571428597, 0.0599999987
    133, -0.866666675,  0.714285731, 0.0599999987
    134, -0.866666675,  0.857142866, 0.0599999987
    135, -0.866666675,           1., 0.0599999987
    136, -0.866666675,          -1., 0.0399999991
    137, -0.866666675, -0.857142866, 0.0399999991
    138, -0.866666675, -0.714285731, 0.0399999991
    139, -0.866666675, -0.571428597, 0.0399999991
    140, -0.866666675, -0.428571433, 0.0399999991
    141, -0.866666675, -0.285714298, 0.0399999991
    142, -0.866666675, -0.142857149, 0.0399999991
    143, -0.866666675,           0., 0.0399999991
    144, -0.866666675,  0.142857149, 0.0399999991
    145, -0.866666675,  0.285714298, 0.0399999991
    146, -0.866666675,  0.428571433, 0.0399999991
    147, -0.866666675,  0.571428597, 0.0399999991
    148, -0.866666675,  0.714285731, 0.0399999991
    149, -0.866666675,  0.857142866, 0.0399999991
    150, -0.866666675,           1., 0.0399999991
    151, -0.866666675,          -1., 0.0199999996
    152, -0.866666675, -0.857142866, 0.0199999996
    153, -0.866666675, -0.714285731, 0.0199999996
    154, -0.866666675, -0.571428597, 0.0199999996
    155, -0.866666675, -0.428571433, 0.0199999996
    156, -0.866666675, -0.285714298, 0.0199999996
    157, -0.866666675, -0.142857149, 0.0199999996
    158, -0.866666675,           0., 0.0199999996
    159, -0.866666675,  0.142857149, 0.0199999996
    160, -0.866666675,  0.285714298, 0.0199999996
    161, -0.866666675,  0.428571433, 0.0199999996
    162, -0.866666675,  0.571428597, 0.0199999996
    163, -0.866666675,  0.714285731, 0.0199999996
    164, -0.866666675,  0.857142866, 0.0199999996
    165, -0.866666675,           1., 0.0199999996
    166, -0.866666675,          -1.,           0.
    167, -0.866666675, -0.857142866,           0.
    168, -0.866666675, -0.714285731,           0.
    169, -0.866666675, -0.571428597,           0.
    170, -0.866666675, -0.428571433,           0.
    171, -0.866666675, -0.285714298,           0.
    172, -0.866666675, -0.142857149,           0.
    173, -0.866666675,           0.,           0.
    174, -0.866666675,  0.142857149,           0.
    175, -0.866666675,  0.285714298,           0.
    176, -0.866666675,  0.428571433,           0.
    177, -0.866666675,  0.571428597,           0.
    178, -0.866666675,  0.714285731,           0.
    179, -0.866666675,  0.857142866,           0.
    180, -0.866666675,           1.,           0.
    181, -0.733333349,          -1.,  0.100000001
    182, -0.733333349, -0.857142866,  0.100000001
    183, -0.733333349, -0.714285731,  0.100000001
    184, -0.733333349, -0.571428597,  0.100000001
    185, -0.733333349, -0.428571433,  0.100000001
    186, -0.733333349, -0.285714298,  0.100000001
    187, -0.733333349, -0.142857149,  0.100000001
    188, -0.733333349,           0.,  0.100000001
    189, -0.733333349,  0.142857149,  0.100000001
    190, -0.733333349,  0.285714298,  0.100000001
    191, -0.733333349,  0.428571433,  0.100000001
    192, -0.733333349,  0.571428597,  0.100000001
    193, -0.733333349,  0.714285731,  0.100000001
    194, -0.733333349,  0.857142866,  0.100000001
    195, -0.733333349,           1.,  0.100000001
    196, -0.733333349,          -1., 0.0799999982
    197, -0.733333349, -0.857142866, 0.0799999982
    198, -0.733333349, -0.714285731, 0.0799999982
    199, -0.733333349, -0.571428597, 0.0799999982
    200, -0.733333349, -0.428571433, 0.0799999982
    201, -0.733333349, -0.285714298, 0.0799999982
    202, -0.733333349, -0.142857149, 0.0799999982
    203, -0.733333349,           0., 0.0799999982
    204, -0.733333349,  0.142857149, 0.0799999982
    205, -0.733333349,  0.285714298, 0.0799999982
    206, -0.733333349,  0.428571433, 0.0799999982
    207, -0.733333349,  0.571428597, 0.0799999982
    208, -0.733333349,  0.714285731, 0.0799999982
    209, -0.733333349,  0.857142866, 0.0799999982
    210, -0.733333349,           1., 0.0799999982
    211, -0.733333349,          -1., 0.0599999987
    212, -0.733333349, -0.857142866, 0.0599999987
    213, -0.733333349, -0.714285731, 0.0599999987
    214, -0.733333349, -0.571428597, 0.0599999987
    215, -0.733333349, -0.428571433, 0.0599999987
    216, -0.733333349, -0.285714298, 0.0599999987
    217, -0.733333349, -0.142857149, 0.0599999987
    218, -0.733333349,           0., 0.0599999987
    219, -0.733333349,  0.142857149, 0.0599999987
    220, -0.733333349,  0.285714298, 0.0599999987
    221, -0.733333349,  0.428571433, 0.0599999987
    222, -0.733333349,  0.571428597, 0.0599999987
    223, -0.733333349,  0.714285731, 0.0599999987
    224, -0.733333349,  0.857142866, 0.0599999987
    225, -0.733333349,           1., 0.0599999987
    226, -0.733333349,          -1., 0.0399999991
    227, -0.733333349, -0.857142866, 0.0399999991
    228, -0.733333349, -0.714285731, 0.0399999991
    229, -0.733333349, -0.571428597, 0.0399999991
    230, -0.733333349, -0.428571433, 0.0399999991
    231, -0.733333349, -0.285714298, 0.0399999991
    232, -0.733333349, -0.142857149, 0.0399999991
    233, -0.733333349,           0., 0.0399999991
    234, -0.733333349,  0.142857149, 0.0399999991
    235, -0.733333349,  0.285714298, 0.0399999991
    236, -0.733333349,  0.428571433, 0.0399999991
    237, -0.733333349,  0.571428597, 0.0399999991
    238, -0.733333349,  0.714285731, 0.0399999991
    239, -0.733333349,  0.857142866, 0.0399999991
    240, -0.733333349,           1., 0.0399999991
    241, -0.733333349,          -1., 0.0199999996
    242, -0.733333349, -0.857142866, 0.0199999996
    243, -0.733333349, -0.714285731, 0.0199999996
    244, -0.733333349, -0.571428597, 0.0199999996
    245, -0.733333349, -0.428571433, 0.0199999996
    246, -0.733333349, -0.285714298, 0.0199999996
    247, -0.733333349, -0.142857149, 0.0199999996
    248, -0.733333349,           0., 0.0199999996
    249, -0.733333349,  0.142857149, 0.0199999996
    250, -0.733333349,  0.285714298, 0.0199999996
    251, -0.733333349,  0.428571433, 0.0199999996
    252, -0.733333349,  0.571428597, 0.0199999996
    253, -0.733333349,  0.714285731, 0.0199999996
    254, -0.733333349,  0.857142866, 0.0199999996
    255, -0.733333349,           1., 0.0199999996
    256, -0.733333349,          -1.,           0.
    257, -0.733333349, -0.857142866,           0.
    258, -0.733333349, -0.714285731,           0.
    259, -0.733333349, -0.571428597,           0.
    260, -0.733333349, -0.428571433,           0.
    261, -0.733333349, -0.285714298,           0.
    262, -0.733333349, -0.142857149,           0.
    263, -0.733333349,           0.,           0.
    264, -0.733333349,  0.142857149,           0.
    265, -0.733333349,  0.285714298,           0.
    266, -0.733333349,  0.428571433,           0.
    267, -0.733333349,  0.571428597,           0.
    268, -0.733333349,  0.714285731,           0.
    269, -0.733333349,  0.857142866,           0.
    270, -0.733333349,           1.,           0.
    271, -0.600000024,          -1.,  0.100000001
    272, -0.600000024, -0.857142866,  0.100000001
    273, -0.600000024, -0.714285731,  0.100000001
    274, -0.600000024, -0.571428597,  0.100000001
    275, -0.600000024, -0.428571433,  0.100000001
    276, -0.600000024, -0.285714298,  0.100000001
    277, -0.600000024, -0.142857149,  0.100000001
    278, -0.600000024,           0.,  0.100000001
    279, -0.600000024,  0.142857149,  0.100000001
    280, -0.600000024,  0.285714298,  0.100000001
    281, -0.600000024,  0.428571433,  0.100000001
    282, -0.600000024,  0.571428597,  0.100000001
    283, -0.600000024,  0.714285731,  0.100000001
    284, -0.600000024,  0.857142866,  0.100000001
    285, -0.600000024,           1.,  0.100000001
    286, -0.600000024,          -1., 0.0799999982
    287, -0.600000024, -0.857142866, 0.0799999982
    288, -0.600000024, -0.714285731, 0.0799999982
    289, -0.600000024, -0.571428597, 0.0799999982
    290, -0.600000024, -0.428571433, 0.0799999982
    291, -0.600000024, -0.285714298, 0.0799999982
    292, -0.600000024, -0.142857149, 0.0799999982
    293, -0.600000024,           0., 0.0799999982
    294, -0.600000024,  0.142857149, 0.0799999982
    295, -0.600000024,  0.285714298, 0.0799999982
    296, -0.600000024,  0.428571433, 0.0799999982
    297, -0.600000024,  0.571428597, 0.0799999982
    298, -0.600000024,  0.714285731, 0.0799999982
    299, -0.600000024,  0.857142866, 0.0799999982
    300, -0.600000024,           1., 0.0799999982
    301, -0.600000024,          -1., 0.0599999987
    302, -0.600000024, -0.857142866, 0.0599999987
    303, -0.600000024, -0.714285731, 0.0599999987
    304, -0.600000024, -0.571428597, 0.0599999987
    305, -0.600000024, -0.428571433, 0.0599999987
    306, -0.600000024, -0.285714298, 0.0599999987
    307, -0.600000024, -0.142857149, 0.0599999987
    308, -0.600000024,           0., 0.0599999987
    309, -0.600000024,  0.142857149, 0.0599999987
    310, -0.600000024,  0.285714298, 0.0599999987
    311, -0.600000024,  0.428571433, 0.0599999987
    312, -0.600000024,  0.571428597, 0.0599999987
    313, -0.600000024,  0.714285731, 0.0599999987
    314, -0.600000024,  0.857142866, 0.0599999987
    315, -0.600000024,           1., 0.0599999987
    316, -0.600000024,          -1., 0.0399999991
    317, -0.600000024, -0.857142866, 0.0399999991
    318, -0.600000024, -0.714285731, 0.0399999991
    319, -0.600000024, -0.571428597, 0.0399999991
    320, -0.600000024, -0.428571433, 0.0399999991
    321, -0.600000024, -0.285714298, 0.0399999991
    322, -0.600000024, -0.142857149, 0.0399999991
    323, -0.600000024,           0., 0.0399999991
    324, -0.600000024,  0.142857149, 0.0399999991
    325, -0.600000024,  0.285714298, 0.0399999991
    326, -0.600000024,  0.428571433, 0.0399999991
    327, -0.600000024,  0.571428597, 0.0399999991
    328, -0.600000024,  0.714285731, 0.0399999991
    329, -0.600000024,  0.857142866, 0.0399999991
    330, -0.600000024,           1., 0.0399999991
    331, -0.600000024,          -1., 0.0199999996
    332, -0.600000024, -0.857142866, 0.0199999996
    333, -0.600000024, -0.714285731, 0.0199999996
    334, -0.600000024, -0.571428597, 0.0199999996
    335, -0.600000024, -0.428571433, 0.0199999996
    336, -0.600000024, -0.285714298, 0.0199999996
    337, -0.600000024, -0.142857149, 0.0199999996
    338, -0.600000024,           0., 0.0199999996
    339, -0.600000024,  0.142857149, 0.0199999996
    340, -0.600000024,  0.285714298, 0.0199999996
    341, -0.600000024,  0.428571433, 0.0199999996
    342, -0.600000024,  0.571428597, 0.0199999996
    343, -0.600000024,  0.714285731, 0.0199999996
    344, -0.600000024,  0.857142866, 0.0199999996
    345, -0.600000024,           1., 0.0199999996
    346, -0.600000024,          -1.,           0.
    347, -0.600000024, -0.857142866,           0.
    348, -0.600000024, -0.714285731,           0.
    349, -0.600000024, -0.571428597,           0.
    350, -0.600000024, -0.428571433,           0.
    351, -0.600000024, -0.285714298,           0.
    352, -0.600000024, -0.142857149,           0.
    353, -0.600000024,           0.,           0.
    354, -0.600000024,  0.142857149,           0.
    355, -0.600000024,  0.285714298,           0.
    356, -0.600000024,  0.428571433,           0.
    357, -0.600000024,  0.571428597,           0.
    358, -0.600000024,  0.714285731,           0.
    359, -0.600000024,  0.857142866,           0.
    360, -0.600000024,           1.,           0.
    361, -0.466666669,          -1.,  0.100000001
    362, -0.466666669, -0.857142866,  0.100000001
    363, -0.466666669, -0.714285731,  0.100000001
    364, -0.466666669, -0.571428597,  0.100000001
    365, -0.466666669, -0.428571433,  0.100000001
    366, -0.466666669, -0.285714298,  0.100000001
    367, -0.466666669, -0.142857149,  0.100000001
    368, -0.466666669,           0.,  0.100000001
    369, -0.466666669,  0.142857149,  0.100000001
    370, -0.466666669,  0.285714298,  0.100000001
    371, -0.466666669,  0.428571433,  0.100000001
    372, -0.466666669,  0.571428597,  0.100000001
    373, -0.466666669,  0.714285731,  0.100000001
    374, -0.466666669,  0.857142866,  0.100000001
    375, -0.466666669,           1.,  0.100000001
    376, -0.466666669,          -1., 0.0799999982
    377, -0.466666669, -0.857142866, 0.0799999982
    378, -0.466666669, -0.714285731, 0.0799999982
    379, -0.466666669, -0.571428597, 0.0799999982
    380, -0.466666669, -0.428571433, 0.0799999982
    381, -0.466666669, -0.285714298, 0.0799999982
    382, -0.466666669, -0.142857149, 0.0799999982
    383, -0.466666669,           0., 0.0799999982
    384, -0.466666669,  0.142857149, 0.0799999982
    385, -0.466666669,  0.285714298, 0.0799999982
    386, -0.466666669,  0.428571433, 0.0799999982
    387, -0.466666669,  0.571428597, 0.0799999982
    388, -0.466666669,  0.714285731, 0.0799999982
    389, -0.466666669,  0.857142866, 0.0799999982
    390, -0.466666669,           1., 0.0799999982
    391, -0.466666669,          -1., 0.0599999987
    392, -0.466666669, -0.857142866, 0.0599999987
    393, -0.466666669, -0.714285731, 0.0599999987
    394, -0.466666669, -0.571428597, 0.0599999987
    395, -0.466666669, -0.428571433, 0.0599999987
    396, -0.466666669, -0.285714298, 0.0599999987
    397, -0.466666669, -0.142857149, 0.0599999987
    398, -0.466666669,           0., 0.0599999987
    399, -0.466666669,  0.142857149, 0.0599999987
    400, -0.466666669,  0.285714298, 0.0599999987
    401, -0.466666669,  0.428571433, 0.0599999987
    402, -0.466666669,  0.571428597, 0.0599999987
    403, -0.466666669,  0.714285731, 0.0599999987
    404, -0.466666669,  0.857142866, 0.0599999987
    405, -0.466666669,           1., 0.0599999987
    406, -0.466666669,          -1., 0.0399999991
    407, -0.466666669, -0.857142866, 0.0399999991
    408, -0.466666669, -0.714285731, 0.0399999991
    409, -0.466666669, -0.571428597, 0.0399999991
    410, -0.466666669, -0.428571433, 0.0399999991
    411, -0.466666669, -0.285714298, 0.0399999991
    412, -0.466666669, -0.142857149, 0.0399999991
    413, -0.466666669,           0., 0.0399999991
    414, -0.466666669,  0.142857149, 0.0399999991
    415, -0.466666669,  0.285714298, 0.0399999991
    416, -0.466666669,  0.428571433, 0.0399999991
    417, -0.466666669,  0.571428597, 0.0399999991
    418, -0.466666669,  0.714285731, 0.0399999991
    419, -0.466666669,  0.857142866, 0.0399999991
    420, -0.466666669,           1., 0.0399999991
    421, -0.466666669,          -1., 0.0199999996
    422, -0.466666669, -0.857142866, 0.0199999996
    423, -0.466666669, -0.714285731, 0.0199999996
    424, -0.466666669, -0.571428597, 0.0199999996
    425, -0.466666669, -0.428571433, 0.0199999996
    426, -0.466666669, -0.285714298, 0.0199999996
    427, -0.466666669, -0.142857149, 0.0199999996
    428, -0.466666669,           0., 0.0199999996
    429, -0.466666669,  0.142857149, 0.0199999996
    430, -0.466666669,  0.285714298, 0.0199999996
    431, -0.466666669,  0.428571433, 0.0199999996
    432, -0.466666669,  0.571428597, 0.0199999996
    433, -0.466666669,  0.714285731, 0.0199999996
    434, -0.466666669,  0.857142866, 0.0199999996
    435, -0.466666669,           1., 0.0199999996
    436, -0.466666669,          -1.,           0.
    437, -0.466666669, -0.857142866,           0.
    438, -0.466666669, -0.714285731,           0.
    439, -0.466666669, -0.571428597,           0.
    440, -0.466666669, -0.428571433,           0.
    441, -0.466666669, -0.285714298,           0.
    442, -0.466666669, -0.142857149,           0.
    443, -0.466666669,           0.,           0.
    444, -0.466666669,  0.142857149,           0.
    445, -0.466666669,  0.285714298,           0.
    446, -0.466666669,  0.428571433,           0.
    447, -0.466666669,  0.571428597,           0.
    448, -0.466666669,  0.714285731,           0.
    449, -0.466666669,  0.857142866,           0.
    450, -0.466666669,           1.,           0.
    451, -0.333333343,          -1.,  0.100000001
    452, -0.333333343, -0.857142866,  0.100000001
    453, -0.333333343, -0.714285731,  0.100000001
    454, -0.333333343, -0.571428597,  0.100000001
    455, -0.333333343, -0.428571433,  0.100000001
    456, -0.333333343, -0.285714298,  0.100000001
    457, -0.333333343, -0.142857149,  0.100000001
    458, -0.333333343,           0.,  0.100000001
    459, -0.333333343,  0.142857149,  0.100000001
    460, -0.333333343,  0.285714298,  0.100000001
    461, -0.333333343,  0.428571433,  0.100000001
    462, -0.333333343,  0.571428597,  0.100000001
    463, -0.333333343,  0.714285731,  0.100000001
    464, -0.333333343,  0.857142866,  0.100000001
    465, -0.333333343,           1.,  0.100000001
    466, -0.333333343,          -1., 0.0799999982
    467, -0.333333343, -0.857142866, 0.0799999982
    468, -0.333333343, -0.714285731, 0.0799999982
    469, -0.333333343, -0.571428597, 0.0799999982
    470, -0.333333343, -0.428571433, 0.0799999982
    471, -0.333333343, -0.285714298, 0.0799999982
    472, -0.333333343, -0.142857149, 0.0799999982
    473, -0.333333343,           0., 0.0799999982
    474, -0.333333343,  0.142857149, 0.0799999982
    475, -0.333333343,  0.285714298, 0.0799999982
    476, -0.333333343,  0.428571433, 0.0799999982
    477, -0.333333343,  0.571428597, 0.0799999982
    478, -0.333333343,  0.714285731, 0.0799999982
    479, -0.333333343,  0.857142866, 0.0799999982
    480, -0.333333343,           1., 0.0799999982
    481, -0.333333343,          -1., 0.0599999987
    482, -0.333333343, -0.857142866, 0.0599999987
    483, -0.333333343, -0.714285731, 0.0599999987
    484, -0.333333343, -0.571428597, 0.0599999987
    485, -0.333333343, -0.428571433, 0.0599999987
    486, -0.333333343, -0.285714298, 0.0599999987
    487, -0.333333343, -0.142857149, 0.0599999987
    488, -0.333333343,           0., 0.0599999987
    489, -0.333333343,  0.142857149, 0.0599999987
    490, -0.333333343,  0.285714298, 0.0599999987
    491, -0.333333343,  0.428571433, 0.0599999987
    492, -0.333333343,  0.571428597, 0.0599999987
    493, -0.333333343,  0.714285731, 0.0599999987
    494, -0.333333343,  0.857142866, 0.0599999987
    495, -0.333333343,           1., 0.0599999987
    496, -0.333333343,          -1., 0.0399999991
    497, -0.333333343, -0.857142866, 0.0399999991
    498, -0.333333343, -0.714285731, 0.0399999991
    499, -0.333333343, -0.571428597, 0.0399999991
    500, -0.333333343, -0.428571433, 0.0399999991
    501, -0.333333343, -0.285714298, 0.0399999991
    502, -0.333333343, -0.142857149, 0.0399999991
    503, -0.333333343,           0., 0.0399999991
    504, -0.333333343,  0.142857149, 0.0399999991
    505, -0.333333343,  0.285714298, 0.0399999991
    506, -0.333333343,  0.428571433, 0.0399999991
    507, -0.333333343,  0.571428597, 0.0399999991
    508, -0.333333343,  0.714285731, 0.0399999991
    509, -0.333333343,  0.857142866, 0.0399999991
    510, -0.333333343,           1., 0.0399999991
    511, -0.333333343,          -1., 0.0199999996
    512, -0.333333343, -0.857142866, 0.0199999996
    513, -0.333333343, -0.714285731, 0.0199999996
    514, -0.333333343, -0.571428597, 0.0199999996
    515, -0.333333343, -0.428571433, 0.0199999996
    516, -0.333333343, -0.285714298, 0.0199999996
    517, -0.333333343, -0.142857149, 0.0199999996
    518, -0.333333343,           0., 0.0199999996
    519, -0.333333343,  0.142857149, 0.0199999996
    520, -0.333333343,  0.285714298, 0.0199999996
    521, -0.333333343,  0.428571433, 0.0199999996
    522, -0.333333343,  0.571428597, 0.0199999996
    523, -0.333333343,  0.714285731, 0.0199999996
    524, -0.333333343,  0.857142866, 0.0199999996
    525, -0.333333343,           1., 0.0199999996
    526, -0.333333343,          -1.,           0.
    527, -0.333333343, -0.857142866,           0.
    528, -0.333333343, -0.714285731,           0.
    529, -0.333333343, -0.571428597,           0.
    530, -0.333333343, -0.428571433,           0.
    531, -0.333333343, -0.285714298,           0.
    532, -0.333333343, -0.142857149,           0.
    533, -0.333333343,           0.,           0.
    534, -0.333333343,  0.142857149,           0.
    535, -0.333333343,  0.285714298,           0.
    536, -0.333333343,  0.428571433,           0.
    537, -0.333333343,  0.571428597,           0.
    538, -0.333333343,  0.714285731,           0.
    539, -0.333333343,  0.857142866,           0.
    540, -0.333333343,           1.,           0.
    541, -0.200000003,          -1.,  0.100000001
    542, -0.200000003, -0.857142866,  0.100000001
    543, -0.200000003, -0.714285731,  0.100000001
    544, -0.200000003, -0.571428597,  0.100000001
    545, -0.200000003, -0.428571433,  0.100000001
    546, -0.200000003, -0.285714298,  0.100000001
    547, -0.200000003, -0.142857149,  0.100000001
    548, -0.200000003,           0.,  0.100000001
    549, -0.200000003,  0.142857149,  0.100000001
    550, -0.200000003,  0.285714298,  0.100000001
    551, -0.200000003,  0.428571433,  0.100000001
    552, -0.200000003,  0.571428597,  0.100000001
    553, -0.200000003,  0.714285731,  0.100000001
    554, -0.200000003,  0.857142866,  0.100000001
    555, -0.200000003,           1.,  0.100000001
    556, -0.200000003,          -1., 0.0799999982
    557, -0.200000003, -0.857142866, 0.0799999982
    558, -0.200000003, -0.714285731, 0.0799999982
    559, -0.200000003, -0.571428597, 0.0799999982
    560, -0.200000003, -0.428571433, 0.0799999982
    561, -0.200000003, -0.285714298, 0.0799999982
    562, -0.200000003, -0.142857149, 0.0799999982
    563, -0.200000003,           0., 0.0799999982
    564, -0.200000003,  0.142857149, 0.0799999982
    565, -0.200000003,  0.285714298, 0.0799999982
    566, -0.200000003,  0.428571433, 0.0799999982
    567, -0.200000003,  0.571428597, 0.0799999982
    568, -0.200000003,  0.714285731, 0.0799999982
    569, -0.200000003,  0.857142866, 0.0799999982
    570, -0.200000003,           1., 0.0799999982
    571, -0.200000003,          -1., 0.0599999987
    572, -0.200000003, -0.857142866, 0.0599999987
    573, -0.200000003, -0.714285731, 0.0599999987
    574, -0.200000003, -0.571428597, 0.0599999987
    575, -0.200000003, -0.428571433, 0.0599999987
    576, -0.200000003, -0.285714298, 0.0599999987
    577, -0.200000003, -0.142857149, 0.0599999987
    578, -0.200000003,           0., 0.0599999987
    579, -0.200000003,  0.142857149, 0.0599999987
    580, -0.200000003,  0.285714298, 0.0599999987
    581, -0.200000003,  0.428571433, 0.0599999987
    582, -0.200000003,  0.571428597, 0.0599999987
    583, -0.200000003,  0.714285731, 0.0599999987
    584, -0.200000003,  0.857142866, 0.0599999987
    585, -0.200000003,           1., 0.0599999987
    586, -0.200000003,          -1., 0.0399999991
    587, -0.200000003, -0.857142866, 0.0399999991
    588, -0.200000003, -0.714285731, 0.0399999991
    589, -0.200000003, -0.571428597, 0.0399999991
    590, -0.200000003, -0.428571433, 0.0399999991
    591, -0.200000003, -0.285714298, 0.0399999991
    592, -0.200000003, -0.142857149, 0.0399999991
    593, -0.200000003,           0., 0.0399999991
    594, -0.200000003,  0.142857149, 0.0399999991
    595, -0.200000003,  0.285714298, 0.0399999991
    596, -0.200000003,  0.428571433, 0.0399999991
    597, -0.200000003,  0.571428597, 0.0399999991
    598, -0.200000003,  0.714285731, 0.0399999991
    599, -0.200000003,  0.857142866, 0.0399999991
    600, -0.200000003,           1., 0.0399999991
    601, -0.200000003,          -1., 0.0199999996
    602, -0.200000003, -0.857142866, 0.0199999996
    603, -0.200000003, -0.714285731, 0.0199999996
    604, -0.200000003, -0.571428597, 0.0199999996
    605, -0.200000003, -0.428571433, 0.0199999996
    606, -0.200000003, -0.285714298, 0.0199999996
    607, -0.200000003, -0.142857149, 0.0199999996
    608, -0.200000003,           0., 0.0199999996
    609, -0.200000003,  0.142857149, 0.0199999996
    610, -0.200000003,  0.285714298, 0.0199999996
    611, -0.200000003,  0.428571433, 0.0199999996
    612, -0.200000003,  0.571428597, 0.0199999996
    613, -0.200000003,  0.714285731, 0.0199999996
    614, -0.200000003,  0.857142866, 0.0199999996
    615, -0.200000003,           1., 0.0199999996
    616, -0.200000003,          -1.,           0.
    617, -0.200000003, -0.857142866,           0.
    618, -0.200000003, -0.714285731,           0.
    619, -0.200000003, -0.571428597,           0.
    620, -0.200000003, -0.428571433,           0.
    621, -0.200000003, -0.285714298,           0.
    622, -0.200000003, -0.142857149,           0.
    623, -0.200000003,           0.,           0.
    624, -0.200000003,  0.142857149,           0.
    625, -0.200000003,  0.285714298,           0.
    626, -0.200000003,  0.428571433,           0.
    627, -0.200000003,  0.571428597,           0.
    628, -0.200000003,  0.714285731,           0.
    629, -0.200000003,  0.857142866,           0.
    630, -0.200000003,           1.,           0.
    631, -0.0666666701,          -1.,  0.100000001
    632, -0.0666666701, -0.857142866,  0.100000001
    633, -0.0666666701, -0.714285731,  0.100000001
    634, -0.0666666701, -0.571428597,  0.100000001
    635, -0.0666666701, -0.428571433,  0.100000001
    636, -0.0666666701, -0.285714298,  0.100000001
    637, -0.0666666701, -0.142857149,  0.100000001
    638, -0.0666666701,           0.,  0.100000001
    639, -0.0666666701,  0.142857149,  0.100000001
    640, -0.0666666701,  0.285714298,  0.100000001
    641, -0.0666666701,  0.428571433,  0.100000001
    642, -0.0666666701,  0.571428597,  0.100000001
    643, -0.0666666701,  0.714285731,  0.100000001
    644, -0.0666666701,  0.857142866,  0.100000001
    645, -0.0666666701,           1.,  0.100000001
    646, -0.0666666701,          -1., 0.0799999982
    647, -0.0666666701, -0.857142866, 0.0799999982
    648, -0.0666666701, -0.714285731, 0.0799999982
    649, -0.0666666701, -0.571428597, 0.0799999982
    650, -0.0666666701, -0.428571433, 0.0799999982
    651, -0.0666666701, -0.285714298, 0.0799999982
    652, -0.0666666701, -0.142857149, 0.0799999982
    653, -0.0666666701,           0., 0.0799999982
    654, -0.0666666701,  0.142857149, 0.0799999982
    655, -0.0666666701,  0.285714298, 0.0799999982
    656, -0.0666666701,  0.428571433, 0.0799999982
    657, -0.0666666701,  0.571428597, 0.0799999982
    658, -0.0666666701,  0.714285731, 0.0799999982
    659, -0.0666666701,  0.857142866, 0.0799999982
    660, -0.0666666701,           1., 0.0799999982
    661, -0.0666666701,          -1., 0.0599999987
    662, -0.0666666701, -0.857142866, 0.0599999987
    663, -0.0666666701, -0.714285731, 0.0599999987
    664, -0.0666666701, -0.571428597, 0.0599999987
    665, -0.0666666701, -0.428571433, 0.0599999987
    666, -0.0666666701, -0.285714298, 0.0599999987
    667, -0.0666666701, -0.142857149, 0.0599999987
    668, -0.0666666701,           0., 0.0599999987
    669, -0.0666666701,  0.142857149, 0.0599999987
    670, -0.0666666701,  0.285714298, 0.0599999987
    671, -0.0666666701,  0.428571433, 0.0599999987
    672, -0.0666666701,  0.571428597, 0.0599999987
    673, -0.0666666701,  0.714285731, 0.0599999987
    674, -0.0666666701,  0.857142866, 0.0599999987
    675, -0.0666666701,           1., 0.0599999987
    676, -0.0666666701,          -1., 0.0399999991
    677, -0.0666666701, -0.857142866, 0.0399999991
    678, -0.0666666701, -0.714285731, 0.0399999991
    679, -0.0666666701, -0.571428597, 0.0399999991
    680, -0.0666666701, -0.428571433, 0.0399999991
    681, -0.0666666701, -0.285714298, 0.0399999991
    682, -0.0666666701, -0.142857149, 0.0399999991
    683, -0.0666666701,           0., 0.0399999991
    684, -0.0666666701,  0.142857149, 0.0399999991
    685, -0.0666666701,  0.285714298, 0.0399999991
    686, -0.0666666701,  0.428571433, 0.0399999991
    687, -0.0666666701,  0.571428597, 0.0399999991
    688, -0.0666666701,  0.714285731, 0.0399999991
    689, -0.0666666701,  0.857142866, 0.0399999991
    690, -0.0666666701,           1., 0.0399999991
    691, -0.0666666701,          -1., 0.0199999996
    692, -0.0666666701, -0.857142866, 0.0199999996
    693, -0.0666666701, -0.714285731, 0.0199999996
    694, -0.0666666701, -0.571428597, 0.0199999996
    695, -0.0666666701, -0.428571433, 0.0199999996
    696, -0.0666666701, -0.285714298, 0.0199999996
    697, -0.0666666701, -0.142857149, 0.0199999996
    698, -0.0666666701,           0., 0.0199999996
    699, -0.0666666701,  0.142857149, 0.0199999996
    700, -0.0666666701,  0.285714298, 0.0199999996
    701, -0.0666666701,  0.428571433, 0.0199999996
    702, -0.0666666701,  0.571428597, 0.0199999996
    703, -0.0666666701,  0.714285731, 0.0199999996
    704, -0.0666666701,  0.857142866, 0.0199999996
    705, -0.0666666701,           1., 0.0199999996
    706, -0.0666666701,          -1.,           0.
    707, -0.0666666701, -0.857142866,           0.
    708, -0.0666666701, -0.714285731,           0.
    709, -0.0666666701, -0.571428597,           0.
    710, -0.0666666701, -0.428571433,           0.
    711, -0.0666666701, -0.285714298,           0.
    712, -0.0666666701, -0.142857149,           0.
    713, -0.0666666701,           0.,           0.
    714, -0.0666666701,  0.142857149,           0.
    715, -0.0666666701,  0.285714298,           0.
    716, -0.0666666701,  0.428571433,           0.
    717, -0.0666666701,  0.571428597,           0.
    718, -0.0666666701,  0.714285731,           0.
    719, -0.0666666701,  0.857142866,           0.
    720, -0.0666666701,           1.,           0.
    721, 0.0666666701,          -1.,  0.100000001
    722, 0.0666666701, -0.857142866,  0.100000001
    723, 0.0666666701, -0.714285731,  0.100000001
    724, 0.0666666701, -0.571428597,  0.100000001
    725, 0.0666666701, -0.428571433,  0.100000001
    726, 0.0666666701, -0.285714298,  0.100000001
    727, 0.0666666701, -0.142857149,  0.100000001
    728, 0.0666666701,           0.,  0.100000001
    729, 0.0666666701,  0.142857149,  0.100000001
    730, 0.0666666701,  0.285714298,  0.100000001
    731, 0.0666666701,  0.428571433,  0.100000001
    732, 0.0666666701,  0.571428597,  0.100000001
    733, 0.0666666701,  0.714285731,  0.100000001
    734, 0.0666666701,  0.857142866,  0.100000001
    735, 0.0666666701,           1.,  0.100000001
    736, 0.0666666701,          -1., 0.0799999982
    737, 0.0666666701, -0.857142866, 0.0799999982
    738, 0.0666666701, -0.714285731, 0.0799999982
    739, 0.0666666701, -0.571428597, 0.0799999982
    740, 0.0666666701, -0.428571433, 0.0799999982
    741, 0.0666666701, -0.285714298, 0.0799999982
    742, 0.0666666701, -0.142857149, 0.0799999982
    743, 0.0666666701,           0., 0.0799999982
    744, 0.0666666701,  0.142857149, 0.0799999982
    745, 0.0666666701,  0.285714298, 0.0799999982
    746, 0.0666666701,  0.428571433, 0.0799999982
    747, 0.0666666701,  0.571428597, 0.0799999982
    748, 0.0666666701,  0.714285731, 0.0799999982
    749, 0.0666666701,  0.857142866, 0.0799999982
    750, 0.0666666701,           1., 0.0799999982
    751, 0.0666666701,          -1., 0.0599999987
    752, 0.0666666701, -0.857142866, 0.0599999987
    753, 0.0666666701, -0.714285731, 0.0599999987
    754, 0.0666666701, -0.571428597, 0.0599999987
    755, 0.0666666701, -0.428571433, 0.0599999987
    756, 0.0666666701, -0.285714298, 0.0599999987
    757, 0.0666666701, -0.142857149, 0.0599999987
    758, 0.0666666701,           0., 0.0599999987
    759, 0.0666666701,  0.142857149, 0.0599999987
    760, 0.0666666701,  0.285714298, 0.0599999987
    761, 0.0666666701,  0.428571433, 0.0599999987
    762, 0.0666666701,  0.571428597, 0.0599999987
    763, 0.0666666701,  0.714285731, 0.0599999987
    764, 0.0666666701,  0.857142866, 0.0599999987
    765, 0.0666666701,           1., 0.0599999987
    766, 0.0666666701,          -1., 0.0399999991
    767, 0.0666666701, -0.857142866, 0.0399999991
    768, 0.0666666701, -0.714285731, 0.0399999991
    769, 0.0666666701, -0.571428597, 0.0399999991
    770, 0.0666666701, -0.428571433, 0.0399999991
    771, 0.0666666701, -0.285714298, 0.0399999991
    772, 0.0666666701, -0.142857149, 0.0399999991
    773, 0.0666666701,           0., 0.0399999991
    774, 0.0666666701,  0.142857149, 0.0399999991
    775, 0.0666666701,  0.285714298, 0.0399999991
    776, 0.0666666701,  0.428571433, 0.0399999991
    777, 0.0666666701,  0.571428597, 0.0399999991
    778, 0.0666666701,  0.714285731, 0.0399999991
    779, 0.0666666701,  0.857142866, 0.0399999991
    780, 0.0666666701,           1., 0.0399999991
    781, 0.0666666701,          -1., 0.0199999996
    782, 0.0666666701, -0.857142866, 0.0199999996
    783, 0.0666666701, -0.714285731, 0.0199999996
    784, 0.0666666701, -0.571428597, 0.0199999996
    785, 0.0666666701, -0.428571433, 0.0199999996
    786, 0.0666666701, -0.285714298, 0.0199999996
    787, 0.0666666701, -0.142857149, 0.0199999996
    788, 0.0666666701,           0., 0.0199999996
    789, 0.0666666701,  0.142857149, 0.0199999996
    790, 0.0666666701,  0.285714298, 0.0199999996
    791, 0.0666666701,  0.428571433, 0.0199999996
    792, 0.0666666701,  0.571428597, 0.0199999996
    793, 0.0666666701,  0.714285731, 0.0199999996
    794, 0.0666666701,  0.857142866, 0.0199999996
    795, 0.0666666701,           1., 0.0199999996
    796, 0.0666666701,          -1.,           0.
    797, 0.0666666701, -0.857142866,           0.
    798, 0.0666666701, -0.714285731,           0.
    799, 0.0666666701, -0.571428597,           0.
    800, 0.0666666701, -0.428571433,           0.
    801, 0.0666666701, -0.285714298,           0.
    802, 0.0666666701, -0.142857149,           0.
    803, 0.0666666701,           0.,           0.
    804, 0.0666666701,  0.142857149,           0.
    805, 0.0666666701,  0.285714298,           0.
    806, 0.0666666701,  0.428571433,           0.
    807, 0.0666666701,  0.571428597,           0.
    808, 0.0666666701,  0.714285731,           0.
    809, 0.0666666701,  0.857142866,           0.
    810, 0.0666666701,           1.,           0.
    811,  0.200000003,          -1.,  0.100000001
    812,  0.200000003, -0.857142866,  0.100000001
    813,  0.200000003, -0.714285731,  0.100000001
    814,  0.200000003, -0.571428597,  0.100000001
    815,  0.200000003, -0.428571433,  0.100000001
    816,  0.200000003, -0.285714298,  0.100000001
    817,  0.200000003, -0.142857149,  0.100000001
    818,  0.200000003,           0.,  0.100000001
    819,  0.200000003,  0.142857149,  0.100000001
    820,  0.200000003,  0.285714298,  0.100000001
    821,  0.200000003,  0.428571433,  0.100000001
    822,  0.200000003,  0.571428597,  0.100000001
    823,  0.200000003,  0.714285731,  0.100000001
    824,  0.200000003,  0.857142866,  0.100000001
    825,  0.200000003,           1.,  0.100000001
    826,  0.200000003,          -1., 0.0799999982
    827,  0.200000003, -0.857142866, 0.0799999982
    828,  0.200000003, -0.714285731, 0.0799999982
    829,  0.200000003, -0.571428597, 0.0799999982
    830,  0.200000003, -0.428571433, 0.0799999982
    831,  0.200000003, -0.285714298, 0.0799999982
    832,  0.200000003, -0.142857149, 0.0799999982
    833,  0.200000003,           0., 0.0799999982
    834,  0.200000003,  0.142857149, 0.0799999982
    835,  0.200000003,  0.285714298, 0.0799999982
    836,  0.200000003,  0.428571433, 0.0799999982
    837,  0.200000003,  0.571428597, 0.0799999982
    838,  0.200000003,  0.714285731, 0.0799999982
    839,  0.200000003,  0.857142866, 0.0799999982
    840,  0.200000003,           1., 0.0799999982
    841,  0.200000003,          -1., 0.0599999987
    842,  0.200000003, -0.857142866, 0.0599999987
    843,  0.200000003, -0.714285731, 0.0599999987
    844,  0.200000003, -0.571428597, 0.0599999987
    845,  0.200000003, -0.428571433, 0.0599999987
    846,  0.200000003, -0.285714298, 0.0599999987
    847,  0.200000003, -0.142857149, 0.0599999987
    848,  0.200000003,           0., 0.0599999987
    849,  0.200000003,  0.142857149, 0.0599999987
    850,  0.200000003,  0.285714298, 0.0599999987
    851,  0.200000003,  0.428571433, 0.0599999987
    852,  0.200000003,  0.571428597, 0.0599999987
    853,  0.200000003,  0.714285731, 0.0599999987
    854,  0.200000003,  0.857142866, 0.0599999987
    855,  0.200000003,           1., 0.0599999987
    856,  0.200000003,          -1., 0.0399999991
    857,  0.200000003, -0.857142866, 0.0399999991
    858,  0.200000003, -0.714285731, 0.0399999991
    859,  0.200000003, -0.571428597, 0.0399999991
    860,  0.200000003, -0.428571433, 0.0399999991
    861,  0.200000003, -0.285714298, 0.0399999991
    862,  0.200000003, -0.142857149, 0.0399999991
    863,  0.200000003,           0., 0.0399999991
    864,  0.200000003,  0.142857149, 0.0399999991
    865,  0.200000003,  0.285714298, 0.0399999991
    866,  0.200000003,  0.428571433, 0.0399999991
    867,  0.200000003,  0.571428597, 0.0399999991
    868,  0.200000003,  0.714285731, 0.0399999991
    869,  0.200000003,  0.857142866, 0.0399999991
    870,  0.200000003,           1., 0.0399999991
    871,  0.200000003,          -1., 0.0199999996
    872,  0.200000003, -0.857142866, 0.0199999996
    873,  0.200000003, -0.714285731, 0.0199999996
    874,  0.200000003, -0.571428597, 0.0199999996
    875,  0.200000003, -0.428571433, 0.0199999996
    876,  0.200000003, -0.285714298, 0.0199999996
    877,  0.200000003, -0.142857149, 0.0199999996
    878,  0.200000003,           0., 0.0199999996
    879,  0.200000003,  0.142857149, 0.0199999996
    880,  0.200000003,  0.285714298, 0.0199999996
    881,  0.200000003,  0.428571433, 0.0199999996
    882,  0.200000003,  0.571428597, 0.0199999996
    883,  0.200000003,  0.714285731, 0.0199999996
    884,  0.200000003,  0.857142866, 0.0199999996
    885,  0.200000003,           1., 0.0199999996
    886,  0.200000003,          -1.,           0.
    887,  0.200000003, -0.857142866,           0.
    888,  0.200000003, -0.714285731,           0.
    889,  0.200000003, -0.571428597,           0.
    890,  0.200000003, -0.428571433,           0.
    891,  0.200000003, -0.285714298,           0.
    892,  0.200000003, -0.142857149,           0.
    893,  0.200000003,           0.,           0.
    894,  0.200000003,  0.142857149,           0.
    895,  0.200000003,  0.285714298,           0.
    896,  0.200000003,  0.428571433,           0.
    897,  0.200000003,  0.571428597,           0.
    898,  0.200000003,  0.714285731,           0.
    899,  0.200000003,  0.857142866,           0.
    900,  0.200000003,           1.,           0.
    901,  0.333333343,          -1.,  0.100000001
    902,  0.333333343, -0.857142866,  0.100000001
    903,  0.333333343, -0.714285731,  0.100000001
    904,  0.333333343, -0.571428597,  0.100000001
    905,  0.333333343, -0.428571433,  0.100000001
    906,  0.333333343, -0.285714298,  0.100000001
    907,  0.333333343, -0.142857149,  0.100000001
    908,  0.333333343,           0.,  0.100000001
    909,  0.333333343,  0.142857149,  0.100000001
    910,  0.333333343,  0.285714298,  0.100000001
    911,  0.333333343,  0.428571433,  0.100000001
    912,  0.333333343,  0.571428597,  0.100000001
    913,  0.333333343,  0.714285731,  0.100000001
    914,  0.333333343,  0.857142866,  0.100000001
    915,  0.333333343,           1.,  0.100000001
    916,  0.333333343,          -1., 0.0799999982
    917,  0.333333343, -0.857142866, 0.0799999982
    918,  0.333333343, -0.714285731, 0.0799999982
    919,  0.333333343, -0.571428597, 0.0799999982
    920,  0.333333343, -0.428571433, 0.0799999982
    921,  0.333333343, -0.285714298, 0.0799999982
    922,  0.333333343, -0.142857149, 0.0799999982
    923,  0.333333343,           0., 0.0799999982
    924,  0.333333343,  0.142857149, 0.0799999982
    925,  0.333333343,  0.285714298, 0.0799999982
    926,  0.333333343,  0.428571433, 0.0799999982
    927,  0.333333343,  0.571428597, 0.0799999982
    928,  0.333333343,  0.714285731, 0.0799999982
    929,  0.333333343,  0.857142866, 0.0799999982
    930,  0.333333343,           1., 0.0799999982
    931,  0.333333343,          -1., 0.0599999987
    932,  0.333333343, -0.857142866, 0.0599999987
    933,  0.333333343, -0.714285731, 0.0599999987
    934,  0.333333343, -0.571428597, 0.0599999987
    935,  0.333333343, -0.428571433, 0.0599999987
    936,  0.333333343, -0.285714298, 0.0599999987
    937,  0.333333343, -0.142857149, 0.0599999987
    938,  0.333333343,           0., 0.0599999987
    939,  0.333333343,  0.142857149, 0.0599999987
    940,  0.333333343,  0.285714298, 0.0599999987
    941,  0.333333343,  0.428571433, 0.0599999987
    942,  0.333333343,  0.571428597, 0.0599999987
    943,  0.333333343,  0.714285731, 0.0599999987
    944,  0.333333343,  0.857142866, 0.0599999987
    945,  0.333333343,           1., 0.0599999987
    946,  0.333333343,          -1., 0.0399999991
    947,  0.333333343, -0.857142866, 0.0399999991
    948,  0.333333343, -0.714285731, 0.0399999991
    949,  0.333333343, -0.571428597, 0.0399999991
    950,  0.333333343, -0.428571433, 0.0399999991
    951,  0.333333343, -0.285714298, 0.0399999991
    952,  0.333333343, -0.142857149, 0.0399999991
    953,  0.333333343,           0., 0.0399999991
    954,  0.333333343,  0.142857149, 0.0399999991
    955,  0.333333343,  0.285714298, 0.0399999991
    956,  0.333333343,  0.428571433, 0.0399999991
    957,  0.333333343,  0.571428597, 0.0399999991
    958,  0.333333343,  0.714285731, 0.0399999991
    959,  0.333333343,  0.857142866, 0.0399999991
    960,  0.333333343,           1., 0.0399999991
    961,  0.333333343,          -1., 0.0199999996
    962,  0.333333343, -0.857142866, 0.0199999996
    963,  0.333333343, -0.714285731, 0.0199999996
    964,  0.333333343, -0.571428597, 0.0199999996
    965,  0.333333343, -0.428571433, 0.0199999996
    966,  0.333333343, -0.285714298, 0.0199999996
    967,  0.333333343, -0.142857149, 0.0199999996
    968,  0.333333343,           0., 0.0199999996
    969,  0.333333343,  0.142857149, 0.0199999996
    970,  0.333333343,  0.285714298, 0.0199999996
    971,  0.333333343,  0.428571433, 0.0199999996
    972,  0.333333343,  0.571428597, 0.0199999996
    973,  0.333333343,  0.714285731, 0.0199999996
    974,  0.333333343,  0.857142866, 0.0199999996
    975,  0.333333343,           1., 0.0199999996
    976,  0.333333343,          -1.,           0.
    977,  0.333333343, -0.857142866,           0.
    978,  0.333333343, -0.714285731,           0.
    979,  0.333333343, -0.571428597,           0.
    980,  0.333333343, -0.428571433,           0.
    981,  0.333333343, -0.285714298,           0.
    982,  0.333333343, -0.142857149,           0.
    983,  0.333333343,           0.,           0.
    984,  0.333333343,  0.142857149,           0.
    985,  0.333333343,  0.285714298,           0.
    986,  0.333333343,  0.428571433,           0.
    987,  0.333333343,  0.571428597,           0.
    988,  0.333333343,  0.714285731,           0.
    989,  0.333333343,  0.857142866,           0.
    990,  0.333333343,           1.,           0.
    991,  0.466666669,          -1.,  0.100000001
    992,  0.466666669, -0.857142866,  0.100000001
    993,  0.466666669, -0.714285731,  0.100000001
    994,  0.466666669, -0.571428597,  0.100000001
    995,  0.466666669, -0.428571433,  0.100000001
    996,  0.466666669, -0.285714298,  0.100000001
    997,  0.466666669, -0.142857149,  0.100000001
    998,  0.466666669,           0.,  0.100000001
    999,  0.466666669,  0.142857149,  0.100000001
   1000,  0.466666669,  0.285714298,  0.100000001
   1001,  0.466666669,  0.428571433,  0.100000001
   1002,  0.466666669,  0.571428597,  0.100000001
   1003,  0.466666669,  0.714285731,  0.100000001
   1004,  0.466666669,  0.857142866,  0.100000001
   1005,  0.466666669,           1.,  0.100000001
   1006,  0.466666669,          -1., 0.0799999982
   1007,  0.466666669, -0.857142866, 0.0799999982
   1008,  0.466666669, -0.714285731, 0.0799999982
   1009,  0.466666669, -0.571428597, 0.0799999982
   1010,  0.466666669, -0.428571433, 0.0799999982
   1011,  0.466666669, -0.285714298, 0.0799999982
   1012,  0.466666669, -0.142857149, 0.0799999982
   1013,  0.466666669,           0., 0.0799999982
   1014,  0.466666669,  0.142857149, 0.0799999982
   1015,  0.466666669,  0.285714298, 0.0799999982
   1016,  0.466666669,  0.428571433, 0.0799999982
   1017,  0.466666669,  0.571428597, 0.0799999982
   1018,  0.466666669,  0.714285731, 0.0799999982
   1019,  0.466666669,  0.857142866, 0.0799999982
   1020,  0.466666669,           1., 0.0799999982
   1021,  0.466666669,          -1., 0.0599999987
   1022,  0.466666669, -0.857142866, 0.0599999987
   1023,  0.466666669, -0.714285731, 0.0599999987
   1024,  0.466666669, -0.571428597, 0.0599999987
   1025,  0.466666669, -0.428571433, 0.0599999987
   1026,  0.466666669, -0.285714298, 0.0599999987
   1027,  0.466666669, -0.142857149, 0.0599999987
   1028,  0.466666669,           0., 0.0599999987
   1029,  0.466666669,  0.142857149, 0.0599999987
   1030,  0.466666669,  0.285714298, 0.0599999987
   1031,  0.466666669,  0.428571433, 0.0599999987
   1032,  0.466666669,  0.571428597, 0.0599999987
   1033,  0.466666669,  0.714285731, 0.0599999987
   1034,  0.466666669,  0.857142866, 0.0599999987
   1035,  0.466666669,           1., 0.0599999987
   1036,  0.466666669,          -1., 0.0399999991
   1037,  0.466666669, -0.857142866, 0.0399999991
   1038,  0.466666669, -0.714285731, 0.0399999991
   1039,  0.466666669, -0.571428597, 0.0399999991
   1040,  0.466666669, -0.428571433, 0.0399999991
   1041,  0.466666669, -0.285714298, 0.0399999991
   1042,  0.466666669, -0.142857149, 0.0399999991
   1043,  0.466666669,           0., 0.0399999991
   1044,  0.466666669,  0.142857149, 0.0399999991
   1045,  0.466666669,  0.285714298, 0.0399999991
   1046,  0.466666669,  0.428571433, 0.0399999991
   1047,  0.466666669,  0.571428597, 0.0399999991
   1048,  0.466666669,  0.714285731, 0.0399999991
   1049,  0.466666669,  0.857142866, 0.0399999991
   1050,  0.466666669,           1., 0.0399999991
   1051,  0.466666669,          -1., 0.0199999996
   1052,  0.466666669, -0.857142866, 0.0199999996
   1053,  0.466666669, -0.714285731, 0.0199999996
   1054,  0.466666669, -0.571428597, 0.0199999996
   1055,  0.466666669, -0.428571433, 0.0199999996
   1056,  0.466666669, -0.285714298, 0.0199999996
   1057,  0.466666669, -0.142857149, 0.0199999996
   1058,  0.466666669,           0., 0.0199999996
   1059,  0.466666669,  0.142857149, 0.0199999996
   1060,  0.466666669,  0.285714298, 0.0199999996
   1061,  0.466666669,  0.428571433, 0.0199999996
   1062,  0.466666669,  0.571428597, 0.0199999996
   1063,  0.466666669,  0.714285731, 0.0199999996
   1064,  0.466666669,  0.857142866, 0.0199999996
   1065,  0.466666669,           1., 0.0199999996
   1066,  0.466666669,          -1.,           0.
   1067,  0.466666669, -0.857142866,           0.
   1068,  0.466666669, -0.714285731,           0.
   1069,  0.466666669, -0.571428597,           0.
   1070,  0.466666669, -0.428571433,           0.
   1071,  0.466666669, -0.285714298,           0.
   1072,  0.466666669, -0.142857149,           0.
   1073,  0.466666669,           0.,           0.
   1074,  0.466666669,  0.142857149,           0.
   1075,  0.466666669,  0.285714298,           0.
   1076,  0.466666669,  0.428571433,           0.
   1077,  0.466666669,  0.571428597,           0.
   1078,  0.466666669,  0.714285731,           0.
   1079,  0.466666669,  0.857142866,           0.
   1080,  0.466666669,           1.,           0.
   1081,  0.600000024,          -1.,  0.100000001
   1082,  0.600000024, -0.857142866,  0.100000001
   1083,  0.600000024, -0.714285731,  0.100000001
   1084,  0.600000024, -0.571428597,  0.100000001
   1085,  0.600000024, -0.428571433,  0.100000001
   1086,  0.600000024, -0.285714298,  0.100000001
   1087,  0.600000024, -0.142857149,  0.100000001
   1088,  0.600000024,           0.,  0.100000001
   1089,  0.600000024,  0.142857149,  0.100000001
   1090,  0.600000024,  0.285714298,  0.100000001
   1091,  0.600000024,  0.428571433,  0.100000001
   1092,  0.600000024,  0.571428597,  0.100000001
   1093,  0.600000024,  0.714285731,  0.100000001
   1094,  0.600000024,  0.857142866,  0.100000001
   1095,  0.600000024,           1.,  0.100000001
   1096,  0.600000024,          -1., 0.0799999982
   1097,  0.600000024, -0.857142866, 0.0799999982
   1098,  0.600000024, -0.714285731, 0.0799999982
   1099,  0.600000024, -0.571428597, 0.0799999982
   1100,  0.600000024, -0.428571433, 0.0799999982
   1101,  0.600000024, -0.285714298, 0.0799999982
   1102,  0.600000024, -0.142857149, 0.0799999982
   1103,  0.600000024,           0., 0.0799999982
   1104,  0.600000024,  0.142857149, 0.0799999982
   1105,  0.600000024,  0.285714298, 0.0799999982
   1106,  0.600000024,  0.428571433, 0.0799999982
   1107,  0.600000024,  0.571428597, 0.0799999982
   1108,  0.600000024,  0.714285731, 0.0799999982
   1109,  0.600000024,  0.857142866, 0.0799999982
   1110,  0.600000024,           1., 0.0799999982
   1111,  0.600000024,          -1., 0.0599999987
   1112,  0.600000024, -0.857142866, 0.0599999987
   1113,  0.600000024, -0.714285731, 0.0599999987
   1114,  0.600000024, -0.571428597, 0.0599999987
   1115,  0.600000024, -0.428571433, 0.0599999987
   1116,  0.600000024, -0.285714298, 0.0599999987
   1117,  0.600000024, -0.142857149, 0.0599999987
   1118,  0.600000024,           0., 0.0599999987
   1119,  0.600000024,  0.142857149, 0.0599999987
   1120,  0.600000024,  0.285714298, 0.0599999987
   1121,  0.600000024,  0.428571433, 0.0599999987
   1122,  0.600000024,  0.571428597, 0.0599999987
   1123,  0.600000024,  0.714285731, 0.0599999987
   1124,  0.600000024,  0.857142866, 0.0599999987
   1125,  0.600000024,           1., 0.0599999987
   1126,  0.600000024,          -1., 0.0399999991
   1127,  0.600000024, -0.857142866, 0.0399999991
   1128,  0.600000024, -0.714285731, 0.0399999991
   1129,  0.600000024, -0.571428597, 0.0399999991
   1130,  0.600000024, -0.428571433, 0.0399999991
   1131,  0.600000024, -0.285714298, 0.0399999991
   1132,  0.600000024, -0.142857149, 0.0399999991
   1133,  0.600000024,           0., 0.0399999991
   1134,  0.600000024,  0.142857149, 0.0399999991
   1135,  0.600000024,  0.285714298, 0.0399999991
   1136,  0.600000024,  0.428571433, 0.0399999991
   1137,  0.600000024,  0.571428597, 0.0399999991
   1138,  0.600000024,  0.714285731, 0.0399999991
   1139,  0.600000024,  0.857142866, 0.0399999991
   1140,  0.600000024,           1., 0.0399999991
   1141,  0.600000024,          -1., 0.0199999996
   1142,  0.600000024, -0.857142866, 0.0199999996
   1143,  0.600000024, -0.714285731, 0.0199999996
   1144,  0.600000024, -0.571428597, 0.0199999996
   1145,  0.600000024, -0.428571433, 0.0199999996
   1146,  0.600000024, -0.285714298, 0.0199999996
   1147,  0.600000024, -0.142857149, 0.0199999996
   1148,  0.600000024,           0., 0.0199999996
   1149,  0.600000024,  0.142857149, 0.0199999996
   1150,  0.600000024,  0.285714298, 0.0199999996
   1151,  0.600000024,  0.428571433, 0.0199999996
   1152,  0.600000024,  0.571428597, 0.0199999996
   1153,  0.600000024,  0.714285731, 0.0199999996
   1154,  0.600000024,  0.857142866, 0.0199999996
   1155,  0.600000024,           1., 0.0199999996
   1156,  0.600000024,          -1.,           0.
   1157,  0.600000024, -0.857142866,           0.
   1158,  0.600000024, -0.714285731,           0.
   1159,  0.600000024, -0.571428597,           0.
   1160,  0.600000024, -0.428571433,           0.
   1161,  0.600000024, -0.285714298,           0.
   1162,  0.600000024, -0.142857149,           0.
   1163,  0.600000024,           0.,           0.
   1164,  0.600000024,  0.142857149,           0.
   1165,  0.600000024,  0.285714298,           0.
   1166,  0.600000024,  0.428571433,           0.
   1167,  0.600000024,  0.571428597,           0.
   1168,  0.600000024,  0.714285731,           0.
   1169,  0.600000024,  0.857142866,           0.
   1170,  0.600000024,           1.,           0.
   1171,  0.733333349,          -1.,  0.100000001
   1172,  0.733333349, -0.857142866,  0.100000001
   1173,  0.733333349, -0.714285731,  0.100000001
   1174,  0.733333349, -0.571428597,  0.100000001
   1175,  0.733333349, -0.428571433,  0.100000001
   1176,  0.733333349, -0.285714298,  0.100000001
   1177,  0.733333349, -0.142857149,  0.100000001
   1178,  0.733333349,           0.,  0.100000001
   1179,  0.733333349,  0.142857149,  0.100000001
   1180,  0.733333349,  0.285714298,  0.100000001
   1181,  0.733333349,  0.428571433,  0.100000001
   1182,  0.733333349,  0.571428597,  0.100000001
   1183,  0.733333349,  0.714285731,  0.100000001
   1184,  0.733333349,  0.857142866,  0.100000001
   1185,  0.733333349,           1.,  0.100000001
   1186,  0.733333349,          -1., 0.0799999982
   1187,  0.733333349, -0.857142866, 0.0799999982
   1188,  0.733333349, -0.714285731, 0.0799999982
   1189,  0.733333349, -0.571428597, 0.0799999982
   1190,  0.733333349, -0.428571433, 0.0799999982
   1191,  0.733333349, -0.285714298, 0.0799999982
   1192,  0.733333349, -0.142857149, 0.0799999982
   1193,  0.733333349,           0., 0.0799999982
   1194,  0.733333349,  0.142857149, 0.0799999982
   1195,  0.733333349,  0.285714298, 0.0799999982
   1196,  0.733333349,  0.428571433, 0.0799999982
   1197,  0.733333349,  0.571428597, 0.0799999982
   1198,  0.733333349,  0.714285731, 0.0799999982
   1199,  0.733333349,  0.857142866, 0.0799999982
   1200,  0.733333349,           1., 0.0799999982
   1201,  0.733333349,          -1., 0.0599999987
   1202,  0.733333349, -0.857142866, 0.0599999987
   1203,  0.733333349, -0.714285731, 0.0599999987
   1204,  0.733333349, -0.571428597, 0.0599999987
   1205,  0.733333349, -0.428571433, 0.0599999987
   1206,  0.733333349, -0.285714298, 0.0599999987
   1207,  0.733333349, -0.142857149, 0.0599999987
   1208,  0.733333349,           0., 0.0599999987
   1209,  0.733333349,  0.142857149, 0.0599999987
   1210,  0.733333349,  0.285714298, 0.0599999987
   1211,  0.733333349,  0.428571433, 0.0599999987
   1212,  0.733333349,  0.571428597, 0.0599999987
   1213,  0.733333349,  0.714285731, 0.0599999987
   1214,  0.733333349,  0.857142866, 0.0599999987
   1215,  0.733333349,           1., 0.0599999987
   1216,  0.733333349,          -1., 0.0399999991
   1217,  0.733333349, -0.857142866, 0.0399999991
   1218,  0.733333349, -0.714285731, 0.0399999991
   1219,  0.733333349, -0.571428597, 0.0399999991
   1220,  0.733333349, -0.428571433, 0.0399999991
   1221,  0.733333349, -0.285714298, 0.0399999991
   1222,  0.733333349, -0.142857149, 0.0399999991
   1223,  0.733333349,           0., 0.0399999991
   1224,  0.733333349,  0.142857149, 0.0399999991
   1225,  0.733333349,  0.285714298, 0.0399999991
   1226,  0.733333349,  0.428571433, 0.0399999991
   1227,  0.733333349,  0.571428597, 0.0399999991
   1228,  0.733333349,  0.714285731, 0.0399999991
   1229,  0.733333349,  0.857142866, 0.0399999991
   1230,  0.733333349,           1., 0.0399999991
   1231,  0.733333349,          -1., 0.0199999996
   1232,  0.733333349, -0.857142866, 0.0199999996
   1233,  0.733333349, -0.714285731, 0.0199999996
   1234,  0.733333349, -0.571428597, 0.0199999996
   1235,  0.733333349, -0.428571433, 0.0199999996
   1236,  0.733333349, -0.285714298, 0.0199999996
   1237,  0.733333349, -0.142857149, 0.0199999996
   1238,  0.733333349,           0., 0.0199999996
   1239,  0.733333349,  0.142857149, 0.0199999996
   1240,  0.733333349,  0.285714298, 0.0199999996
   1241,  0.733333349,  0.428571433, 0.0199999996
   1242,  0.733333349,  0.571428597, 0.0199999996
   1243,  0.733333349,  0.714285731, 0.0199999996
   1244,  0.733333349,  0.857142866, 0.0199999996
   1245,  0.733333349,           1., 0.0199999996
   1246,  0.733333349,          -1.,           0.
   1247,  0.733333349, -0.857142866,           0.
   1248,  0.733333349, -0.714285731,           0.
   1249,  0.733333349, -0.571428597,           0.
   1250,  0.733333349, -0.428571433,           0.
   1251,  0.733333349, -0.285714298,           0.
   1252,  0.733333349, -0.142857149,           0.
   1253,  0.733333349,           0.,           0.
   1254,  0.733333349,  0.142857149,           0.
   1255,  0.733333349,  0.285714298,           0.
   1256,  0.733333349,  0.428571433,           0.
   1257,  0.733333349,  0.571428597,           0.
   1258,  0.733333349,  0.714285731,           0.
   1259,  0.733333349,  0.857142866,           0.
   1260,  0.733333349,           1.,           0.
   1261,  0.866666675,          -1.,  0.100000001
   1262,  0.866666675, -0.857142866,  0.100000001
   1263,  0.866666675, -0.714285731,  0.100000001
   1264,  0.866666675, -0.571428597,  0.100000001
   1265,  0.866666675, -0.428571433,  0.100000001
   1266,  0.866666675, -0.285714298,  0.100000001
   1267,  0.866666675, -0.142857149,  0.100000001
   1268,  0.866666675,           0.,  0.100000001
   1269,  0.866666675,  0.142857149,  0.100000001
   1270,  0.866666675,  0.285714298,  0.100000001
   1271,  0.866666675,  0.428571433,  0.100000001
   1272,  0.866666675,  0.571428597,  0.100000001
   1273,  0.866666675,  0.714285731,  0.100000001
   1274,  0.866666675,  0.857142866,  0.100000001
   1275,  0.866666675,           1.,  0.100000001
   1276,  0.866666675,          -1., 0.0799999982
   1277,  0.866666675, -0.857142866, 0.0799999982
   1278,  0.866666675, -0.714285731, 0.0799999982
   1279,  0.866666675, -0.571428597, 0.0799999982
   1280,  0.866666675, -0.428571433, 0.0799999982
   1281,  0.866666675, -0.285714298, 0.0799999982
   1282,  0.866666675, -0.142857149, 0.0799999982
   1283,  0.866666675,           0., 0.0799999982
   1284,  0.866666675,  0.142857149, 0.0799999982
   1285,  0.866666675,  0.285714298, 0.0799999982
   1286,  0.866666675,  0.428571433, 0.0799999982
   1287,  0.866666675,  0.571428597, 0.0799999982
   1288,  0.866666675,  0.714285731, 0.0799999982
   1289,  0.866666675,  0.857142866, 0.0799999982
   1290,  0.866666675,           1., 0.0799999982
   1291,  0.866666675,          -1., 0.0599999987
   1292,  0.866666675, -0.857142866, 0.0599999987
   1293,  0.866666675, -0.714285731, 0.0599999987
   1294,  0.866666675, -0.571428597, 0.0599999987
   1295,  0.866666675, -0.428571433, 0.0599999987
   1296,  0.866666675, -0.285714298, 0.0599999987
   1297,  0.866666675, -0.142857149, 0.0599999987
   1298,  0.866666675,           0., 0.0599999987
   1299,  0.866666675,  0.142857149, 0.0599999987
   1300,  0.866666675,  0.285714298, 0.0599999987
   1301,  0.866666675,  0.428571433, 0.0599999987
   1302,  0.866666675,  0.571428597, 0.0599999987
   1303,  0.866666675,  0.714285731, 0.0599999987
   1304,  0.866666675,  0.857142866, 0.0599999987
   1305,  0.866666675,           1., 0.0599999987
   1306,  0.866666675,          -1., 0.0399999991
   1307,  0.866666675, -0.857142866, 0.0399999991
   1308,  0.866666675, -0.714285731, 0.0399999991
   1309,  0.866666675, -0.571428597, 0.0399999991
   1310,  0.866666675, -0.428571433, 0.0399999991
   1311,  0.866666675, -0.285714298, 0.0399999991
   1312,  0.866666675, -0.142857149, 0.0399999991
   1313,  0.866666675,           0., 0.0399999991
   1314,  0.866666675,  0.142857149, 0.0399999991
   1315,  0.866666675,  0.285714298, 0.0399999991
   1316,  0.866666675,  0.428571433, 0.0399999991
   1317,  0.866666675,  0.571428597, 0.0399999991
   1318,  0.866666675,  0.714285731, 0.0399999991
   1319,  0.866666675,  0.857142866, 0.0399999991
   1320,  0.866666675,           1., 0.0399999991
   1321,  0.866666675,          -1., 0.0199999996
   1322,  0.866666675, -0.857142866, 0.0199999996
   1323,  0.866666675, -0.714285731, 0.0199999996
   1324,  0.866666675, -0.571428597, 0.0199999996
   1325,  0.866666675, -0.428571433, 0.0199999996
   1326,  0.866666675, -0.285714298, 0.0199999996
   1327,  0.866666675, -0.142857149, 0.0199999996
   1328,  0.866666675,           0., 0.0199999996
   1329,  0.866666675,  0.142857149, 0.0199999996
   1330,  0.866666675,  0.285714298, 0.0199999996
   1331,  0.866666675,  0.428571433, 0.0199999996
   1332,  0.866666675,  0.571428597, 0.0199999996
   1333,  0.866666675,  0.714285731, 0.0199999996
   1334,  0.866666675,  0.857142866, 0.0199999996
   1335,  0.866666675,           1., 0.0199999996
   1336,  0.866666675,          -1.,           0.
   1337,  0.866666675, -0.857142866,           0.
   1338,  0.866666675, -0.714285731,           0.
   1339,  0.866666675, -0.571428597,           0.
   1340,  0.866666675, -0.428571433,           0.
   1341,  0.866666675, -0.285714298,           0.
   1342,  0.866666675, -0.142857149,           0.
   1343,  0.866666675,           0.,           0.
   1344,  0.866666675,  0.142857149,           0.
   1345,  0.866666675,  0.285714298,           0.
   1346,  0.866666675,  0.428571433,           0.
   1347,  0.866666675,  0.571428597,           0.
   1348,  0.866666675,  0.714285731,           0.
   1349,  0.866666675,  0.857142866,           0.
   1350,  0.866666675,           1.,           0.
   1351,           1.,          -1.,  0.100000001
   1352,           1., -0.857142866,  0.100000001
   1353,           1., -0.714285731,  0.100000001
   1354,           1., -0.571428597,  0.100000001
   1355,           1., -0.428571433,  0.100000001
   1356,           1., -0.285714298,  0.100000001
   1357,           1., -0.142857149,  0.100000001
   1358,           1.,           0.,  0.100000001
   1359,           1.,  0.142857149,  0.100000001
   1360,           1.,  0.285714298,  0.100000001
   1361,           1.,  0.428571433,  0.100000001
   1362,           1.,  0.571428597,  0.100000001
   1363,           1.,  0.714285731,  0.100000001
   1364,           1.,  0.857142866,  0.100000001
   1365,           1.,           1.,  0.100000001
   1366,           1.,          -1., 0.0799999982
   1367,           1., -0.857142866, 0.0799999982
   1368,           1., -0.714285731, 0.0799999982
   1369,           1., -0.571428597, 0.0799999982
   1370,           1., -0.428571433, 0.0799999982
   1371,           1., -0.285714298, 0.0799999982
   1372,           1., -0.142857149, 0.0799999982
   1373,           1.,           0., 0.0799999982
   1374,           1.,  0.142857149, 0.0799999982
   1375,           1.,  0.285714298, 0.0799999982
   1376,           1.,  0.428571433, 0.0799999982
   1377,           1.,  0.571428597, 0.0799999982
   1378,           1.,  0.714285731, 0.0799999982
   1379,           1.,  0.857142866, 0.0799999982
   1380,           1.,           1., 0.0799999982
   1381,           1.,          -1., 0.0599999987
   1382,           1., -0.857142866, 0.0599999987
   1383,           1., -0.714285731, 0.0599999987
   1384,           1., -0.571428597, 0.0599999987
   1385,           1., -0.428571433, 0.0599999987
   1386,           1., -0.285714298, 0.0599999987
   1387,           1., -0.142857149, 0.0599999987
   1388,           1.,           0., 0.0599999987
   1389,           1.,  0.142857149, 0.0599999987
   1390,           1.,  0.285714298, 0.0599999987
   1391,           1.,  0.428571433, 0.0599999987
   1392,           1.,  0.571428597, 0.0599999987
   1393,           1.,  0.714285731, 0.0599999987
   1394,           1.,  0.857142866, 0.0599999987
   1395,           1.,           1., 0.0599999987
   1396,           1.,          -1., 0.0399999991
   1397,           1., -0.857142866, 0.0399999991
   1398,           1., -0.714285731, 0.0399999991
   1399,           1., -0.571428597, 0.0399999991
   1400,           1., -0.428571433, 0.0399999991
   1401,           1., -0.285714298, 0.0399999991
   1402,           1., -0.142857149, 0.0399999991
   1403,           1.,           0., 0.0399999991
   1404,           1.,  0.142857149, 0.0399999991
   1405,           1.,  0.285714298, 0.0399999991
   1406,           1.,  0.428571433, 0.0399999991
   1407,           1.,  0.571428597, 0.0399999991
   1408,           1.,  0.714285731, 0.0399999991
   1409,           1.,  0.857142866, 0.0399999991
   1410,           1.,           1., 0.0399999991
   1411,           1.,          -1., 0.0199999996
   1412,           1., -0.857142866, 0.0199999996
   1413,           1., -0.714285731, 0.0199999996
   1414,           1., -0.571428597, 0.0199999996
   1415,           1., -0.428571433, 0.0199999996
   1416,           1., -0.285714298, 0.0199999996
   1417,           1., -0.142857149, 0.0199999996
   1418,           1.,           0., 0.0199999996
   1419,           1.,  0.142857149, 0.0199999996
   1420,           1.,  0.285714298, 0.0199999996
   1421,           1.,  0.428571433, 0.0199999996
   1422,           1.,  0.571428597, 0.0199999996
   1423,           1.,  0.714285731, 0.0199999996
   1424,           1.,  0.857142866, 0.0199999996
   1425,           1.,           1., 0.0199999996
   1426,           1.,          -1.,           0.
   1427,           1., -0.857142866,           0.
   1428,           1., -0.714285731,           0.
   1429,           1., -0.571428597,           0.
   1430,           1., -0.428571433,           0.
   1431,           1., -0.285714298,           0.
   1432,           1., -0.142857149,           0.
   1433,           1.,           0.,           0.
   1434,           1.,  0.142857149,           0.
   1435,           1.,  0.285714298,           0.
   1436,           1.,  0.428571433,           0.
   1437,           1.,  0.571428597,           0.
   1438,           1.,  0.714285731,           0.
   1439,           1.,  0.857142866,           0.
   1440,           1.,           1.,           0.
*Element, type=C3D8R
   1,   91,   92,  107,  106,    1,    2,   17,   16
   2,   92,   93,  108,  107,    2,    3,   18,   17
   3,   93,   94,  109,  108,    3,    4,   19,   18
   4,   94,   95,  110,  109,    4,    5,   20,   19
   5,   95,   96,  111,  110,    5,    6,   21,   20
   6,   96,   97,  112,  111,    6,    7,   22,   21
   7,   97,   98,  113,  112,    7,    8,   23,   22
   8,   98,   99,  114,  113,    8,    9,   24,   23
   9,   99,  100,  115,  114,    9,   10,   25,   24
  10,  100,  101,  116,  115,   10,   11,   26,   25
  11,  101,  102,  117,  116,   11,   12,   27,   26
  12,  102,  103,  118,  117,   12,   13,   28,   27
  13,  103,  104,  119,  118,   13,   14,   29,   28
  14,  104,  105,  120,  119,   14,   15,   30,   29
  15,  106,  107,  122,  121,   16,   17,   32,   31
  16,  107,  108,  123,  122,   17,   18,   33,   32
  17,  108,  109,  124,  123,   18,   19,   34,   33
  18,  109,  110,  125,  124,   19,   20,   35,   34
  19,  110,  111,  126,  125,   20,   21,   36,   35
  20,  111,  112,  127,  126,   21,   22,   37,   36
  21,  112,  113,  128,  127,   22,   23,   38,   37
  22,  113,  114,  129,  128,   23,   24,   39,   38
  23,  114,  115,  130,  129,   24,   25,   40,   39
  24,  115,  116,  131,  130,   25,   26,   41,   40
  25,  116,  117,  132,  131,   26,   27,   42,   41
  26,  117,  118,  133,  132,   27,   28,   43,   42
  27,  118,  119,  134,  133,   28,   29,   44,   43
  28,  119,  120,  135,  134,   29,   30,   45,   44
  29,  121,  122,  137,  136,   31,   32,   47,   46
  30,  122,  123,  138,  137,   32,   33,   48,   47
  31,  123,  124,  139,  138,   33,   34,   49,   48
  32,  124,  125,  140,  139,   34,   35,   50,   49
  33,  125,  126,  141,  140,   35,   36,   51,   50
  34,  126,  127,  142,  141,   36,   37,   52,   51
  35,  127,  128,  143,  142,   37,   38,   53,   52
  36,  128,  129,  144,  143,   38,   39,   54,   53
  37,  129,  130,  145,  144,   39,   40,   55,   54
  38,  130,  131,  146,  145,   40,   41,   56,   55
  39,  131,  132,  147,  146,   41,   42,   57,   56
  40,  132,  133,  148,  147,   42,   43,   58,   57
  41,  133,  134,  149,  148,   43,   44,   59,   58
  42,  134,  135,  150,  149,   44,   45,   60,   59
  43,  136,  137,  152,  151,   46,   47,   62,   61
  44,  137,  138,  153,  152,   47,   48,   63,   62
  45,  138,  139,  154,  153,   48,   49,   64,   63
  46,  139,  140,  155,  154,   49,   50,   65,   64
  47,  140,  141,  156,  155,   50,   51,   66,   65
  48,  141,  142,  157,  156,   51,   52,   67,   66
  49,  142,  143,  158,  157,   52,   53,   68,   67
  50,  143,  144,  159,  158,   53,   54,   69,   68
  51,  144,  145,  160,  159,   54,   55,   70,   69
  52,  145,  146,  161,  160,   55,   56,   71,   70
  53,  146,  147,  162,  161,   56,   57,   72,   71
  54,  147,  148,  163,  162,   57,   58,   73,   72
  55,  148,  149,  164,  163,   58,   59,   74,   73
  56,  149,  150,  165,  164,   59,   60,   75,   74
  57,  151,  152,  167,  166,   61,   62,   77,   76
  58,  152,  153,  168,  167,   62,   63,   78,   77
  59,  153,  154,  169,  168,   63,   64,   79,   78
  60,  154,  155,  170,  169,   64,   65,   80,   79
  61,  155,  156,  171,  170,   65,   66,   81,   80
  62,  156,  157,  172,  171,   66,   67,   82,   81
  63,  157,  158,  173,  172,   67,   68,   83,   82
  64,  158,  159,  174,  173,   68,   69,   84,   83
  65,  159,  160,  175,  174,   69,   70,   85,   84
  66,  160,  161,  176,  175,   70,   71,   86,   85
  67,  161,  162,  177,  176,   71,   72,   87,   86
  68,  162,  163,  178,  177,   72,   73,   88,   87
  69,  163,  164,  179,  178,   73,   74,   89,   88
  70,  164,  165,  180,  179,   74,   75,   90,   89
  71,  181,  182,  197,  196,   91,   92,  107,  106
  72,  182,  183,  198,  197,   92,   93,  108,  107
  73,  183,  184,  199,  198,   93,   94,  109,  108
  74,  184,  185,  200,  199,   94,   95,  110,  109
  75,  185,  186,  201,  200,   95,   96,  111,  110
  76,  186,  187,  202,  201,   96,   97,  112,  111
  77,  187,  188,  203,  202,   97,   98,  113,  112
  78,  188,  189,  204,  203,   98,   99,  114,  113
  79,  189,  190,  205,  204,   99,  100,  115,  114
  80,  190,  191,  206,  205,  100,  101,  116,  115
  81,  191,  192,  207,  206,  101,  102,  117,  116
  82,  192,  193,  208,  207,  102,  103,  118,  117
  83,  193,  194,  209,  208,  103,  104,  119,  118
  84,  194,  195,  210,  209,  104,  105,  120,  119
  85,  196,  197,  212,  211,  106,  107,  122,  121
  86,  197,  198,  213,  212,  107,  108,  123,  122
  87,  198,  199,  214,  213,  108,  109,  124,  123
  88,  199,  200,  215,  214,  109,  110,  125,  124
  89,  200,  201,  216,  215,  110,  111,  126,  125
  90,  201,  202,  217,  216,  111,  112,  127,  126
  91,  202,  203,  218,  217,  112,  113,  128,  127
  92,  203,  204,  219,  218,  113,  114,  129,  128
  93,  204,  205,  220,  219,  114,  115,  130,  129
  94,  205,  206,  221,  220,  115,  116,  131,  130
  95,  206,  207,  222,  221,  116,  117,  132,  131
  96,  207,  208,  223,  222,  117,  118,  133,  132
  97,  208,  209,  224,  223,  118,  119,  134,  133
  98,  209,  210,  225,  224,  119,  120,  135,  134
  99,  211,  212,  227,  226,  121,  122,  137,  136
 100,  212,  213,  228,  227,  122,  123,  138,  137
 101,  213,  214,  229,  228,  123,  124,  139,  138
 102,  214,  215,  230,  229,  124,  125,  140,  139
 103,  215,  216,  231,  230,  125,  126,  141,  140
 104,  216,  217,  232,  231,  126,  127,  142,  141
 105,  217,  218,  233,  232,  127,  128,  143,  142
 106,  218,  219,  234,  233,  128,  129,  144,  143
 107,  219,  220,  235,  234,  129,  130,  145,  144
 108,  220,  221,  236,  235,  130,  131,  146,  145
 109,  221,  222,  237,  236,  131,  132,  147,  146
 110,  222,  223,  238,  237,  132,  133,  148,  147
 111,  223,  224,  239,  238,  133,  134,  149,  148
 112,  224,  225,  240,  239,  134,  135,  150,  149
 113,  226,  227,  242,  241,  136,  137,  152,  151
 114,  227,  228,  243,  242,  137,  138,  153,  152
 115,  228,  229,  244,  243,  138,  139,  154,  153
 116,  229,  230,  245,  244,  139,  140,  155,  154
 117,  230,  231,  246,  245,  140,  141,  156,  155
 118,  231,  232,  247,  246,  141,  142,  157,  156
 119,  232,  233,  248,  247,  142,  143,  158,  157
 120,  233,  234,  249,  248,  143,  144,  159,  158
 121,  234,  235,  250,  249,  144,  145,  160,  159
 122,  235,  236,  251,  250,  145,  146,  161,  160
 123,  236,  237,  252,  251,  146,  147,  162,  161
 124,  237,  238,  253,  252,  147,  148,  163,  162
 125,  238,  239,  254,  253,  148,  149,  164,  163
 126,  239,  240,  255,  254,  149,  150,  165,  164
 127,  241,  242,  257,  256,  151,  152,  167,  166
 128,  242,  243,  258,  257,  152,  153,  168,  167
 129,  243,  244,  259,  258,  153,  154,  169,  168
 130,  244,  245,  260,  259,  154,  155,  170,  169
 131,  245,  246,  261,  260,  155,  156,  171,  170
 132,  246,  247,  262,  261,  156,  157,  172,  171
 133,  247,  248,  263,  262,  157,  158,  173,  172
 134,  248,  249,  264,  263,  158,  159,  174,  173
 135,  249,  250,  265,  264,  159,  160,  175,  174
 136,  250,  251,  266,  265,  160,  161,  176,  175
 137,  251,  252,  267,  266,  161,  162,  177,  176
 138,  252,  253,  268,  267,  162,  163,  178,  177
 139,  253,  254,  269,  268,  163,  164,  179,  178
 140,  254,  255,  270,  269,  164,  165,  180,  179
 141,  271,  272,  287,  286,  181,  182,  197,  196
 142,  272,  273,  288,  287,  182,  183,  198,  197
 143,  273,  274,  289,  288,  183,  184,  199,  198
 144,  274,  275,  290,  289,  184,  185,  200,  199
 145,  275,  276,  291,  290,  185,  186,  201,  200
 146,  276,  277,  292,  291,  186,  187,  202,  201
 147,  277,  278,  293,  292,  187,  188,  203,  202
 148,  278,  279,  294,  293,  188,  189,  204,  203
 149,  279,  280,  295,  294,  189,  190,  205,  204
 150,  280,  281,  296,  295,  190,  191,  206,  205
 151,  281,  282,  297,  296,  191,  192,  207,  206
 152,  282,  283,  298,  297,  192,  193,  208,  207
 153,  283,  284,  299,  298,  193,  194,  209,  208
 154,  284,  285,  300,  299,  194,  195,  210,  209
 155,  286,  287,  302,  301,  196,  197,  212,  211
 156,  287,  288,  303,  302,  197,  198,  213,  212
 157,  288,  289,  304,  303,  198,  199,  214,  213
 158,  289,  290,  305,  304,  199,  200,  215,  214
 159,  290,  291,  306,  305,  200,  201,  216,  215
 160,  291,  292,  307,  306,  201,  202,  217,  216
 161,  292,  293,  308,  307,  202,  203,  218,  217
 162,  293,  294,  309,  308,  203,  204,  219,  218
 163,  294,  295,  310,  309,  204,  205,  220,  219
 164,  295,  296,  311,  310,  205,  206,  221,  220
 165,  296,  297,  312,  311,  206,  207,  222,  221
 166,  297,  298,  313,  312,  207,  208,  223,  222
 167,  298,  299,  314,  313,  208,  209,  224,  223
 168,  299,  300,  315,  314,  209,  210,  225,  224
 169,  301,  302,  317,  316,  211,  212,  227,  226
 170,  302,  303,  318,  317,  212,  213,  228,  227
 171,  303,  304,  319,  318,  213,  214,  229,  228
 172,  304,  305,  320,  319,  214,  215,  230,  229
 173,  305,  306,  321,  320,  215,  216,  231,  230
 174,  306,  307,  322,  321,  216,  217,  232,  231
 175,  307,  308,  323,  322,  217,  218,  233,  232
 176,  308,  309,  324,  323,  218,  219,  234,  233
 177,  309,  310,  325,  324,  219,  220,  235,  234
 178,  310,  311,  326,  325,  220,  221,  236,  235
 179,  311,  312,  327,  326,  221,  222,  237,  236
 180,  312,  313,  328,  327,  222,  223,  238,  237
 181,  313,  314,  329,  328,  223,  224,  239,  238
 182,  314,  315,  330,  329,  224,  225,  240,  239
 183,  316,  317,  332,  331,  226,  227,  242,  241
 184,  317,  318,  333,  332,  227,  228,  243,  242
 185,  318,  319,  334,  333,  228,  229,  244,  243
 186,  319,  320,  335,  334,  229,  230,  245,  244
 187,  320,  321,  336,  335,  230,  231,  246,  245
 188,  321,  322,  337,  336,  231,  232,  247,  246
 189,  322,  323,  338,  337,  232,  233,  248,  247
 190,  323,  324,  339,  338,  233,  234,  249,  248
 191,  324,  325,  340,  339,  234,  235,  250,  249
 192,  325,  326,  341,  340,  235,  236,  251,  250
 193,  326,  327,  342,  341,  236,  237,  252,  251
 194,  327,  328,  343,  342,  237,  238,  253,  252
 195,  328,  329,  344,  343,  238,  239,  254,  253
 196,  329,  330,  345,  344,  239,  240,  255,  254
 197,  331,  332,  347,  346,  241,  242,  257,  256
 198,  332,  333,  348,  347,  242,  243,  258,  257
 199,  333,  334,  349,  348,  243,  244,  259,  258
 200,  334,  335,  350,  349,  244,  245,  260,  259
 201,  335,  336,  351,  350,  245,  246,  261,  260
 202,  336,  337,  352,  351,  246,  247,  262,  261
 203,  337,  338,  353,  352,  247,  248,  263,  262
 204,  338,  339,  354,  353,  248,  249,  264,  263
 205,  339,  340,  355,  354,  249,  250,  265,  264
 206,  340,  341,  356,  355,  250,  251,  266,  265
 207,  341,  342,  357,  356,  251,  252,  267,  266
 208,  342,  343,  358,  357,  252,  253,  268,  267
 209,  343,  344,  359,  358,  253,  254,  269,  268
 210,  344,  345,  360,  359,  254,  255,  270,  269
 211,  361,  362,  377,  376,  271,  272,  287,  286
 212,  362,  363,  378,  377,  272,  273,  288,  287
 213,  363,  364,  379,  378,  273,  274,  289,  288
 214,  364,  365,  380,  379,  274,  275,  290,  289
 215,  365,  366,  381,  380,  275,  276,  291,  290
 216,  366,  367,  382,  381,  276,  277,  292,  291
 217,  367,  368,  383,  382,  277,  278,  293,  292
 218,  368,  369,  384,  383,  278,  279,  294,  293
 219,  369,  370,  385,  384,  279,  280,  295,  294
 220,  370,  371,  386,  385,  280,  281,  296,  295
 221,  371,  372,  387,  386,  281,  282,  297,  296
 222,  372,  373,  388,  387,  282,  283,  298,  297
 223,  373,  374,  389,  388,  283,  284,  299,  298
 224,  374,  375,  390,  389,  284,  285,  300,  299
 225,  376,  377,  392,  391,  286,  287,  302,  301
 226,  377,  378,  393,  392,  287,  288,  303,  302
 227,  378,  379,  394,  393,  288,  289,  304,  303
 228,  379,  380,  395,  394,  289,  290,  305,  304
 229,  380,  381,  396,  395,  290,  291,  306,  305
 230,  381,  382,  397,  396,  291,  292,  307,  306
 231,  382,  383,  398,  397,  292,  293,  308,  307
 232,  383,  384,  399,  398,  293,  294,  309,  308
 233,  384,  385,  400,  399,  294,  295,  310,  309
 234,  385,  386,  401,  400,  295,  296,  311,  310
 235,  386,  387,  402,  401,  296,  297,  312,  311
 236,  387,  388,  403,  402,  297,  298,  313,  312
 237,  388,  389,  404,  403,  298,  299,  314,  313
 238,  389,  390,  405,  404,  299,  300,  315,  314
 239,  391,  392,  407,  406,  301,  302,  317,  316
 240,  392,  393,  408,  407,  302,  303,  318,  317
 241,  393,  394,  409,  408,  303,  304,  319,  318
 242,  394,  395,  410,  409,  304,  305,  320,  319
 243,  395,  396,  411,  410,  305,  306,  321,  320
 244,  396,  397,  412,  411,  306,  307,  322,  321
 245,  397,  398,  413,  412,  307,  308,  323,  322
 246,  398,  399,  414,  413,  308,  309,  324,  323
 247,  399,  400,  415,  414,  309,  310,  325,  324
 248,  400,  401,  416,  415,  310,  311,  326,  325
 249,  401,  402,  417,  416,  311,  312,  327,  326
 250,  402,  403,  418,  417,  312,  313,  328,  327
 251,  403,  404,  419,  418,  313,  314,  329,  328
 252,  404,  405,  420,  419,  314,  315,  330,  329
 253,  406,  407,  422,  421,  316,  317,  332,  331
 254,  407,  408,  423,  422,  317,  318,  333,  332
 255,  408,  409,  424,  423,  318,  319,  334,  333
 256,  409,  410,  425,  424,  319,  320,  335,  334
 257,  410,  411,  426,  425,  320,  321,  336,  335
 258,  411,  412,  427,  426,  321,  322,  337,  336
 259,  412,  413,  428,  427,  322,  323,  338,  337
 260,  413,  414,  429,  428,  323,  324,  339,  338
 261,  414,  415,  430,  429,  324,  325,  340,  339
 262,  415,  416,  431,  430,  325,  326,  341,  340
 263,  416,  417,  432,  431,  326,  327,  342,  341
 264,  417,  418,  433,  432,  327,  328,  343,  342
 265,  418,  419,  434,  433,  328,  329,  344,  343
 266,  419,  420,  435,  434,  329,  330,  345,  344
 267,  421,  422,  437,  436,  331,  332,  347,  346
 268,  422,  423,  438,  437,  332,  333,  348,  347
 269,  423,  424,  439,  438,  333,  334,  349,  348
 270,  424,  425,  440,  439,  334,  335,  350,  349
 271,  425,  426,  441,  440,  335,  336,  351,  350
 272,  426,  427,  442,  441,  336,  337,  352,  351
 273,  427,  428,  443,  442,  337,  338,  353,  352
 274,  428,  429,  444,  443,  338,  339,  354,  353
 275,  429,  430,  445,  444,  339,  340,  355,  354
 276,  430,  431,  446,  445,  340,  341,  356,  355
 277,  431,  432,  447,  446,  341,  342,  357,  356
 278,  432,  433,  448,  447,  342,  343,  358,  357
 279,  433,  434,  449,  448,  343,  344,  359,  358
 280,  434,  435,  450,  449,  344,  345,  360,  359
 281,  451,  452,  467,  466,  361,  362,  377,  376
 282,  452,  453,  468,  467,  362,  363,  378,  377
 283,  453,  454,  469,  468,  363,  364,  379,  378
 284,  454,  455,  470,  469,  364,  365,  380,  379
 285,  455,  456,  471,  470,  365,  366,  381,  380
 286,  456,  457,  472,  471,  366,  367,  382,  381
 287,  457,  458,  473,  472,  367,  368,  383,  382
 288,  458,  459,  474,  473,  368,  369,  384,  383
 289,  459,  460,  475,  474,  369,  370,  385,  384
 290,  460,  461,  476,  475,  370,  371,  386,  385
 291,  461,  462,  477,  476,  371,  372,  387,  386
 292,  462,  463,  478,  477,  372,  373,  388,  387
 293,  463,  464,  479,  478,  373,  374,  389,  388
 294,  464,  465,  480,  479,  374,  375,  390,  389
 295,  466,  467,  482,  481,  376,  377,  392,  391
 296,  467,  468,  483,  482,  377,  378,  393,  392
 297,  468,  469,  484,  483,  378,  379,  394,  393
 298,  469,  470,  485,  484,  379,  380,  395,  394
 299,  470,  471,  486,  485,  380,  381,  396,  395
 300,  471,  472,  487,  486,  381,  382,  397,  396
 301,  472,  473,  488,  487,  382,  383,  398,  397
 302,  473,  474,  489,  488,  383,  384,  399,  398
 303,  474,  475,  490,  489,  384,  385,  400,  399
 304,  475,  476,  491,  490,  385,  386,  401,  400
 305,  476,  477,  492,  491,  386,  387,  402,  401
 306,  477,  478,  493,  492,  387,  388,  403,  402
 307,  478,  479,  494,  493,  388,  389,  404,  403
 308,  479,  480,  495,  494,  389,  390,  405,  404
 309,  481,  482,  497,  496,  391,  392,  407,  406
 310,  482,  483,  498,  497,  392,  393,  408,  407
 311,  483,  484,  499,  498,  393,  394,  409,  408
 312,  484,  485,  500,  499,  394,  395,  410,  409
 313,  485,  486,  501,  500,  395,  396,  411,  410
 314,  486,  487,  502,  501,  396,  397,  412,  411
 315,  487,  488,  503,  502,  397,  398,  413,  412
 316,  488,  489,  504,  503,  398,  399,  414,  413
 317,  489,  490,  505,  504,  399,  400,  415,  414
 318,  490,  491,  506,  505,  400,  401,  416,  415
 319,  491,  492,  507,  506,  401,  402,  417,  416
 320,  492,  493,  508,  507,  402,  403,  418,  417
 321,  493,  494,  509,  508,  403,  404,  419,  418
 322,  494,  495,  510,  509,  404,  405,  420,  419
 323,  496,  497,  512,  511,  406,  407,  422,  421
 324,  497,  498,  513,  512,  407,  408,  423,  422
 325,  498,  499,  514,  513,  408,  409,  424,  423
 326,  499,  500,  515,  514,  409,  410,  425,  424
 327,  500,  501,  516,  515,  410,  411,  426,  425
 328,  501,  502,  517,  516,  411,  412,  427,  426
 329,  502,  503,  518,  517,  412,  413,  428,  427
 330,  503,  504,  519,  518,  413,  414,  429,  428
 331,  504,  505,  520,  519,  414,  415,  430,  429
 332,  505,  506,  521,  520,  415,  416,  431,  430
 333,  506,  507,  522,  521,  416,  417,  432,  431
 334,  507,  508,  523,  522,  417,  418,  433,  432
 335,  508,  509,  524,  523,  418,  419,  434,  433
 336,  509,  510,  525,  524,  419,  420,  435,  434
 337,  511,  512,  527,  526,  421,  422,  437,  436
 338,  512,  513,  528,  527,  422,  423,  438,  437
 339,  513,  514,  529,  528,  423,  424,  439,  438
 340,  514,  515,  530,  529,  424,  425,  440,  439
 341,  515,  516,  531,  530,  425,  426,  441,  440
 342,  516,  517,  532,  531,  426,  427,  442,  441
 343,  517,  518,  533,  532,  427,  428,  443,  442
 344,  518,  519,  534,  533,  428,  429,  444,  443
 345,  519,  520,  535,  534,  429,  430,  445,  444
 346,  520,  521,  536,  535,  430,  431,  446,  445
 347,  521,  522,  537,  536,  431,  432,  447,  446
 348,  522,  523,  538,  537,  432,  433,  448,  447
 349,  523,  524,  539,  538,  433,  434,  449,  448
 350,  524,  525,  540,  539,  434,  435,  450,  449
 351,  541,  542,  557,  556,  451,  452,  467,  466
 352,  542,  543,  558,  557,  452,  453,  468,  467
 353,  543,  544,  559,  558,  453,  454,  469,  468
 354,  544,  545,  560,  559,  454,  455,  470,  469
 355,  545,  546,  561,  560,  455,  456,  471,  470
 356,  546,  547,  562,  561,  456,  457,  472,  471
 357,  547,  548,  563,  562,  457,  458,  473,  472
 358,  548,  549,  564,  563,  458,  459,  474,  473
 359,  549,  550,  565,  564,  459,  460,  475,  474
 360,  550,  551,  566,  565,  460,  461,  476,  475
 361,  551,  552,  567,  566,  461,  462,  477,  476
 362,  552,  553,  568,  567,  462,  463,  478,  477
 363,  553,  554,  569,  568,  463,  464,  479,  478
 364,  554,  555,  570,  569,  464,  465,  480,  479
 365,  556,  557,  572,  571,  466,  467,  482,  481
 366,  557,  558,  573,  572,  467,  468,  483,  482
 367,  558,  559,  574,  573,  468,  469,  484,  483
 368,  559,  560,  575,  574,  469,  470,  485,  484
 369,  560,  561,  576,  575,  470,  471,  486,  485
 370,  561,  562,  577,  576,  471,  472,  487,  486
 371,  562,  563,  578,  577,  472,  473,  488,  487
 372,  563,  564,  579,  578,  473,  474,  489,  488
 373,  564,  565,  580,  579,  474,  475,  490,  489
 374,  565,  566,  581,  580,  475,  476,  491,  490
 375,  566,  567,  582,  581,  476,  477,  492,  491
 376,  567,  568,  583,  582,  477,  478,  493,  492
 377,  568,  569,  584,  583,  478,  479,  494,  493
 378,  569,  570,  585,  584,  479,  480,  495,  494
 379,  571,  572,  587,  586,  481,  482,  497,  496
 380,  572,  573,  588,  587,  482,  483,  498,  497
 381,  573,  574,  589,  588,  483,  484,  499,  498
 382,  574,  575,  590,  589,  484,  485,  500,  499
 383,  575,  576,  591,  590,  485,  486,  501,  500
 384,  576,  577,  592,  591,  486,  487,  502,  501
 385,  577,  578,  593,  592,  487,  488,  503,  502
 386,  578,  579,  594,  593,  488,  489,  504,  503
 387,  579,  580,  595,  594,  489,  490,  505,  504
 388,  580,  581,  596,  595,  490,  491,  506,  505
 389,  581,  582,  597,  596,  491,  492,  507,  506
 390,  582,  583,  598,  597,  492,  493,  508,  507
 391,  583,  584,  599,  598,  493,  494,  509,  508
 392,  584,  585,  600,  599,  494,  495,  510,  509
 393,  586,  587,  602,  601,  496,  497,  512,  511
 394,  587,  588,  603,  602,  497,  498,  513,  512
 395,  588,  589,  604,  603,  498,  499,  514,  513
 396,  589,  590,  605,  604,  499,  500,  515,  514
 397,  590,  591,  606,  605,  500,  501,  516,  515
 398,  591,  592,  607,  606,  501,  502,  517,  516
 399,  592,  593,  608,  607,  502,  503,  518,  517
 400,  593,  594,  609,  608,  503,  504,  519,  518
 401,  594,  595,  610,  609,  504,  505,  520,  519
 402,  595,  596,  611,  610,  505,  506,  521,  520
 403,  596,  597,  612,  611,  506,  507,  522,  521
 404,  597,  598,  613,  612,  507,  508,  523,  522
 405,  598,  599,  614,  613,  508,  509,  524,  523
 406,  599,  600,  615,  614,  509,  510,  525,  524
 407,  601,  602,  617,  616,  511,  512,  527,  526
 408,  602,  603,  618,  617,  512,  513,  528,  527
 409,  603,  604,  619,  618,  513,  514,  529,  528
 410,  604,  605,  620,  619,  514,  515,  530,  529
 411,  605,  606,  621,  620,  515,  516,  531,  530
 412,  606,  607,  622,  621,  516,  517,  532,  531
 413,  607,  608,  623,  622,  517,  518,  533,  532
 414,  608,  609,  624,  623,  518,  519,  534,  533
 415,  609,  610,  625,  624,  519,  520,  535,  534
 416,  610,  611,  626,  625,  520,  521,  536,  535
 417,  611,  612,  627,  626,  521,  522,  537,  536
 418,  612,  613,  628,  627,  522,  523,  538,  537
 419,  613,  614,  629,  628,  523,  524,  539,  538
 420,  614,  615,  630,  629,  524,  525,  540,  539
 421,  631,  632,  647,  646,  541,  542,  557,  556
 422,  632,  633,  648,  647,  542,  543,  558,  557
 423,  633,  634,  649,  648,  543,  544,  559,  558
 424,  634,  635,  650,  649,  544,  545,  560,  559
 425,  635,  636,  651,  650,  545,  546,  561,  560
 426,  636,  637,  652,  651,  546,  547,  562,  561
 427,  637,  638,  653,  652,  547,  548,  563,  562
 428,  638,  639,  654,  653,  548,  549,  564,  563
 429,  639,  640,  655,  654,  549,  550,  565,  564
 430,  640,  641,  656,  655,  550,  551,  566,  565
 431,  641,  642,  657,  656,  551,  552,  567,  566
 432,  642,  643,  658,  657,  552,  553,  568,  567
 433,  643,  644,  659,  658,  553,  554,  569,  568
 434,  644,  645,  660,  659,  554,  555,  570,  569
 435,  646,  647,  662,  661,  556,  557,  572,  571
 436,  647,  648,  663,  662,  557,  558,  573,  572
 437,  648,  649,  664,  663,  558,  559,  574,  573
 438,  649,  650,  665,  664,  559,  560,  575,  574
 439,  650,  651,  666,  665,  560,  561,  576,  575
 440,  651,  652,  667,  666,  561,  562,  577,  576
 441,  652,  653,  668,  667,  562,  563,  578,  577
 442,  653,  654,  669,  668,  563,  564,  579,  578
 443,  654,  655,  670,  669,  564,  565,  580,  579
 444,  655,  656,  671,  670,  565,  566,  581,  580
 445,  656,  657,  672,  671,  566,  567,  582,  581
 446,  657,  658,  673,  672,  567,  568,  583,  582
 447,  658,  659,  674,  673,  568,  569,  584,  583
 448,  659,  660,  675,  674,  569,  570,  585,  584
 449,  661,  662,  677,  676,  571,  572,  587,  586
 450,  662,  663,  678,  677,  572,  573,  588,  587
 451,  663,  664,  679,  678,  573,  574,  589,  588
 452,  664,  665,  680,  679,  574,  575,  590,  589
 453,  665,  666,  681,  680,  575,  576,  591,  590
 454,  666,  667,  682,  681,  576,  577,  592,  591
 455,  667,  668,  683,  682,  577,  578,  593,  592
 456,  668,  669,  684,  683,  578,  579,  594,  593
 457,  669,  670,  685,  684,  579,  580,  595,  594
 458,  670,  671,  686,  685,  580,  581,  596,  595
 459,  671,  672,  687,  686,  581,  582,  597,  596
 460,  672,  673,  688,  687,  582,  583,  598,  597
 461,  673,  674,  689,  688,  583,  584,  599,  598
 462,  674,  675,  690,  689,  584,  585,  600,  599
 463,  676,  677,  692,  691,  586,  587,  602,  601
 464,  677,  678,  693,  692,  587,  588,  603,  602
 465,  678,  679,  694,  693,  588,  589,  604,  603
 466,  679,  680,  695,  694,  589,  590,  605,  604
 467,  680,  681,  696,  695,  590,  591,  606,  605
 468,  681,  682,  697,  696,  591,  592,  607,  606
 469,  682,  683,  698,  697,  592,  593,  608,  607
 470,  683,  684,  699,  698,  593,  594,  609,  608
 471,  684,  685,  700,  699,  594,  595,  610,  609
 472,  685,  686,  701,  700,  595,  596,  611,  610
 473,  686,  687,  702,  701,  596,  597,  612,  611
 474,  687,  688,  703,  702,  597,  598,  613,  612
 475,  688,  689,  704,  703,  598,  599,  614,  613
 476,  689,  690,  705,  704,  599,  600,  615,  614
 477,  691,  692,  707,  706,  601,  602,  617,  616
 478,  692,  693,  708,  707,  602,  603,  618,  617
 479,  693,  694,  709,  708,  603,  604,  619,  618
 480,  694,  695,  710,  709,  604,  605,  620,  619
 481,  695,  696,  711,  710,  605,  606,  621,  620
 482,  696,  697,  712,  711,  606,  607,  622,  621
 483,  697,  698,  713,  712,  607,  608,  623,  622
 484,  698,  699,  714,  713,  608,  609,  624,  623
 485,  699,  700,  715,  714,  609,  610,  625,  624
 486,  700,  701,  716,  715,  610,  611,  626,  625
 487,  701,  702,  717,  716,  611,  612,  627,  626
 488,  702,  703,  718,  717,  612,  613,  628,  627
 489,  703,  704,  719,  718,  613,  614,  629,  628
 490,  704,  705,  720,  719,  614,  615,  630,  629
 491,  721,  722,  737,  736,  631,  632,  647,  646
 492,  722,  723,  738,  737,  632,  633,  648,  647
 493,  723,  724,  739,  738,  633,  634,  649,  648
 494,  724,  725,  740,  739,  634,  635,  650,  649
 495,  725,  726,  741,  740,  635,  636,  651,  650
 496,  726,  727,  742,  741,  636,  637,  652,  651
 497,  727,  728,  743,  742,  637,  638,  653,  652
 498,  728,  729,  744,  743,  638,  639,  654,  653
 499,  729,  730,  745,  744,  639,  640,  655,  654
 500,  730,  731,  746,  745,  640,  641,  656,  655
 501,  731,  732,  747,  746,  641,  642,  657,  656
 502,  732,  733,  748,  747,  642,  643,  658,  657
 503,  733,  734,  749,  748,  643,  644,  659,  658
 504,  734,  735,  750,  749,  644,  645,  660,  659
 505,  736,  737,  752,  751,  646,  647,  662,  661
 506,  737,  738,  753,  752,  647,  648,  663,  662
 507,  738,  739,  754,  753,  648,  649,  664,  663
 508,  739,  740,  755,  754,  649,  650,  665,  664
 509,  740,  741,  756,  755,  650,  651,  666,  665
 510,  741,  742,  757,  756,  651,  652,  667,  666
 511,  742,  743,  758,  757,  652,  653,  668,  667
 512,  743,  744,  759,  758,  653,  654,  669,  668
 513,  744,  745,  760,  759,  654,  655,  670,  669
 514,  745,  746,  761,  760,  655,  656,  671,  670
 515,  746,  747,  762,  761,  656,  657,  672,  671
 516,  747,  748,  763,  762,  657,  658,  673,  672
 517,  748,  749,  764,  763,  658,  659,  674,  673
 518,  749,  750,  765,  764,  659,  660,  675,  674
 519,  751,  752,  767,  766,  661,  662,  677,  676
 520,  752,  753,  768,  767,  662,  663,  678,  677
 521,  753,  754,  769,  768,  663,  664,  679,  678
 522,  754,  755,  770,  769,  664,  665,  680,  679
 523,  755,  756,  771,  770,  665,  666,  681,  680
 524,  756,  757,  772,  771,  666,  667,  682,  681
 525,  757,  758,  773,  772,  667,  668,  683,  682
 526,  758,  759,  774,  773,  668,  669,  684,  683
 527,  759,  760,  775,  774,  669,  670,  685,  684
 528,  760,  761,  776,  775,  670,  671,  686,  685
 529,  761,  762,  777,  776,  671,  672,  687,  686
 530,  762,  763,  778,  777,  672,  673,  688,  687
 531,  763,  764,  779,  778,  673,  674,  689,  688
 532,  764,  765,  780,  779,  674,  675,  690,  689
 533,  766,  767,  782,  781,  676,  677,  692,  691
 534,  767,  768,  783,  782,  677,  678,  693,  692
 535,  768,  769,  784,  783,  678,  679,  694,  693
 536,  769,  770,  785,  784,  679,  680,  695,  694
 537,  770,  771,  786,  785,  680,  681,  696,  695
 538,  771,  772,  787,  786,  681,  682,  697,  696
 539,  772,  773,  788,  787,  682,  683,  698,  697
 540,  773,  774,  789,  788,  683,  684,  699,  698
 541,  774,  775,  790,  789,  684,  685,  700,  699
 542,  775,  776,  791,  790,  685,  686,  701,  700
 543,  776,  777,  792,  791,  686,  687,  702,  701
 544,  777,  778,  793,  792,  687,  688,  703,  702
 545,  778,  779,  794,  793,  688,  689,  704,  703
 546,  779,  780,  795,  794,  689,  690,  705,  704
 547,  781,  782,  797,  796,  691,  692,  707,  706
 548,  782,  783,  798,  797,  692,  693,  708,  707
 549,  783,  784,  799,  798,  693,  694,  709,  708
 550,  784,  785,  800,  799,  694,  695,  710,  709
 551,  785,  786,  801,  800,  695,  696,  711,  710
 552,  786,  787,  802,  801,  696,  697,  712,  711
 553,  787,  788,  803,  802,  697,  698,  713,  712
 554,  788,  789,  804,  803,  698,  699,  714,  713
 555,  789,  790,  805,  804,  699,  700,  715,  714
 556,  790,  791,  806,  805,  700,  701,  716,  715
 557,  791,  792,  807,  806,  701,  702,  717,  716
 558,  792,  793,  808,  807,  702,  703,  718,  717
 559,  793,  794,  809,  808,  703,  704,  719,  718
 560,  794,  795,  810,  809,  704,  705,  720,  719
 561,  811,  812,  827,  826,  721,  722,  737,  736
 562,  812,  813,  828,  827,  722,  723,  738,  737
 563,  813,  814,  829,  828,  723,  724,  739,  738
 564,  814,  815,  830,  829,  724,  725,  740,  739
 565,  815,  816,  831,  830,  725,  726,  741,  740
 566,  816,  817,  832,  831,  726,  727,  742,  741
 567,  817,  818,  833,  832,  727,  728,  743,  742
 568,  818,  819,  834,  833,  728,  729,  744,  743
 569,  819,  820,  835,  834,  729,  730,  745,  744
 570,  820,  821,  836,  835,  730,  731,  746,  745
 571,  821,  822,  837,  836,  731,  732,  747,  746
 572,  822,  823,  838,  837,  732,  733,  748,  747
 573,  823,  824,  839,  838,  733,  734,  749,  748
 574,  824,  825,  840,  839,  734,  735,  750,  749
 575,  826,  827,  842,  841,  736,  737,  752,  751
 576,  827,  828,  843,  842,  737,  738,  753,  752
 577,  828,  829,  844,  843,  738,  739,  754,  753
 578,  829,  830,  845,  844,  739,  740,  755,  754
 579,  830,  831,  846,  845,  740,  741,  756,  755
 580,  831,  832,  847,  846,  741,  742,  757,  756
 581,  832,  833,  848,  847,  742,  743,  758,  757
 582,  833,  834,  849,  848,  743,  744,  759,  758
 583,  834,  835,  850,  849,  744,  745,  760,  759
 584,  835,  836,  851,  850,  745,  746,  761,  760
 585,  836,  837,  852,  851,  746,  747,  762,  761
 586,  837,  838,  853,  852,  747,  748,  763,  762
 587,  838,  839,  854,  853,  748,  749,  764,  763
 588,  839,  840,  855,  854,  749,  750,  765,  764
 589,  841,  842,  857,  856,  751,  752,  767,  766
 590,  842,  843,  858,  857,  752,  753,  768,  767
 591,  843,  844,  859,  858,  753,  754,  769,  768
 592,  844,  845,  860,  859,  754,  755,  770,  769
 593,  845,  846,  861,  860,  755,  756,  771,  770
 594,  846,  847,  862,  861,  756,  757,  772,  771
 595,  847,  848,  863,  862,  757,  758,  773,  772
 596,  848,  849,  864,  863,  758,  759,  774,  773
 597,  849,  850,  865,  864,  759,  760,  775,  774
 598,  850,  851,  866,  865,  760,  761,  776,  775
 599,  851,  852,  867,  866,  761,  762,  777,  776
 600,  852,  853,  868,  867,  762,  763,  778,  777
 601,  853,  854,  869,  868,  763,  764,  779,  778
 602,  854,  855,  870,  869,  764,  765,  780,  779
 603,  856,  857,  872,  871,  766,  767,  782,  781
 604,  857,  858,  873,  872,  767,  768,  783,  782
 605,  858,  859,  874,  873,  768,  769,  784,  783
 606,  859,  860,  875,  874,  769,  770,  785,  784
 607,  860,  861,  876,  875,  770,  771,  786,  785
 608,  861,  862,  877,  876,  771,  772,  787,  786
 609,  862,  863,  878,  877,  772,  773,  788,  787
 610,  863,  864,  879,  878,  773,  774,  789,  788
 611,  864,  865,  880,  879,  774,  775,  790,  789
 612,  865,  866,  881,  880,  775,  776,  791,  790
 613,  866,  867,  882,  881,  776,  777,  792,  791
 614,  867,  868,  883,  882,  777,  778,  793,  792
 615,  868,  869,  884,  883,  778,  779,  794,  793
 616,  869,  870,  885,  884,  779,  780,  795,  794
 617,  871,  872,  887,  886,  781,  782,  797,  796
 618,  872,  873,  888,  887,  782,  783,  798,  797
 619,  873,  874,  889,  888,  783,  784,  799,  798
 620,  874,  875,  890,  889,  784,  785,  800,  799
 621,  875,  876,  891,  890,  785,  786,  801,  800
 622,  876,  877,  892,  891,  786,  787,  802,  801
 623,  877,  878,  893,  892,  787,  788,  803,  802
 624,  878,  879,  894,  893,  788,  789,  804,  803
 625,  879,  880,  895,  894,  789,  790,  805,  804
 626,  880,  881,  896,  895,  790,  791,  806,  805
 627,  881,  882,  897,  896,  791,  792,  807,  806
 628,  882,  883,  898,  897,  792,  793,  808,  807
 629,  883,  884,  899,  898,  793,  794,  809,  808
 630,  884,  885,  900,  899,  794,  795,  810,  809
 631,  901,  902,  917,  916,  811,  812,  827,  826
 632,  902,  903,  918,  917,  812,  813,  828,  827
 633,  903,  904,  919,  918,  813,  814,  829,  828
 634,  904,  905,  920,  919,  814,  815,  830,  829
 635,  905,  906,  921,  920,  815,  816,  831,  830
 636,  906,  907,  922,  921,  816,  817,  832,  831
 637,  907,  908,  923,  922,  817,  818,  833,  832
 638,  908,  909,  924,  923,  818,  819,  834,  833
 639,  909,  910,  925,  924,  819,  820,  835,  834
 640,  910,  911,  926,  925,  820,  821,  836,  835
 641,  911,  912,  927,  926,  821,  822,  837,  836
 642,  912,  913,  928,  927,  822,  823,  838,  837
 643,  913,  914,  929,  928,  823,  824,  839,  838
 644,  914,  915,  930,  929,  824,  825,  840,  839
 645,  916,  917,  932,  931,  826,  827,  842,  841
 646,  917,  918,  933,  932,  827,  828,  843,  842
 647,  918,  919,  934,  933,  828,  829,  844,  843
 648,  919,  920,  935,  934,  829,  830,  845,  844
 649,  920,  921,  936,  935,  830,  831,  846,  845
 650,  921,  922,  937,  936,  831,  832,  847,  846
 651,  922,  923,  938,  937,  832,  833,  848,  847
 652,  923,  924,  939,  938,  833,  834,  849,  848
 653,  924,  925,  940,  939,  834,  835,  850,  849
 654,  925,  926,  941,  940,  835,  836,  851,  850
 655,  926,  927,  942,  941,  836,  837,  852,  851
 656,  927,  928,  943,  942,  837,  838,  853,  852
 657,  928,  929,  944,  943,  838,  839,  854,  853
 658,  929,  930,  945,  944,  839,  840,  855,  854
 659,  931,  932,  947,  946,  841,  842,  857,  856
 660,  932,  933,  948,  947,  842,  843,  858,  857
 661,  933,  934,  949,  948,  843,  844,  859,  858
 662,  934,  935,  950,  949,  844,  845,  860,  859
 663,  935,  936,  951,  950,  845,  846,  861,  860
 664,  936,  937,  952,  951,  846,  847,  862,  861
 665,  937,  938,  953,  952,  847,  848,  863,  862
 666,  938,  939,  954,  953,  848,  849,  864,  863
 667,  939,  940,  955,  954,  849,  850,  865,  864
 668,  940,  941,  956,  955,  850,  851,  866,  865
 669,  941,  942,  957,  956,  851,  852,  867,  866
 670,  942,  943,  958,  957,  852,  853,  868,  867
 671,  943,  944,  959,  958,  853,  854,  869,  868
 672,  944,  945,  960,  959,  854,  855,  870,  869
 673,  946,  947,  962,  961,  856,  857,  872,  871
 674,  947,  948,  963,  962,  857,  858,  873,  872
 675,  948,  949,  964,  963,  858,  859,  874,  873
 676,  949,  950,  965,  964,  859,  860,  875,  874
 677,  950,  951,  966,  965,  860,  861,  876,  875
 678,  951,  952,  967,  966,  861,  862,  877,  876
 679,  952,  953,  968,  967,  862,  863,  878,  877
 680,  953,  954,  969,  968,  863,  864,  879,  878
 681,  954,  955,  970,  969,  864,  865,  880,  879
 682,  955,  956,  971,  970,  865,  866,  881,  880
 683,  956,  957,  972,  971,  866,  867,  882,  881
 684,  957,  958,  973,  972,  867,  868,  883,  882
 685,  958,  959,  974,  973,  868,  869,  884,  883
 686,  959,  960,  975,  974,  869,  870,  885,  884
 687,  961,  962,  977,  976,  871,  872,  887,  886
 688,  962,  963,  978,  977,  872,  873,  888,  887
 689,  963,  964,  979,  978,  873,  874,  889,  888
 690,  964,  965,  980,  979,  874,  875,  890,  889
 691,  965,  966,  981,  980,  875,  876,  891,  890
 692,  966,  967,  982,  981,  876,  877,  892,  891
 693,  967,  968,  983,  982,  877,  878,  893,  892
 694,  968,  969,  984,  983,  878,  879,  894,  893
 695,  969,  970,  985,  984,  879,  880,  895,  894
 696,  970,  971,  986,  985,  880,  881,  896,  895
 697,  971,  972,  987,  986,  881,  882,  897,  896
 698,  972,  973,  988,  987,  882,  883,  898,  897
 699,  973,  974,  989,  988,  883,  884,  899,  898
 700,  974,  975,  990,  989,  884,  885,  900,  899
 701,  991,  992, 1007, 1006,  901,  902,  917,  916
 702,  992,  993, 1008, 1007,  902,  903,  918,  917
 703,  993,  994, 1009, 1008,  903,  904,  919,  918
 704,  994,  995, 1010, 1009,  904,  905,  920,  919
 705,  995,  996, 1011, 1010,  905,  906,  921,  920
 706,  996,  997, 1012, 1011,  906,  907,  922,  921
 707,  997,  998, 1013, 1012,  907,  908,  923,  922
 708,  998,  999, 1014, 1013,  908,  909,  924,  923
 709,  999, 1000, 1015, 1014,  909,  910,  925,  924
 710, 1000, 1001, 1016, 1015,  910,  911,  926,  925
 711, 1001, 1002, 1017, 1016,  911,  912,  927,  926
 712, 1002, 1003, 1018, 1017,  912,  913,  928,  927
 713, 1003, 1004, 1019, 1018,  913,  914,  929,  928
 714, 1004, 1005, 1020, 1019,  914,  915,  930,  929
 715, 1006, 1007, 1022, 1021,  916,  917,  932,  931
 716, 1007, 1008, 1023, 1022,  917,  918,  933,  932
 717, 1008, 1009, 1024, 1023,  918,  919,  934,  933
 718, 1009, 1010, 1025, 1024,  919,  920,  935,  934
 719, 1010, 1011, 1026, 1025,  920,  921,  936,  935
 720, 1011, 1012, 1027, 1026,  921,  922,  937,  936
 721, 1012, 1013, 1028, 1027,  922,  923,  938,  937
 722, 1013, 1014, 1029, 1028,  923,  924,  939,  938
 723, 1014, 1015, 1030, 1029,  924,  925,  940,  939
 724, 1015, 1016, 1031, 1030,  925,  926,  941,  940
 725, 1016, 1017, 1032, 1031,  926,  927,  942,  941
 726, 1017, 1018, 1033, 1032,  927,  928,  943,  942
 727, 1018, 1019, 1034, 1033,  928,  929,  944,  943
 728, 1019, 1020, 1035, 1034,  929,  930,  945,  944
 729, 1021, 1022, 1037, 1036,  931,  932,  947,  946
 730, 1022, 1023, 1038, 1037,  932,  933,  948,  947
 731, 1023, 1024, 1039, 1038,  933,  934,  949,  948
 732, 1024, 1025, 1040, 1039,  934,  935,  950,  949
 733, 1025, 1026, 1041, 1040,  935,  936,  951,  950
 734, 1026, 1027, 1042, 1041,  936,  937,  952,  951
 735, 1027, 1028, 1043, 1042,  937,  938,  953,  952
 736, 1028, 1029, 1044, 1043,  938,  939,  954,  953
 737, 1029, 1030, 1045, 1044,  939,  940,  955,  954
 738, 1030, 1031, 1046, 1045,  940,  941,  956,  955
 739, 1031, 1032, 1047, 1046,  941,  942,  957,  956
 740, 1032, 1033, 1048, 1047,  942,  943,  958,  957
 741, 1033, 1034, 1049, 1048,  943,  944,  959,  958
 742, 1034, 1035, 1050, 1049,  944,  945,  960,  959
 743, 1036, 1037, 1052, 1051,  946,  947,  962,  961
 744, 1037, 1038, 1053, 1052,  947,  948,  963,  962
 745, 1038, 1039, 1054, 1053,  948,  949,  964,  963
 746, 1039, 1040, 1055, 1054,  949,  950,  965,  964
 747, 1040, 1041, 1056, 1055,  950,  951,  966,  965
 748, 1041, 1042, 1057, 1056,  951,  952,  967,  966
 749, 1042, 1043, 1058, 1057,  952,  953,  968,  967
 750, 1043, 1044, 1059, 1058,  953,  954,  969,  968
 751, 1044, 1045, 1060, 1059,  954,  955,  970,  969
 752, 1045, 1046, 1061, 1060,  955,  956,  971,  970
 753, 1046, 1047, 1062, 1061,  956,  957,  972,  971
 754, 1047, 1048, 1063, 1062,  957,  958,  973,  972
 755, 1048, 1049, 1064, 1063,  958,  959,  974,  973
 756, 1049, 1050, 1065, 1064,  959,  960,  975,  974
 757, 1051, 1052, 1067, 1066,  961,  962,  977,  976
 758, 1052, 1053, 1068, 1067,  962,  963,  978,  977
 759, 1053, 1054, 1069, 1068,  963,  964,  979,  978
 760, 1054, 1055, 1070, 1069,  964,  965,  980,  979
 761, 1055, 1056, 1071, 1070,  965,  966,  981,  980
 762, 1056, 1057, 1072, 1071,  966,  967,  982,  981
 763, 1057, 1058, 1073, 1072,  967,  968,  983,  982
 764, 1058, 1059, 1074, 1073,  968,  969,  984,  983
 765, 1059, 1060, 1075, 1074,  969,  970,  985,  984
 766, 1060, 1061, 1076, 1075,  970,  971,  986,  985
 767, 1061, 1062, 1077, 1076,  971,  972,  987,  986
 768, 1062, 1063, 1078, 1077,  972,  973,  988,  987
 769, 1063, 1064, 1079, 1078,  973,  974,  989,  988
 770, 1064, 1065, 1080, 1079,  974,  975,  990,  989
 771, 1081, 1082, 1097, 1096,  991,  992, 1007, 1006
 772, 1082, 1083, 1098, 1097,  992,  993, 1008, 1007
 773, 1083, 1084, 1099, 1098,  993,  994, 1009, 1008
 774, 1084, 1085, 1100, 1099,  994,  995, 1010, 1009
 775, 1085, 1086, 1101, 1100,  995,  996, 1011, 1010
 776, 1086, 1087, 1102, 1101,  996,  997, 1012, 1011
 777, 1087, 1088, 1103, 1102,  997,  998, 1013, 1012
 778, 1088, 1089, 1104, 1103,  998,  999, 1014, 1013
 779, 1089, 1090, 1105, 1104,  999, 1000, 1015, 1014
 780, 1090, 1091, 1106, 1105, 1000, 1001, 1016, 1015
 781, 1091, 1092, 1107, 1106, 1001, 1002, 1017, 1016
 782, 1092, 1093, 1108, 1107, 1002, 1003, 1018, 1017
 783, 1093, 1094, 1109, 1108, 1003, 1004, 1019, 1018
 784, 1094, 1095, 1110, 1109, 1004, 1005, 1020, 1019
 785, 1096, 1097, 1112, 1111, 1006, 1007, 1022, 1021
 786, 1097, 1098, 1113, 1112, 1007, 1008, 1023, 1022
 787, 1098, 1099, 1114, 1113, 1008, 1009, 1024, 1023
 788, 1099, 1100, 1115, 1114, 1009, 1010, 1025, 1024
 789, 1100, 1101, 1116, 1115, 1010, 1011, 1026, 1025
 790, 1101, 1102, 1117, 1116, 1011, 1012, 1027, 1026
 791, 1102, 1103, 1118, 1117, 1012, 1013, 1028, 1027
 792, 1103, 1104, 1119, 1118, 1013, 1014, 1029, 1028
 793, 1104, 1105, 1120, 1119, 1014, 1015, 1030, 1029
 794, 1105, 1106, 1121, 1120, 1015, 1016, 1031, 1030
 795, 1106, 1107, 1122, 1121, 1016, 1017, 1032, 1031
 796, 1107, 1108, 1123, 1122, 1017, 1018, 1033, 1032
 797, 1108, 1109, 1124, 1123, 1018, 1019, 1034, 1033
 798, 1109, 1110, 1125, 1124, 1019, 1020, 1035, 1034
 799, 1111, 1112, 1127, 1126, 1021, 1022, 1037, 1036
 800, 1112, 1113, 1128, 1127, 1022, 1023, 1038, 1037
 801, 1113, 1114, 1129, 1128, 1023, 1024, 1039, 1038
 802, 1114, 1115, 1130, 1129, 1024, 1025, 1040, 1039
 803, 1115, 1116, 1131, 1130, 1025, 1026, 1041, 1040
 804, 1116, 1117, 1132, 1131, 1026, 1027, 1042, 1041
 805, 1117, 1118, 1133, 1132, 1027, 1028, 1043, 1042
 806, 1118, 1119, 1134, 1133, 1028, 1029, 1044, 1043
 807, 1119, 1120, 1135, 1134, 1029, 1030, 1045, 1044
 808, 1120, 1121, 1136, 1135, 1030, 1031, 1046, 1045
 809, 1121, 1122, 1137, 1136, 1031, 1032, 1047, 1046
 810, 1122, 1123, 1138, 1137, 1032, 1033, 1048, 1047
 811, 1123, 1124, 1139, 1138, 1033, 1034, 1049, 1048
 812, 1124, 1125, 1140, 1139, 1034, 1035, 1050, 1049
 813, 1126, 1127, 1142, 1141, 1036, 1037, 1052, 1051
 814, 1127, 1128, 1143, 1142, 1037, 1038, 1053, 1052
 815, 1128, 1129, 1144, 1143, 1038, 1039, 1054, 1053
 816, 1129, 1130, 1145, 1144, 1039, 1040, 1055, 1054
 817, 1130, 1131, 1146, 1145, 1040, 1041, 1056, 1055
 818, 1131, 1132, 1147, 1146, 1041, 1042, 1057, 1056
 819, 1132, 1133, 1148, 1147, 1042, 1043, 1058, 1057
 820, 1133, 1134, 1149, 1148, 1043, 1044, 1059, 1058
 821, 1134, 1135, 1150, 1149, 1044, 1045, 1060, 1059
 822, 1135, 1136, 1151, 1150, 1045, 1046, 1061, 1060
 823, 1136, 1137, 1152, 1151, 1046, 1047, 1062, 1061
 824, 1137, 1138, 1153, 1152, 1047, 1048, 1063, 1062
 825, 1138, 1139, 1154, 1153, 1048, 1049, 1064, 1063
 826, 1139, 1140, 1155, 1154, 1049, 1050, 1065, 1064
 827, 1141, 1142, 1157, 1156, 1051, 1052, 1067, 1066
 828, 1142, 1143, 1158, 1157, 1052, 1053, 1068, 1067
 829, 1143, 1144, 1159, 1158, 1053, 1054, 1069, 1068
 830, 1144, 1145, 1160, 1159, 1054, 1055, 1070, 1069
 831, 1145, 1146, 1161, 1160, 1055, 1056, 1071, 1070
 832, 1146, 1147, 1162, 1161, 1056, 1057, 1072, 1071
 833, 1147, 1148, 1163, 1162, 1057, 1058, 1073, 1072
 834, 1148, 1149, 1164, 1163, 1058, 1059, 1074, 1073
 835, 1149, 1150, 1165, 1164, 1059, 1060, 1075, 1074
 836, 1150, 1151, 1166, 1165, 1060, 1061, 1076, 1075
 837, 1151, 1152, 1167, 1166, 1061, 1062, 1077, 1076
 838, 1152, 1153, 1168, 1167, 1062, 1063, 1078, 1077
 839, 1153, 1154, 1169, 1168, 1063, 1064, 1079, 1078
 840, 1154, 1155, 1170, 1169, 1064, 1065, 1080, 1079
 841, 1171, 1172, 1187, 1186, 1081, 1082, 1097, 1096
 842, 1172, 1173, 1188, 1187, 1082, 1083, 1098, 1097
 843, 1173, 1174, 1189, 1188, 1083, 1084, 1099, 1098
 844, 1174, 1175, 1190, 1189, 1084, 1085, 1100, 1099
 845, 1175, 1176, 1191, 1190, 1085, 1086, 1101, 1100
 846, 1176, 1177, 1192, 1191, 1086, 1087, 1102, 1101
 847, 1177, 1178, 1193, 1192, 1087, 1088, 1103, 1102
 848, 1178, 1179, 1194, 1193, 1088, 1089, 1104, 1103
 849, 1179, 1180, 1195, 1194, 1089, 1090, 1105, 1104
 850, 1180, 1181, 1196, 1195, 1090, 1091, 1106, 1105
 851, 1181, 1182, 1197, 1196, 1091, 1092, 1107, 1106
 852, 1182, 1183, 1198, 1197, 1092, 1093, 1108, 1107
 853, 1183, 1184, 1199, 1198, 1093, 1094, 1109, 1108
 854, 1184, 1185, 1200, 1199, 1094, 1095, 1110, 1109
 855, 1186, 1187, 1202, 1201, 1096, 1097, 1112, 1111
 856, 1187, 1188, 1203, 1202, 1097, 1098, 1113, 1112
 857, 1188, 1189, 1204, 1203, 1098, 1099, 1114, 1113
 858, 1189, 1190, 1205, 1204, 1099, 1100, 1115, 1114
 859, 1190, 1191, 1206, 1205, 1100, 1101, 1116, 1115
 860, 1191, 1192, 1207, 1206, 1101, 1102, 1117, 1116
 861, 1192, 1193, 1208, 1207, 1102, 1103, 1118, 1117
 862, 1193, 1194, 1209, 1208, 1103, 1104, 1119, 1118
 863, 1194, 1195, 1210, 1209, 1104, 1105, 1120, 1119
 864, 1195, 1196, 1211, 1210, 1105, 1106, 1121, 1120
 865, 1196, 1197, 1212, 1211, 1106, 1107, 1122, 1121
 866, 1197, 1198, 1213, 1212, 1107, 1108, 1123, 1122
 867, 1198, 1199, 1214, 1213, 1108, 1109, 1124, 1123
 868, 1199, 1200, 1215, 1214, 1109, 1110, 1125, 1124
 869, 1201, 1202, 1217, 1216, 1111, 1112, 1127, 1126
 870, 1202, 1203, 1218, 1217, 1112, 1113, 1128, 1127
 871, 1203, 1204, 1219, 1218, 1113, 1114, 1129, 1128
 872, 1204, 1205, 1220, 1219, 1114, 1115, 1130, 1129
 873, 1205, 1206, 1221, 1220, 1115, 1116, 1131, 1130
 874, 1206, 1207, 1222, 1221, 1116, 1117, 1132, 1131
 875, 1207, 1208, 1223, 1222, 1117, 1118, 1133, 1132
 876, 1208, 1209, 1224, 1223, 1118, 1119, 1134, 1133
 877, 1209, 1210, 1225, 1224, 1119, 1120, 1135, 1134
 878, 1210, 1211, 1226, 1225, 1120, 1121, 1136, 1135
 879, 1211, 1212, 1227, 1226, 1121, 1122, 1137, 1136
 880, 1212, 1213, 1228, 1227, 1122, 1123, 1138, 1137
 881, 1213, 1214, 1229, 1228, 1123, 1124, 1139, 1138
 882, 1214, 1215, 1230, 1229, 1124, 1125, 1140, 1139
 883, 1216, 1217, 1232, 1231, 1126, 1127, 1142, 1141
 884, 1217, 1218, 1233, 1232, 1127, 1128, 1143, 1142
 885, 1218, 1219, 1234, 1233, 1128, 1129, 1144, 1143
 886, 1219, 1220, 1235, 1234, 1129, 1130, 1145, 1144
 887, 1220, 1221, 1236, 1235, 1130, 1131, 1146, 1145
 888, 1221, 1222, 1237, 1236, 1131, 1132, 1147, 1146
 889, 1222, 1223, 1238, 1237, 1132, 1133, 1148, 1147
 890, 1223, 1224, 1239, 1238, 1133, 1134, 1149, 1148
 891, 1224, 1225, 1240, 1239, 1134, 1135, 1150, 1149
 892, 1225, 1226, 1241, 1240, 1135, 1136, 1151, 1150
 893, 1226, 1227, 1242, 1241, 1136, 1137, 1152, 1151
 894, 1227, 1228, 1243, 1242, 1137, 1138, 1153, 1152
 895, 1228, 1229, 1244, 1243, 1138, 1139, 1154, 1153
 896, 1229, 1230, 1245, 1244, 1139, 1140, 1155, 1154
 897, 1231, 1232, 1247, 1246, 1141, 1142, 1157, 1156
 898, 1232, 1233, 1248, 1247, 1142, 1143, 1158, 1157
 899, 1233, 1234, 1249, 1248, 1143, 1144, 1159, 1158
 900, 1234, 1235, 1250, 1249, 1144, 1145, 1160, 1159
 901, 1235, 1236, 1251, 1250, 1145, 1146, 1161, 1160
 902, 1236, 1237, 1252, 1251, 1146, 1147, 1162, 1161
 903, 1237, 1238, 1253, 1252, 1147, 1148, 1163, 1162
 904, 1238, 1239, 1254, 1253, 1148, 1149, 1164, 1163
 905, 1239, 1240, 1255, 1254, 1149, 1150, 1165, 1164
 906, 1240, 1241, 1256, 1255, 1150, 1151, 1166, 1165
 907, 1241, 1242, 1257, 1256, 1151, 1152, 1167, 1166
 908, 1242, 1243, 1258, 1257, 1152, 1153, 1168, 1167
 909, 1243, 1244, 1259, 1258, 1153, 1154, 1169, 1168
 910, 1244, 1245, 1260, 1259, 1154, 1155, 1170, 1169
 911, 1261, 1262, 1277, 1276, 1171, 1172, 1187, 1186
 912, 1262, 1263, 1278, 1277, 1172, 1173, 1188, 1187
 913, 1263, 1264, 1279, 1278, 1173, 1174, 1189, 1188
 914, 1264, 1265, 1280, 1279, 1174, 1175, 1190, 1189
 915, 1265, 1266, 1281, 1280, 1175, 1176, 1191, 1190
 916, 1266, 1267, 1282, 1281, 1176, 1177, 1192, 1191
 917, 1267, 1268, 1283, 1282, 1177, 1178, 1193, 1192
 918, 1268, 1269, 1284, 1283, 1178, 1179, 1194, 1193
 919, 1269, 1270, 1285, 1284, 1179, 1180, 1195, 1194
 920, 1270, 1271, 1286, 1285, 1180, 1181, 1196, 1195
 921, 1271, 1272, 1287, 1286, 1181, 1182, 1197, 1196
 922, 1272, 1273, 1288, 1287, 1182, 1183, 1198, 1197
 923, 1273, 1274, 1289, 1288, 1183, 1184, 1199, 1198
 924, 1274, 1275, 1290, 1289, 1184, 1185, 1200, 1199
 925, 1276, 1277, 1292, 1291, 1186, 1187, 1202, 1201
 926, 1277, 1278, 1293, 1292, 1187, 1188, 1203, 1202
 927, 1278, 1279, 1294, 1293, 1188, 1189, 1204, 1203
 928, 1279, 1280, 1295, 1294, 1189, 1190, 1205, 1204
 929, 1280, 1281, 1296, 1295, 1190, 1191, 1206, 1205
 930, 1281, 1282, 1297, 1296, 1191, 1192, 1207, 1206
 931, 1282, 1283, 1298, 1297, 1192, 1193, 1208, 1207
 932, 1283, 1284, 1299, 1298, 1193, 1194, 1209, 1208
 933, 1284, 1285, 1300, 1299, 1194, 1195, 1210, 1209
 934, 1285, 1286, 1301, 1300, 1195, 1196, 1211, 1210
 935, 1286, 1287, 1302, 1301, 1196, 1197, 1212, 1211
 936, 1287, 1288, 1303, 1302, 1197, 1198, 1213, 1212
 937, 1288, 1289, 1304, 1303, 1198, 1199, 1214, 1213
 938, 1289, 1290, 1305, 1304, 1199, 1200, 1215, 1214
 939, 1291, 1292, 1307, 1306, 1201, 1202, 1217, 1216
 940, 1292, 1293, 1308, 1307, 1202, 1203, 1218, 1217
 941, 1293, 1294, 1309, 1308, 1203, 1204, 1219, 1218
 942, 1294, 1295, 1310, 1309, 1204, 1205, 1220, 1219
 943, 1295, 1296, 1311, 1310, 1205, 1206, 1221, 1220
 944, 1296, 1297, 1312, 1311, 1206, 1207, 1222, 1221
 945, 1297, 1298, 1313, 1312, 1207, 1208, 1223, 1222
 946, 1298, 1299, 1314, 1313, 1208, 1209, 1224, 1223
 947, 1299, 1300, 1315, 1314, 1209, 1210, 1225, 1224
 948, 1300, 1301, 1316, 1315, 1210, 1211, 1226, 1225
 949, 1301, 1302, 1317, 1316, 1211, 1212, 1227, 1226
 950, 1302, 1303, 1318, 1317, 1212, 1213, 1228, 1227
 951, 1303, 1304, 1319, 1318, 1213, 1214, 1229, 1228
 952, 1304, 1305, 1320, 1319, 1214, 1215, 1230, 1229
 953, 1306, 1307, 1322, 1321, 1216, 1217, 1232, 1231
 954, 1307, 1308, 1323, 1322, 1217, 1218, 1233, 1232
 955, 1308, 1309, 1324, 1323, 1218, 1219, 1234, 1233
 956, 1309, 1310, 1325, 1324, 1219, 1220, 1235, 1234
 957, 1310, 1311, 1326, 1325, 1220, 1221, 1236, 1235
 958, 1311, 1312, 1327, 1326, 1221, 1222, 1237, 1236
 959, 1312, 1313, 1328, 1327, 1222, 1223, 1238, 1237
 960, 1313, 1314, 1329, 1328, 1223, 1224, 1239, 1238
 961, 1314, 1315, 1330, 1329, 1224, 1225, 1240, 1239
 962, 1315, 1316, 1331, 1330, 1225, 1226, 1241, 1240
 963, 1316, 1317, 1332, 1331, 1226, 1227, 1242, 1241
 964, 1317, 1318, 1333, 1332, 1227, 1228, 1243, 1242
 965, 1318, 1319, 1334, 1333, 1228, 1229, 1244, 1243
 966, 1319, 1320, 1335, 1334, 1229, 1230, 1245, 1244
 967, 1321, 1322, 1337, 1336, 1231, 1232, 1247, 1246
 968, 1322, 1323, 1338, 1337, 1232, 1233, 1248, 1247
 969, 1323, 1324, 1339, 1338, 1233, 1234, 1249, 1248
 970, 1324, 1325, 1340, 1339, 1234, 1235, 1250, 1249
 971, 1325, 1326, 1341, 1340, 1235, 1236, 1251, 1250
 972, 1326, 1327, 1342, 1341, 1236, 1237, 1252, 1251
 973, 1327, 1328, 1343, 1342, 1237, 1238, 1253, 1252
 974, 1328, 1329, 1344, 1343, 1238, 1239, 1254, 1253
 975, 1329, 1330, 1345, 1344, 1239, 1240, 1255, 1254
 976, 1330, 1331, 1346, 1345, 1240, 1241, 1256, 1255
 977, 1331, 1332, 1347, 1346, 1241, 1242, 1257, 1256
 978, 1332, 1333, 1348, 1347, 1242, 1243, 1258, 1257
 979, 1333, 1334, 1349, 1348, 1243, 1244, 1259, 1258
 980, 1334, 1335, 1350, 1349, 1244, 1245, 1260, 1259
 981, 1351, 1352, 1367, 1366, 1261, 1262, 1277, 1276
 982, 1352, 1353, 1368, 1367, 1262, 1263, 1278, 1277
 983, 1353, 1354, 1369, 1368, 1263, 1264, 1279, 1278
 984, 1354, 1355, 1370, 1369, 1264, 1265, 1280, 1279
 985, 1355, 1356, 1371, 1370, 1265, 1266, 1281, 1280
 986, 1356, 1357, 1372, 1371, 1266, 1267, 1282, 1281
 987, 1357, 1358, 1373, 1372, 1267, 1268, 1283, 1282
 988, 1358, 1359, 1374, 1373, 1268, 1269, 1284, 1283
 989, 1359, 1360, 1375, 1374, 1269, 1270, 1285, 1284
 990, 1360, 1361, 1376, 1375, 1270, 1271, 1286, 1285
 991, 1361, 1362, 1377, 1376, 1271, 1272, 1287, 1286
 992, 1362, 1363, 1378, 1377, 1272, 1273, 1288, 1287
 993, 1363, 1364, 1379, 1378, 1273, 1274, 1289, 1288
 994, 1364, 1365, 1380, 1379, 1274, 1275, 1290, 1289
 995, 1366, 1367, 1382, 1381, 1276, 1277, 1292, 1291
 996, 1367, 1368, 1383, 1382, 1277, 1278, 1293, 1292
 997, 1368, 1369, 1384, 1383, 1278, 1279, 1294, 1293
 998, 1369, 1370, 1385, 1384, 1279, 1280, 1295, 1294
 999, 1370, 1371, 1386, 1385, 1280, 1281, 1296, 1295
1000, 1371, 1372, 1387, 1386, 1281, 1282, 1297, 1296
1001, 1372, 1373, 1388, 1387, 1282, 1283, 1298, 1297
1002, 1373, 1374, 1389, 1388, 1283, 1284, 1299, 1298
1003, 1374, 1375, 1390, 1389, 1284, 1285, 1300, 1299
1004, 1375, 1376, 1391, 1390, 1285, 1286, 1301, 1300
1005, 1376, 1377, 1392, 1391, 1286, 1287, 1302, 1301
1006, 1377, 1378, 1393, 1392, 1287, 1288, 1303, 1302
1007, 1378, 1379, 1394, 1393, 1288, 1289, 1304, 1303
1008, 1379, 1380, 1395, 1394, 1289, 1290, 1305, 1304
1009, 1381, 1382, 1397, 1396, 1291, 1292, 1307, 1306
1010, 1382, 1383, 1398, 1397, 1292, 1293, 1308, 1307
1011, 1383, 1384, 1399, 1398, 1293, 1294, 1309, 1308
1012, 1384, 1385, 1400, 1399, 1294, 1295, 1310, 1309
1013, 1385, 1386, 1401, 1400, 1295, 1296, 1311, 1310
1014, 1386, 1387, 1402, 1401, 1296, 1297, 1312, 1311
1015, 1387, 1388, 1403, 1402, 1297, 1298, 1313, 1312
1016, 1388, 1389, 1404, 1403, 1298, 1299, 1314, 1313
1017, 1389, 1390, 1405, 1404, 1299, 1300, 1315, 1314
1018, 1390, 1391, 1406, 1405, 1300, 1301, 1316, 1315
1019, 1391, 1392, 1407, 1406, 1301, 1302, 1317, 1316
1020, 1392, 1393, 1408, 1407, 1302, 1303, 1318, 1317
1021, 1393, 1394, 1409, 1408, 1303, 1304, 1319, 1318
1022, 1394, 1395, 1410, 1409, 1304, 1305, 1320, 1319
1023, 1396, 1397, 1412, 1411, 1306, 1307, 1322, 1321
1024, 1397, 1398, 1413, 1412, 1307, 1308, 1323, 1322
1025, 1398, 1399, 1414, 1413, 1308, 1309, 1324, 1323
1026, 1399, 1400, 1415, 1414, 1309, 1310, 1325, 1324
1027, 1400, 1401, 1416, 1415, 1310, 1311, 1326, 1325
1028, 1401, 1402, 1417, 1416, 1311, 1312, 1327, 1326
1029, 1402, 1403, 1418, 1417, 1312, 1313, 1328, 1327
1030, 1403, 1404, 1419, 1418, 1313, 1314, 1329, 1328
1031, 1404, 1405, 1420, 1419, 1314, 1315, 1330, 1329
1032, 1405, 1406, 1421, 1420, 1315, 1316, 1331, 1330
1033, 1406, 1407, 1422, 1421, 1316, 1317, 1332, 1331
1034, 1407, 1408, 1423, 1422, 1317, 1318, 1333, 1332
1035, 1408, 1409, 1424, 1423, 1318, 1319, 1334, 1333
1036, 1409, 1410, 1425, 1424, 1319, 1320, 1335, 1334
1037, 1411, 1412, 1427, 1426, 1321, 1322, 1337, 1336
1038, 1412, 1413, 1428, 1427, 1322, 1323, 1338, 1337
1039, 1413, 1414, 1429, 1428, 1323, 1324, 1339, 1338
1040, 1414, 1415, 1430, 1429, 1324, 1325, 1340, 1339
1041, 1415, 1416, 1431, 1430, 1325, 1326, 1341, 1340
1042, 1416, 1417, 1432, 1431, 1326, 1327, 1342, 1341
1043, 1417, 1418, 1433, 1432, 1327, 1328, 1343, 1342
1044, 1418, 1419, 1434, 1433, 1328, 1329, 1344, 1343
1045, 1419, 1420, 1435, 1434, 1329, 1330, 1345, 1344
1046, 1420, 1421, 1436, 1435, 1330, 1331, 1346, 1345
1047, 1421, 1422, 1437, 1436, 1331, 1332, 1347, 1346
1048, 1422, 1423, 1438, 1437, 1332, 1333, 1348, 1347
1049, 1423, 1424, 1439, 1438, 1333, 1334, 1349, 1348
1050, 1424, 1425, 1440, 1439, 1334, 1335, 1350, 1349
*End Part
**  
**
** ASSEMBLY
**
*Assembly, name=Assembly
**  
*Instance, name=Part-1-1, part=Part-1
*End Instance
**  
*End Assembly
