*Heading
** Job name: beam_octet Model name: Model-1
** Generated by: Abaqus/CAE 2020
*Preprint, echo=NO, model=NO, history=NO, contact=NO
**
** PARTS
**
*Part, name=beam_octet
*Node
      1,  0.707106769,           0.,           0.
      2,  0.707106769,  0.707106769,  0.707106769
      3,           0.,  0.707106769,           0.
      4, -0.707106769,  0.707106769, -0.707106769
      5, -0.707106769,           0.,           0.
      6,           0.,           0., -0.707106769
      7,  0.707106769,  0.707106769, -0.707106769
      8,  0.707106769, -0.707106769,  0.707106769
      9,           0.,           0.,  0.707106769
     10, -0.707106769, -0.707106769,  0.707106769
     11,           0., -0.707106769,           0.
     12,  0.707106769, -0.707106769, -0.707106769
     13, -0.707106769,  0.707106769,  0.707106769
     14, -0.707106769, -0.707106769, -0.707106769
     15,  0.707106769, 0.0707106814, 0.0707106814
     16,  0.707106769,  0.141421363,  0.141421363
     17,  0.707106769,  0.212132037,  0.212132037
     18,  0.707106769,  0.282842726,  0.282842726
     19,  0.707106769,  0.353553385,  0.353553385
     20,  0.707106769,  0.424264073,  0.424264073
     21,  0.707106769,  0.494974732,  0.494974732
     22,  0.707106769,  0.565685451,  0.565685451
     23,  0.707106769,   0.63639611,   0.63639611
     24, 0.0707106814,  0.707106769, 0.0707106814
     25,  0.141421363,  0.707106769,  0.141421363
     26,  0.212132037,  0.707106769,  0.212132037
     27,  0.282842726,  0.707106769,  0.282842726
     28,  0.353553385,  0.707106769,  0.353553385
     29,  0.424264073,  0.707106769,  0.424264073
     30,  0.494974732,  0.707106769,  0.494974732
     31,  0.565685451,  0.707106769,  0.565685451
     32,   0.63639611,  0.707106769,   0.63639611
     33, -0.0707106814,  0.707106769, -0.0707106814
     34, -0.141421363,  0.707106769, -0.141421363
     35, -0.212132037,  0.707106769, -0.212132037
     36, -0.282842726,  0.707106769, -0.282842726
     37, -0.353553385,  0.707106769, -0.353553385
     38, -0.424264073,  0.707106769, -0.424264073
     39, -0.494974732,  0.707106769, -0.494974732
     40, -0.565685451,  0.707106769, -0.565685451
     41,  -0.63639611,  0.707106769,  -0.63639611
     42, -0.707106769, 0.0707106814, -0.0707106814
     43, -0.707106769,  0.141421363, -0.141421363
     44, -0.707106769,  0.212132037, -0.212132037
     45, -0.707106769,  0.282842726, -0.282842726
     46, -0.707106769,  0.353553385, -0.353553385
     47, -0.707106769,  0.424264073, -0.424264073
     48, -0.707106769,  0.494974732, -0.494974732
     49, -0.707106769,  0.565685451, -0.565685451
     50, -0.707106769,   0.63639611,  -0.63639611
     51, -0.0707106814,           0.,  -0.63639611
     52, -0.141421363,           0., -0.565685451
     53, -0.212132037,           0., -0.494974732
     54, -0.282842726,           0., -0.424264073
     55, -0.353553385,           0., -0.353553385
     56, -0.424264073,           0., -0.282842726
     57, -0.494974732,           0., -0.212132037
     58, -0.565685451,           0., -0.141421363
     59,  -0.63639611,           0., -0.0707106814
     60,           0., 0.0707106814,  -0.63639611
     61,           0.,  0.141421363, -0.565685451
     62,           0.,  0.212132037, -0.494974732
     63,           0.,  0.282842726, -0.424264073
     64,           0.,  0.353553385, -0.353553385
     65,           0.,  0.424264073, -0.282842726
     66,           0.,  0.494974732, -0.212132037
     67,           0.,  0.565685451, -0.141421363
     68,           0.,   0.63639611, -0.0707106814
     69,  0.707106769, 0.0707106814, -0.0707106814
     70,  0.707106769,  0.141421363, -0.141421363
     71,  0.707106769,  0.212132037, -0.212132037
     72,  0.707106769,  0.282842726, -0.282842726
     73,  0.707106769,  0.353553385, -0.353553385
     74,  0.707106769,  0.424264073, -0.424264073
     75,  0.707106769,  0.494974732, -0.494974732
     76,  0.707106769,  0.565685451, -0.565685451
     77,  0.707106769,   0.63639611,  -0.63639611
     78,  0.707106769, -0.0707106814, 0.0707106814
     79,  0.707106769, -0.141421363,  0.141421363
     80,  0.707106769, -0.212132037,  0.212132037
     81,  0.707106769, -0.282842726,  0.282842726
     82,  0.707106769, -0.353553385,  0.353553385
     83,  0.707106769, -0.424264073,  0.424264073
     84,  0.707106769, -0.494974732,  0.494974732
     85,  0.707106769, -0.565685451,  0.565685451
     86,  0.707106769,  -0.63639611,   0.63639611
     87, 0.0707106814, -0.0707106814,  0.707106769
     88,  0.141421363, -0.141421363,  0.707106769
     89,  0.212132037, -0.212132037,  0.707106769
     90,  0.282842726, -0.282842726,  0.707106769
     91,  0.353553385, -0.353553385,  0.707106769
     92,  0.424264073, -0.424264073,  0.707106769
     93,  0.494974732, -0.494974732,  0.707106769
     94,  0.565685451, -0.565685451,  0.707106769
     95,   0.63639611,  -0.63639611,  0.707106769
     96, -0.0707106814, -0.0707106814,  0.707106769
     97, -0.141421363, -0.141421363,  0.707106769
     98, -0.212132037, -0.212132037,  0.707106769
     99, -0.282842726, -0.282842726,  0.707106769
    100, -0.353553385, -0.353553385,  0.707106769
    101, -0.424264073, -0.424264073,  0.707106769
    102, -0.494974732, -0.494974732,  0.707106769
    103, -0.565685451, -0.565685451,  0.707106769
    104,  -0.63639611,  -0.63639611,  0.707106769
    105, -0.0707106814, -0.707106769, 0.0707106814
    106, -0.141421363, -0.707106769,  0.141421363
    107, -0.212132037, -0.707106769,  0.212132037
    108, -0.282842726, -0.707106769,  0.282842726
    109, -0.353553385, -0.707106769,  0.353553385
    110, -0.424264073, -0.707106769,  0.424264073
    111, -0.494974732, -0.707106769,  0.494974732
    112, -0.565685451, -0.707106769,  0.565685451
    113,  -0.63639611, -0.707106769,   0.63639611
    114, 0.0707106814,  -0.63639611,           0.
    115,  0.141421363, -0.565685451,           0.
    116,  0.212132037, -0.494974732,           0.
    117,  0.282842726, -0.424264073,           0.
    118,  0.353553385, -0.353553385,           0.
    119,  0.424264073, -0.282842726,           0.
    120,  0.494974732, -0.212132037,           0.
    121,  0.565685451, -0.141421363,           0.
    122,   0.63639611, -0.0707106814,           0.
    123, 0.0707106814,   0.63639611,           0.
    124,  0.141421363,  0.565685451,           0.
    125,  0.212132037,  0.494974732,           0.
    126,  0.282842726,  0.424264073,           0.
    127,  0.353553385,  0.353553385,           0.
    128,  0.424264073,  0.282842726,           0.
    129,  0.494974732,  0.212132037,           0.
    130,  0.565685451,  0.141421363,           0.
    131,   0.63639611, 0.0707106814,           0.
    132, 0.0707106814,  0.707106769, -0.0707106814
    133,  0.141421363,  0.707106769, -0.141421363
    134,  0.212132037,  0.707106769, -0.212132037
    135,  0.282842726,  0.707106769, -0.282842726
    136,  0.353553385,  0.707106769, -0.353553385
    137,  0.424264073,  0.707106769, -0.424264073
    138,  0.494974732,  0.707106769, -0.494974732
    139,  0.565685451,  0.707106769, -0.565685451
    140,   0.63639611,  0.707106769,  -0.63639611
    141, 0.0707106814, 0.0707106814, -0.707106769
    142,  0.141421363,  0.141421363, -0.707106769
    143,  0.212132037,  0.212132037, -0.707106769
    144,  0.282842726,  0.282842726, -0.707106769
    145,  0.353553385,  0.353553385, -0.707106769
    146,  0.424264073,  0.424264073, -0.707106769
    147,  0.494974732,  0.494974732, -0.707106769
    148,  0.565685451,  0.565685451, -0.707106769
    149,   0.63639611,   0.63639611, -0.707106769
    150, 0.0707106814, -0.0707106814, -0.707106769
    151,  0.141421363, -0.141421363, -0.707106769
    152,  0.212132037, -0.212132037, -0.707106769
    153,  0.282842726, -0.282842726, -0.707106769
    154,  0.353553385, -0.353553385, -0.707106769
    155,  0.424264073, -0.424264073, -0.707106769
    156,  0.494974732, -0.494974732, -0.707106769
    157,  0.565685451, -0.565685451, -0.707106769
    158,   0.63639611,  -0.63639611, -0.707106769
    159,  0.707106769, -0.0707106814, -0.0707106814
    160,  0.707106769, -0.141421363, -0.141421363
    161,  0.707106769, -0.212132037, -0.212132037
    162,  0.707106769, -0.282842726, -0.282842726
    163,  0.707106769, -0.353553385, -0.353553385
    164,  0.707106769, -0.424264073, -0.424264073
    165,  0.707106769, -0.494974732, -0.494974732
    166,  0.707106769, -0.565685451, -0.565685451
    167,  0.707106769,  -0.63639611,  -0.63639611
    168, 0.0707106814,           0.,  -0.63639611
    169,  0.141421363,           0., -0.565685451
    170,  0.212132037,           0., -0.494974732
    171,  0.282842726,           0., -0.424264073
    172,  0.353553385,           0., -0.353553385
    173,  0.424264073,           0., -0.282842726
    174,  0.494974732,           0., -0.212132037
    175,  0.565685451,           0., -0.141421363
    176,   0.63639611,           0., -0.0707106814
    177, -0.0707106814, 0.0707106814, -0.707106769
    178, -0.141421363,  0.141421363, -0.707106769
    179, -0.212132037,  0.212132037, -0.707106769
    180, -0.282842726,  0.282842726, -0.707106769
    181, -0.353553385,  0.353553385, -0.707106769
    182, -0.424264073,  0.424264073, -0.707106769
    183, -0.494974732,  0.494974732, -0.707106769
    184, -0.565685451,  0.565685451, -0.707106769
    185,  -0.63639611,   0.63639611, -0.707106769
    186, 0.0707106814, 0.0707106814,  0.707106769
    187,  0.141421363,  0.141421363,  0.707106769
    188,  0.212132037,  0.212132037,  0.707106769
    189,  0.282842726,  0.282842726,  0.707106769
    190,  0.353553385,  0.353553385,  0.707106769
    191,  0.424264073,  0.424264073,  0.707106769
    192,  0.494974732,  0.494974732,  0.707106769
    193,  0.565685451,  0.565685451,  0.707106769
    194,   0.63639611,   0.63639611,  0.707106769
    195, -0.0707106814,  0.707106769, 0.0707106814
    196, -0.141421363,  0.707106769,  0.141421363
    197, -0.212132037,  0.707106769,  0.212132037
    198, -0.282842726,  0.707106769,  0.282842726
    199, -0.353553385,  0.707106769,  0.353553385
    200, -0.424264073,  0.707106769,  0.424264073
    201, -0.494974732,  0.707106769,  0.494974732
    202, -0.565685451,  0.707106769,  0.565685451
    203,  -0.63639611,  0.707106769,   0.63639611
    204,           0., 0.0707106814,   0.63639611
    205,           0.,  0.141421363,  0.565685451
    206,           0.,  0.212132037,  0.494974732
    207,           0.,  0.282842726,  0.424264073
    208,           0.,  0.353553385,  0.353553385
    209,           0.,  0.424264073,  0.282842726
    210,           0.,  0.494974732,  0.212132037
    211,           0.,  0.565685451,  0.141421363
    212,           0.,   0.63639611, 0.0707106814
    213, 0.0707106814,           0.,   0.63639611
    214,  0.141421363,           0.,  0.565685451
    215,  0.212132037,           0.,  0.494974732
    216,  0.282842726,           0.,  0.424264073
    217,  0.353553385,           0.,  0.353553385
    218,  0.424264073,           0.,  0.282842726
    219,  0.494974732,           0.,  0.212132037
    220,  0.565685451,           0.,  0.141421363
    221,   0.63639611,           0., 0.0707106814
    222, -0.0707106814,  -0.63639611,           0.
    223, -0.141421363, -0.565685451,           0.
    224, -0.212132037, -0.494974732,           0.
    225, -0.282842726, -0.424264073,           0.
    226, -0.353553385, -0.353553385,           0.
    227, -0.424264073, -0.282842726,           0.
    228, -0.494974732, -0.212132037,           0.
    229, -0.565685451, -0.141421363,           0.
    230,  -0.63639611, -0.0707106814,           0.
    231, 0.0707106814, -0.707106769, 0.0707106814
    232,  0.141421363, -0.707106769,  0.141421363
    233,  0.212132037, -0.707106769,  0.212132037
    234,  0.282842726, -0.707106769,  0.282842726
    235,  0.353553385, -0.707106769,  0.353553385
    236,  0.424264073, -0.707106769,  0.424264073
    237,  0.494974732, -0.707106769,  0.494974732
    238,  0.565685451, -0.707106769,  0.565685451
    239,   0.63639611, -0.707106769,   0.63639611
    240, 0.0707106814, -0.707106769, -0.0707106814
    241,  0.141421363, -0.707106769, -0.141421363
    242,  0.212132037, -0.707106769, -0.212132037
    243,  0.282842726, -0.707106769, -0.282842726
    244,  0.353553385, -0.707106769, -0.353553385
    245,  0.424264073, -0.707106769, -0.424264073
    246,  0.494974732, -0.707106769, -0.494974732
    247,  0.565685451, -0.707106769, -0.565685451
    248,   0.63639611, -0.707106769,  -0.63639611
    249,           0., -0.0707106814,   0.63639611
    250,           0., -0.141421363,  0.565685451
    251,           0., -0.212132037,  0.494974732
    252,           0., -0.282842726,  0.424264073
    253,           0., -0.353553385,  0.353553385
    254,           0., -0.424264073,  0.282842726
    255,           0., -0.494974732,  0.212132037
    256,           0., -0.565685451,  0.141421363
    257,           0.,  -0.63639611, 0.0707106814
    258, -0.0707106814,           0.,   0.63639611
    259, -0.141421363,           0.,  0.565685451
    260, -0.212132037,           0.,  0.494974732
    261, -0.282842726,           0.,  0.424264073
    262, -0.353553385,           0.,  0.353553385
    263, -0.424264073,           0.,  0.282842726
    264, -0.494974732,           0.,  0.212132037
    265, -0.565685451,           0.,  0.141421363
    266,  -0.63639611,           0., 0.0707106814
    267, -0.707106769, -0.0707106814, -0.0707106814
    268, -0.707106769, -0.141421363, -0.141421363
    269, -0.707106769, -0.212132037, -0.212132037
    270, -0.707106769, -0.282842726, -0.282842726
    271, -0.707106769, -0.353553385, -0.353553385
    272, -0.707106769, -0.424264073, -0.424264073
    273, -0.707106769, -0.494974732, -0.494974732
    274, -0.707106769, -0.565685451, -0.565685451
    275, -0.707106769,  -0.63639611,  -0.63639611
    276, -0.0707106814, -0.0707106814, -0.707106769
    277, -0.141421363, -0.141421363, -0.707106769
    278, -0.212132037, -0.212132037, -0.707106769
    279, -0.282842726, -0.282842726, -0.707106769
    280, -0.353553385, -0.353553385, -0.707106769
    281, -0.424264073, -0.424264073, -0.707106769
    282, -0.494974732, -0.494974732, -0.707106769
    283, -0.565685451, -0.565685451, -0.707106769
    284,  -0.63639611,  -0.63639611, -0.707106769
    285,           0., -0.0707106814,  -0.63639611
    286,           0., -0.141421363, -0.565685451
    287,           0., -0.212132037, -0.494974732
    288,           0., -0.282842726, -0.424264073
    289,           0., -0.353553385, -0.353553385
    290,           0., -0.424264073, -0.282842726
    291,           0., -0.494974732, -0.212132037
    292,           0., -0.565685451, -0.141421363
    293,           0.,  -0.63639611, -0.0707106814
    294, -0.707106769, -0.0707106814, 0.0707106814
    295, -0.707106769, -0.141421363,  0.141421363
    296, -0.707106769, -0.212132037,  0.212132037
    297, -0.707106769, -0.282842726,  0.282842726
    298, -0.707106769, -0.353553385,  0.353553385
    299, -0.707106769, -0.424264073,  0.424264073
    300, -0.707106769, -0.494974732,  0.494974732
    301, -0.707106769, -0.565685451,  0.565685451
    302, -0.707106769,  -0.63639611,   0.63639611
    303, -0.0707106814,   0.63639611,           0.
    304, -0.141421363,  0.565685451,           0.
    305, -0.212132037,  0.494974732,           0.
    306, -0.282842726,  0.424264073,           0.
    307, -0.353553385,  0.353553385,           0.
    308, -0.424264073,  0.282842726,           0.
    309, -0.494974732,  0.212132037,           0.
    310, -0.565685451,  0.141421363,           0.
    311,  -0.63639611, 0.0707106814,           0.
    312, -0.0707106814, 0.0707106814,  0.707106769
    313, -0.141421363,  0.141421363,  0.707106769
    314, -0.212132037,  0.212132037,  0.707106769
    315, -0.282842726,  0.282842726,  0.707106769
    316, -0.353553385,  0.353553385,  0.707106769
    317, -0.424264073,  0.424264073,  0.707106769
    318, -0.494974732,  0.494974732,  0.707106769
    319, -0.565685451,  0.565685451,  0.707106769
    320,  -0.63639611,   0.63639611,  0.707106769
    321, -0.0707106814, -0.707106769, -0.0707106814
    322, -0.141421363, -0.707106769, -0.141421363
    323, -0.212132037, -0.707106769, -0.212132037
    324, -0.282842726, -0.707106769, -0.282842726
    325, -0.353553385, -0.707106769, -0.353553385
    326, -0.424264073, -0.707106769, -0.424264073
    327, -0.494974732, -0.707106769, -0.494974732
    328, -0.565685451, -0.707106769, -0.565685451
    329,  -0.63639611, -0.707106769,  -0.63639611
    330, -0.707106769, 0.0707106814, 0.0707106814
    331, -0.707106769,  0.141421363,  0.141421363
    332, -0.707106769,  0.212132037,  0.212132037
    333, -0.707106769,  0.282842726,  0.282842726
    334, -0.707106769,  0.353553385,  0.353553385
    335, -0.707106769,  0.424264073,  0.424264073
    336, -0.707106769,  0.494974732,  0.494974732
    337, -0.707106769,  0.565685451,  0.565685451
    338, -0.707106769,   0.63639611,   0.63639611
*Element, type=B31
 1,  1, 15
 2, 15, 16
 3, 16, 17
 4, 17, 18
 5, 18, 19
 6, 19, 20
 7, 20, 21
 8, 21, 22
 9, 22, 23
10, 23,  2
11,  3, 24
12, 24, 25
13, 25, 26
14, 26, 27
15, 27, 28
16, 28, 29
17, 29, 30
18, 30, 31
19, 31, 32
20, 32,  2
21,  3, 33
22, 33, 34
23, 34, 35
24, 35, 36
25, 36, 37
26, 37, 38
27, 38, 39
28, 39, 40
29, 40, 41
30, 41,  4
31,  5, 42
32, 42, 43
33, 43, 44
34, 44, 45
35, 45, 46
36, 46, 47
37, 47, 48
38, 48, 49
39, 49, 50
40, 50,  4
41,  6, 51
42, 51, 52
43, 52, 53
44, 53, 54
45, 54, 55
46, 55, 56
47, 56, 57
48, 57, 58
49, 58, 59
50, 59,  5
51,  6, 60
52, 60, 61
53, 61, 62
54, 62, 63
55, 63, 64
56, 64, 65
57, 65, 66
58, 66, 67
59, 67, 68
60, 68,  3
61,  1, 69
62, 69, 70
63, 70, 71
64, 71, 72
65, 72, 73
66, 73, 74
67, 74, 75
68, 75, 76
69, 76, 77
70, 77,  7
71,  1, 78
72, 78, 79
73, 79, 80
74, 80, 81
75, 81, 82
76, 82, 83
77, 83, 84
78, 84, 85
79, 85, 86
80, 86,  8
81,  9, 87
82, 87, 88
83, 88, 89
84, 89, 90
85, 90, 91
86, 91, 92
87, 92, 93
88, 93, 94
89, 94, 95
90, 95,  8
 91,   9,  96
 92,  96,  97
 93,  97,  98
 94,  98,  99
 95,  99, 100
 96, 100, 101
 97, 101, 102
 98, 102, 103
 99, 103, 104
100, 104,  10
101,  11, 105
102, 105, 106
103, 106, 107
104, 107, 108
105, 108, 109
106, 109, 110
107, 110, 111
108, 111, 112
109, 112, 113
110, 113,  10
111,  11, 114
112, 114, 115
113, 115, 116
114, 116, 117
115, 117, 118
116, 118, 119
117, 119, 120
118, 120, 121
119, 121, 122
120, 122,   1
121,   3, 123
122, 123, 124
123, 124, 125
124, 125, 126
125, 126, 127
126, 127, 128
127, 128, 129
128, 129, 130
129, 130, 131
130, 131,   1
131,   3, 132
132, 132, 133
133, 133, 134
134, 134, 135
135, 135, 136
136, 136, 137
137, 137, 138
138, 138, 139
139, 139, 140
140, 140,   7
141,   6, 141
142, 141, 142
143, 142, 143
144, 143, 144
145, 144, 145
146, 145, 146
147, 146, 147
148, 147, 148
149, 148, 149
150, 149,   7
151,   6, 150
152, 150, 151
153, 151, 152
154, 152, 153
155, 153, 154
156, 154, 155
157, 155, 156
158, 156, 157
159, 157, 158
160, 158,  12
161,   1, 159
162, 159, 160
163, 160, 161
164, 161, 162
165, 162, 163
166, 163, 164
167, 164, 165
168, 165, 166
169, 166, 167
170, 167,  12
171,   6, 168
172, 168, 169
173, 169, 170
174, 170, 171
175, 171, 172
176, 172, 173
177, 173, 174
178, 174, 175
179, 175, 176
180, 176,   1
181,   6, 177
182, 177, 178
183, 178, 179
184, 179, 180
185, 180, 181
186, 181, 182
187, 182, 183
188, 183, 184
189, 184, 185
190, 185,   4
191,   9, 186
192, 186, 187
193, 187, 188
194, 188, 189
195, 189, 190
196, 190, 191
197, 191, 192
198, 192, 193
199, 193, 194
200, 194,   2
201,   3, 195
202, 195, 196
203, 196, 197
204, 197, 198
205, 198, 199
206, 199, 200
207, 200, 201
208, 201, 202
209, 202, 203
210, 203,  13
211,   9, 204
212, 204, 205
213, 205, 206
214, 206, 207
215, 207, 208
216, 208, 209
217, 209, 210
218, 210, 211
219, 211, 212
220, 212,   3
221,   9, 213
222, 213, 214
223, 214, 215
224, 215, 216
225, 216, 217
226, 217, 218
227, 218, 219
228, 219, 220
229, 220, 221
230, 221,   1
231,  11, 222
232, 222, 223
233, 223, 224
234, 224, 225
235, 225, 226
236, 226, 227
237, 227, 228
238, 228, 229
239, 229, 230
240, 230,   5
241,  11, 231
242, 231, 232
243, 232, 233
244, 233, 234
245, 234, 235
246, 235, 236
247, 236, 237
248, 237, 238
249, 238, 239
250, 239,   8
251,  11, 240
252, 240, 241
253, 241, 242
254, 242, 243
255, 243, 244
256, 244, 245
257, 245, 246
258, 246, 247
259, 247, 248
260, 248,  12
261,   9, 249
262, 249, 250
263, 250, 251
264, 251, 252
265, 252, 253
266, 253, 254
267, 254, 255
268, 255, 256
269, 256, 257
270, 257,  11
271,   9, 258
272, 258, 259
273, 259, 260
274, 260, 261
275, 261, 262
276, 262, 263
277, 263, 264
278, 264, 265
279, 265, 266
280, 266,   5
281,   5, 267
282, 267, 268
283, 268, 269
284, 269, 270
285, 270, 271
286, 271, 272
287, 272, 273
288, 273, 274
289, 274, 275
290, 275,  14
291,   6, 276
292, 276, 277
293, 277, 278
294, 278, 279
295, 279, 280
296, 280, 281
297, 281, 282
298, 282, 283
299, 283, 284
300, 284,  14
301,   6, 285
302, 285, 286
303, 286, 287
304, 287, 288
305, 288, 289
306, 289, 290
307, 290, 291
308, 291, 292
309, 292, 293
310, 293,  11
311,   5, 294
312, 294, 295
313, 295, 296
314, 296, 297
315, 297, 298
316, 298, 299
317, 299, 300
318, 300, 301
319, 301, 302
320, 302,  10
321,   3, 303
322, 303, 304
323, 304, 305
324, 305, 306
325, 306, 307
326, 307, 308
327, 308, 309
328, 309, 310
329, 310, 311
330, 311,   5
331,   9, 312
332, 312, 313
333, 313, 314
334, 314, 315
335, 315, 316
336, 316, 317
337, 317, 318
338, 318, 319
339, 319, 320
340, 320,  13
341,  11, 321
342, 321, 322
343, 322, 323
344, 323, 324
345, 324, 325
346, 325, 326
347, 326, 327
348, 327, 328
349, 328, 329
350, 329,  14
351,   5, 330
352, 330, 331
353, 331, 332
354, 332, 333
355, 333, 334
356, 334, 335
357, 335, 336
358, 336, 337
359, 337, 338
360, 338,  13
*End Part
**  
**
** ASSEMBLY
**
*Assembly, name=Assembly
**  
*Instance, name=beam_octet-1, part=beam_octet
*End Instance
**  
*End Assembly
