*Heading
** Job name: Lattice_Hybrid_model Model name: Model-1
** Generated by: Abaqus/CAE 2020
*Preprint, echo=NO, model=NO, history=NO, contact=NO
**
** PARTS
**
*Part, name=lattice_hybrid
*Node
      1,          -1.,          -1.,          -1.
      2,          -1.,          -1., -0.800000012
      3,          -1., -0.857142866, -0.857142866
      4,          -1., -0.714285731, -0.714285731
      5, -0.857142866,          -1., -0.857142866
      6, -0.714285731,          -1., -0.714285731
      7,       -0.875,       -0.875,       -0.875
      8,        -0.75,        -0.75,        -0.75
      9,          -1.,          -1., -0.600000024
     10,          -1.,          -1., -0.400000006
     11,          -1.,          -1., -0.200000003
     12,          -1.,          -1.,           0.
     13,          -1.,          -1.,  0.200000003
     14,          -1.,          -1.,  0.400000006
     15,          -1.,          -1.,  0.600000024
     16,          -1.,          -1.,           1.
     17,       -0.875,       -0.875,        0.875
     18,        -0.75,        -0.75,         0.75
     19,          -1.,          -1.,  0.800000012
     20,          -1., -0.714285731,  0.714285731
     21,          -1., -0.857142866,  0.857142866
     22, -0.714285731,          -1.,  0.714285731
     23, -0.857142866,          -1.,  0.857142866
     24,          -1., -0.571428597, -0.571428597
     25,          -1., -0.428571433, -0.428571433
     26,          -1., -0.428571433,  0.428571433
     27,          -1., -0.571428597,  0.571428597
     28,          -1., -0.285714298, -0.285714298
     29,          -1., -0.142857149, -0.142857149
     30,        -0.75,        -0.25,        -0.25
     31,       -0.875,       -0.125,       -0.125
     32,        -0.75,        -0.25,         0.25
     33,       -0.875,       -0.125,        0.125
     34,          -1., -0.142857149,  0.142857149
     35,          -1., -0.285714298,  0.285714298
     36, -0.714285731,           0., -0.285714298
     37, -0.857142866,           0., -0.142857149
     38, -0.690564752,           0., -0.0635271519
     39,          -1.,  0.285714298, -0.285714298
     40,          -1.,  0.142857149, -0.142857149
     41,        -0.75,         0.25,        -0.25
     42,       -0.875,        0.125,       -0.125
     43,          -1.,           0.,           0.
     44, -0.857142866,           0.,  0.142857149
     45, -0.714285731,           0.,  0.285714298
     46,        -0.75,         0.25,         0.25
     47,       -0.875,        0.125,        0.125
     48,          -1.,  0.142857149,  0.142857149
     49,          -1.,  0.285714298,  0.285714298
     50,          -1.,  0.571428597, -0.571428597
     51,          -1.,  0.428571433, -0.428571433
     52,          -1.,  0.428571433,  0.428571433
     53,          -1.,  0.571428597,  0.571428597
     54,          -1.,           1.,          -1.
     55,          -1.,           1., -0.800000012
     56,          -1.,  0.857142866, -0.857142866
     57,          -1.,  0.714285731, -0.714285731
     58,       -0.875,        0.875,       -0.875
     59,        -0.75,         0.75,        -0.75
     60, -0.857142866,           1., -0.857142866
     61, -0.714285731,           1., -0.714285731
     62,          -1.,           1., -0.600000024
     63,          -1.,           1., -0.400000006
     64,          -1.,           1., -0.200000003
     65,          -1.,           1.,           0.
     66,          -1.,           1.,  0.200000003
     67,          -1.,           1.,  0.400000006
     68,          -1.,           1.,  0.600000024
     69,          -1.,           1.,           1.
     70,          -1.,  0.714285731,  0.714285731
     71,          -1.,  0.857142866,  0.857142866
     72, -0.714285731,           1.,  0.714285731
     73, -0.857142866,           1.,  0.857142866
     74,       -0.875,        0.875,        0.875
     75,        -0.75,         0.75,         0.75
     76,          -1.,           1.,  0.800000012
     77, -0.571428597,          -1., -0.571428597
     78, -0.428571433,          -1., -0.428571433
     79, -0.428571433,          -1.,  0.428571433
     80, -0.571428597,          -1.,  0.571428597
     81,         -0.5,         -0.5,         -0.5
     82,       -0.625,       -0.625,       -0.625
     83,       -0.375,       -0.375,       -0.625
     84,       -0.625,       -0.375,       -0.375
     85,       -0.375,       -0.625,       -0.375
     86,         -0.5,         -0.5,          0.5
     87,       -0.625,       -0.375,        0.375
     88,       -0.625,       -0.625,        0.625
     89,       -0.375,       -0.625,        0.375
     90,       -0.375,       -0.375,        0.625
     91, -0.428571433,           0., -0.571428597
     92, -0.571428597,           0., -0.428571433
     93, -0.378669977,           0., -0.374030501
     94, -0.348056495,           0., -0.173820689
     95, -0.534168839,           0., -0.213408321
     96, -0.650773764,           0.,  0.110969506
     97, -0.336360008,           0.,  0.182543367
     98,  -0.51039654,           0.,  0.234681591
     99, -0.475573778,           0., 0.00279777055
    100, -0.571428597,           0.,  0.428571433
    101, -0.428571433,           0.,  0.571428597
    102, -0.357421547,           0.,  0.396025926
    103,         -0.5,          0.5,         -0.5
    104,       -0.625,        0.375,       -0.375
    105,       -0.625,        0.625,       -0.625
    106,       -0.375,        0.375,       -0.625
    107,       -0.375,        0.625,       -0.375
    108,         -0.5,          0.5,          0.5
    109,       -0.625,        0.375,        0.375
    110,       -0.375,        0.625,        0.375
    111,       -0.625,        0.625,        0.625
    112,       -0.375,        0.375,        0.625
    113, -0.571428597,           1., -0.571428597
    114, -0.428571433,           1., -0.428571433
    115, -0.428571433,           1.,  0.428571433
    116, -0.571428597,           1.,  0.571428597
    117, -0.285714298,          -1., -0.285714298
    118, -0.142857149,          -1., -0.142857149
    119,        -0.25,        -0.75,        -0.25
    120,       -0.125,       -0.875,       -0.125
    121,        -0.25,        -0.75,         0.25
    122,       -0.125,       -0.875,        0.125
    123, -0.142857149,          -1.,  0.142857149
    124, -0.285714298,          -1.,  0.285714298
    125,        -0.25,        -0.25,        -0.75
    126,       -0.125,       -0.125,       -0.875
    127,        -0.25,        -0.25,         0.75
    128,       -0.125,       -0.125,        0.875
    129, -0.142857149,           0., -0.857142866
    130, -0.285714298,           0., -0.714285731
    131,        -0.25,         0.25,        -0.75
    132,       -0.125,        0.125,       -0.875
    133, -0.206757173,           0., -0.511930823
    134, -0.185040966,           0., -0.313442737
    135, -0.158144042,           0.,  -0.13313289
    136, -0.258160651,           0., 0.00185086753
    137, -0.154939219,           0.,  0.140135124
    138, -0.177585751,           0.,  0.336525083
    139, -0.180330113,           0.,  0.571418047
    140, -0.285714298,           0.,  0.714285731
    141, -0.142857149,           0.,  0.857142866
    142,        -0.25,         0.25,         0.75
    143,       -0.125,        0.125,        0.875
    144,        -0.25,         0.75,        -0.25
    145,       -0.125,        0.875,       -0.125
    146, -0.285714298,           1., -0.285714298
    147, -0.142857149,           1., -0.142857149
    148, -0.142857149,           1.,  0.142857149
    149, -0.285714298,           1.,  0.285714298
    150,        -0.25,         0.75,         0.25
    151,       -0.125,        0.875,        0.125
    152,           0., -0.714285731, -0.285714298
    153,           0., -0.857142866, -0.142857149
    154,           0., -0.690564752, -0.0635271519
    155,         0.25,        -0.75,        -0.25
    156,        0.125,       -0.875,       -0.125
    157,  0.285714298,          -1., -0.285714298
    158,  0.142857149,          -1., -0.142857149
    159,           0.,          -1.,           0.
    160,           0., -0.857142866,  0.142857149
    161,           0., -0.714285731,  0.285714298
    162,         0.25,        -0.75,         0.25
    163,        0.125,       -0.875,        0.125
    164,  0.142857149,          -1.,  0.142857149
    165,  0.285714298,          -1.,  0.285714298
    166,           0., -0.428571433, -0.571428597
    167,           0., -0.571428597, -0.428571433
    168,           0., -0.378669977, -0.374030501
    169,           0., -0.348056495, -0.173820689
    170,           0., -0.534168839, -0.213408321
    171,           0., -0.650773764,  0.110969506
    172,           0., -0.336360008,  0.182543367
    173,           0.,  -0.51039654,  0.234681591
    174,           0., -0.475573778, 0.00279777055
    175,           0., -0.571428597,  0.428571433
    176,           0., -0.428571433,  0.571428597
    177,           0., -0.357421547,  0.396025926
    178,           0., -0.142857149, -0.857142866
    179,           0., -0.285714298, -0.714285731
    180,         0.25,        -0.25,        -0.75
    181,        0.125,       -0.125,       -0.875
    182,           0., -0.206757173, -0.511930823
    183,           0., -0.185040966, -0.313442737
    184,           0., -0.158144042,  -0.13313289
    185,           0., -0.258160651, 0.00185086753
    186,           0., -0.154939219,  0.140135124
    187,           0., -0.177585751,  0.336525083
    188,           0., -0.180330113,  0.571418047
    189,           0., -0.285714298,  0.714285731
    190,           0., -0.142857149,  0.857142866
    191,         0.25,        -0.25,         0.75
    192,        0.125,       -0.125,        0.875
    193,           0.,  0.285714298, -0.714285731
    194,           0.,  0.142857149, -0.857142866
    195,           0.,           0.,          -1.
    196,           0.,           0., -0.800000012
    197,  0.285714298,           0., -0.714285731
    198,  0.142857149,           0., -0.857142866
    199,         0.25,         0.25,        -0.75
    200,        0.125,        0.125,       -0.875
    201,           0.,           0., -0.600000024
    202,           0.,           0., -0.400000006
    203,           0.,  0.177585751, -0.336525083
    204,           0.,  0.180330113, -0.571418047
    205,  0.177585751,           0., -0.336525083
    206,  0.180330113,           0., -0.571418047
    207,           0.,           0., -0.200000003
    208,           0.,  0.258160651, -0.00185086753
    209,           0.,  0.154939219, -0.140135124
    210,  0.258160651,           0., -0.00185086753
    211,  0.154939219,           0., -0.140135124
    212,           0.,           0.,           0.
    213,           0.,           0.,  0.200000003
    214,           0.,  0.185040966,  0.313442737
    215,           0.,  0.158144042,   0.13313289
    216,  0.185040966,           0.,  0.313442737
    217,  0.158144042,           0.,   0.13313289
    218,           0.,           0.,  0.400000006
    219,           0.,           0.,  0.600000024
    220,           0.,  0.206757173,  0.511930823
    221,  0.206757173,           0.,  0.511930823
    222,           0.,           0.,  0.800000012
    223,           0.,           0.,           1.
    224,           0.,  0.142857149,  0.857142866
    225,           0.,  0.285714298,  0.714285731
    226,  0.142857149,           0.,  0.857142866
    227,  0.285714298,           0.,  0.714285731
    228,         0.25,         0.25,         0.75
    229,        0.125,        0.125,        0.875
    230,           0.,  0.571428597, -0.428571433
    231,           0.,  0.428571433, -0.571428597
    232,           0.,  0.357421547, -0.396025926
    233,           0.,  0.650773764, -0.110969506
    234,           0.,  0.336360008, -0.182543367
    235,           0.,   0.51039654, -0.234681591
    236,           0.,  0.475573778, -0.00279777055
    237,           0.,  0.348056495,  0.173820689
    238,           0.,  0.534168839,  0.213408321
    239,           0.,  0.428571433,  0.571428597
    240,           0.,  0.571428597,  0.428571433
    241,           0.,  0.378669977,  0.374030501
    242,           0.,  0.857142866, -0.142857149
    243,           0.,  0.714285731, -0.285714298
    244,         0.25,         0.75,        -0.25
    245,        0.125,        0.875,       -0.125
    246,  0.285714298,           1., -0.285714298
    247,  0.142857149,           1., -0.142857149
    248,           0.,           1.,           0.
    249,           0.,  0.714285731,  0.285714298
    250,           0.,  0.857142866,  0.142857149
    251,           0.,  0.690564752, 0.0635271519
    252,  0.142857149,           1.,  0.142857149
    253,  0.285714298,           1.,  0.285714298
    254,         0.25,         0.75,         0.25
    255,        0.125,        0.875,        0.125
    256,  0.571428597,          -1., -0.571428597
    257,  0.428571433,          -1., -0.428571433
    258,  0.428571433,          -1.,  0.428571433
    259,  0.571428597,          -1.,  0.571428597
    260,          0.5,         -0.5,         -0.5
    261,        0.375,       -0.625,       -0.375
    262,        0.625,       -0.375,       -0.375
    263,        0.625,       -0.625,       -0.625
    264,        0.375,       -0.375,       -0.625
    265,          0.5,         -0.5,          0.5
    266,        0.375,       -0.375,        0.625
    267,        0.375,       -0.625,        0.375
    268,        0.625,       -0.625,        0.625
    269,        0.625,       -0.375,        0.375
    270,  0.571428597,           0., -0.428571433
    271,  0.428571433,           0., -0.571428597
    272,  0.357421547,           0., -0.396025926
    273,  0.650773764,           0., -0.110969506
    274,  0.336360008,           0., -0.182543367
    275,   0.51039654,           0., -0.234681591
    276,  0.475573778,           0., -0.00279777055
    277,  0.348056495,           0.,  0.173820689
    278,  0.534168839,           0.,  0.213408321
    279,  0.428571433,           0.,  0.571428597
    280,  0.571428597,           0.,  0.428571433
    281,  0.378669977,           0.,  0.374030501
    282,          0.5,          0.5,         -0.5
    283,        0.375,        0.625,       -0.375
    284,        0.625,        0.625,       -0.625
    285,        0.375,        0.375,       -0.625
    286,        0.625,        0.375,       -0.375
    287,          0.5,          0.5,          0.5
    288,        0.375,        0.625,        0.375
    289,        0.375,        0.375,        0.625
    290,        0.625,        0.375,        0.375
    291,        0.625,        0.625,        0.625
    292,  0.571428597,           1., -0.571428597
    293,  0.428571433,           1., -0.428571433
    294,  0.428571433,           1.,  0.428571433
    295,  0.571428597,           1.,  0.571428597
    296,           1.,          -1.,          -1.
    297,           1., -0.857142866, -0.857142866
    298,           1., -0.714285731, -0.714285731
    299,  0.857142866,          -1., -0.857142866
    300,  0.714285731,          -1., -0.714285731
    301,           1.,          -1., -0.800000012
    302,        0.875,       -0.875,       -0.875
    303,         0.75,        -0.75,        -0.75
    304,           1.,          -1., -0.600000024
    305,           1.,          -1., -0.400000006
    306,           1.,          -1., -0.200000003
    307,           1.,          -1.,           0.
    308,           1.,          -1.,  0.200000003
    309,           1.,          -1.,  0.400000006
    310,           1.,          -1.,  0.600000024
    311,           1.,          -1.,           1.
    312,           1., -0.714285731,  0.714285731
    313,           1., -0.857142866,  0.857142866
    314,  0.714285731,          -1.,  0.714285731
    315,  0.857142866,          -1.,  0.857142866
    316,        0.875,       -0.875,        0.875
    317,         0.75,        -0.75,         0.75
    318,           1.,          -1.,  0.800000012
    319,           1., -0.571428597, -0.571428597
    320,           1., -0.428571433, -0.428571433
    321,           1., -0.428571433,  0.428571433
    322,           1., -0.571428597,  0.571428597
    323,         0.75,        -0.25,        -0.25
    324,        0.875,       -0.125,       -0.125
    325,           1., -0.285714298, -0.285714298
    326,           1., -0.142857149, -0.142857149
    327,           1., -0.142857149,  0.142857149
    328,           1., -0.285714298,  0.285714298
    329,         0.75,        -0.25,         0.25
    330,        0.875,       -0.125,        0.125
    331,  0.857142866,           0., -0.142857149
    332,  0.714285731,           0., -0.285714298
    333,         0.75,         0.25,        -0.25
    334,        0.875,        0.125,       -0.125
    335,           1.,  0.285714298, -0.285714298
    336,           1.,  0.142857149, -0.142857149
    337,           1.,           0.,           0.
    338,  0.714285731,           0.,  0.285714298
    339,  0.857142866,           0.,  0.142857149
    340,  0.690564752,           0., 0.0635271519
    341,           1.,  0.142857149,  0.142857149
    342,           1.,  0.285714298,  0.285714298
    343,         0.75,         0.25,         0.25
    344,        0.875,        0.125,        0.125
    345,           1.,  0.571428597, -0.571428597
    346,           1.,  0.428571433, -0.428571433
    347,           1.,  0.428571433,  0.428571433
    348,           1.,  0.571428597,  0.571428597
    349,           1.,           1.,          -1.
    350,        0.875,        0.875,       -0.875
    351,         0.75,         0.75,        -0.75
    352,           1.,           1., -0.800000012
    353,  0.857142866,           1., -0.857142866
    354,  0.714285731,           1., -0.714285731
    355,           1.,  0.857142866, -0.857142866
    356,           1.,  0.714285731, -0.714285731
    357,           1.,           1., -0.600000024
    358,           1.,           1., -0.400000006
    359,           1.,           1., -0.200000003
    360,           1.,           1.,           0.
    361,           1.,           1.,  0.200000003
    362,           1.,           1.,  0.400000006
    363,           1.,           1.,  0.600000024
    364,           1.,           1.,           1.
    365,           1.,           1.,  0.800000012
    366,  0.714285731,           1.,  0.714285731
    367,  0.857142866,           1.,  0.857142866
    368,           1.,  0.714285731,  0.714285731
    369,           1.,  0.857142866,  0.857142866
    370,        0.875,        0.875,        0.875
    371,         0.75,         0.75,         0.75
*Element, type=S3
  1, 195, 196, 194
  2, 204, 231, 193
  3, 201, 204, 196
  4, 196, 204, 194
  5, 202, 203, 204
  6, 204, 232, 231
  7, 203, 232, 204
  8, 232, 235, 230
  9, 234, 235, 232
 10, 208, 236, 234
 11, 233, 242, 243
 12, 207, 209, 203
 13, 209, 234, 203
 14, 212, 208, 209
 15, 241, 220, 239
 16, 222, 223, 224
 17, 219, 225, 220
 18, 219, 222, 224
 19, 237, 214, 241
 20, 214, 218, 220
 21, 212, 215, 208
 22, 215, 214, 237
 23, 215, 213, 214
 24, 251, 238, 249
 25, 238, 241, 240
 26, 237, 241, 238
 27, 208, 237, 236
 28, 237, 238, 236
 29, 251, 249, 250
 30, 233, 251, 242
 31, 251, 250, 242
 32, 250, 248, 242
 33, 236, 251, 233
 34, 241, 239, 240
 35, 238, 240, 249
 36, 213, 218, 214
 37, 212, 213, 215
 38, 215, 237, 208
 39, 218, 219, 220
 40, 214, 220, 241
 41, 219, 224, 225
 42, 220, 225, 239
 43, 208, 234, 209
 44, 209, 207, 212
 45, 234, 232, 203
 46, 203, 202, 207
 47, 243, 235, 233
 48, 236, 235, 234
 49, 235, 243, 230
 50, 232, 230, 231
 51, 204, 201, 202
 52, 204, 193, 194
 53, 235, 236, 233
 54, 238, 251, 236
 55, 223, 222, 141
 56, 139, 101, 140
 57, 219, 139, 222
 58, 222, 139, 141
 59, 218, 138, 139
 60, 139, 102, 101
 61, 138, 102, 139
 62, 102,  98, 100
 63,  97,  98, 102
 64, 136,  99,  97
 65,  96,  44,  45
 66, 213, 137, 138
 67, 137,  97, 138
 68, 212, 136, 137
 69,  93, 133,  91
 70, 196, 195, 129
 71, 201, 130, 133
 72, 201, 196, 129
 73,  94, 134,  93
 74, 134, 202, 133
 75, 212, 135, 136
 76, 135, 134,  94
 77, 135, 207, 134
 78,  38,  95,  36
 79,  95,  93,  92
 80,  94,  93,  95
 81, 136,  94,  99
 82,  94,  95,  99
 83,  38,  36,  37
 84,  96,  38,  44
 85,  38,  37,  44
 86,  37,  43,  44
 87,  99,  38,  96
 88,  93,  91,  92
 89,  95,  92,  36
 90, 207, 202, 134
 91, 212, 207, 135
 92, 135,  94, 136
 93, 202, 201, 133
 94, 134, 133,  93
 95, 201, 129, 130
 96, 133, 130,  91
 97, 136,  97, 137
 98, 137, 213, 212
 99,  97, 102, 138
100, 138, 218, 213
101,  45,  98,  96
102,  99,  98,  97
103,  98,  45, 100
104, 102, 100, 101
105, 139, 219, 218
106, 139, 140, 141
107,  98,  99,  96
108,  95,  38,  99
109, 195, 196, 198
110, 206, 271, 197
111, 201, 206, 196
112, 196, 206, 198
113, 202, 205, 206
114, 206, 272, 271
115, 205, 272, 206
116, 272, 275, 270
117, 274, 275, 272
118, 210, 276, 274
119, 273, 331, 332
120, 207, 211, 205
121, 211, 274, 205
122, 212, 210, 211
123, 281, 221, 279
124, 222, 223, 226
125, 219, 227, 221
126, 219, 222, 226
127, 277, 216, 281
128, 216, 218, 221
129, 212, 217, 210
130, 217, 216, 277
131, 217, 213, 216
132, 340, 278, 338
133, 278, 281, 280
134, 277, 281, 278
135, 210, 277, 276
136, 277, 278, 276
137, 340, 338, 339
138, 273, 340, 331
139, 340, 339, 331
140, 339, 337, 331
141, 276, 340, 273
142, 281, 279, 280
143, 278, 280, 338
144, 213, 218, 216
145, 212, 213, 217
146, 217, 277, 210
147, 218, 219, 221
148, 216, 221, 281
149, 219, 226, 227
150, 221, 227, 279
151, 210, 274, 211
152, 211, 207, 212
153, 274, 272, 205
154, 205, 202, 207
155, 332, 275, 273
156, 276, 275, 274
157, 275, 332, 270
158, 272, 270, 271
159, 206, 201, 202
160, 206, 197, 198
161, 275, 276, 273
162, 278, 340, 276
163, 223, 222, 190
164, 188, 176, 189
165, 219, 188, 222
166, 222, 188, 190
167, 218, 187, 188
168, 188, 177, 176
169, 187, 177, 188
170, 177, 173, 175
171, 172, 173, 177
172, 185, 174, 172
173, 171, 160, 161
174, 213, 186, 187
175, 186, 172, 187
176, 212, 185, 186
177, 168, 182, 166
178, 196, 195, 178
179, 201, 179, 182
180, 201, 196, 178
181, 169, 183, 168
182, 183, 202, 182
183, 212, 184, 185
184, 184, 183, 169
185, 184, 207, 183
186, 154, 170, 152
187, 170, 168, 167
188, 169, 168, 170
189, 185, 169, 174
190, 169, 170, 174
191, 154, 152, 153
192, 171, 154, 160
193, 154, 153, 160
194, 153, 159, 160
195, 174, 154, 171
196, 168, 166, 167
197, 170, 167, 152
198, 207, 202, 183
199, 212, 207, 184
200, 184, 169, 185
201, 202, 201, 182
202, 183, 182, 168
203, 201, 178, 179
204, 182, 179, 166
205, 185, 172, 186
206, 186, 213, 212
207, 172, 177, 187
208, 187, 218, 213
209, 161, 173, 171
210, 174, 173, 172
211, 173, 161, 175
212, 177, 175, 176
213, 188, 219, 218
214, 188, 189, 190
215, 173, 174, 171
216, 170, 154, 174
*Element, type=B31
217, 108, 109
218, 109,  46
219,  46,  47
220,  47,  43
221,  86,  87
222,  87,  32
223,  32,  33
224,  33,  43
225,  16,  17
226,  17,  18
227,  18,  88
228,  88,  86
229,   1,   2
230,   2,   9
231,   9,  10
232,  10,  11
233,  11,  12
234,  12,  13
235,  13,  14
236,  14,  15
237,  15,  19
238,  19,  16
239,   1,   3
240,   3,   4
241,   4,  24
242,  24,  25
243,  25,  28
244,  28,  29
245,  29,  43
246,  43,  48
247,  48,  49
248,  49,  52
249,  52,  53
250,  53,  70
251,  70,  71
252,  71,  69
253, 248, 148
254, 148, 149
255, 149, 115
256, 115, 116
257, 116,  72
258,  72,  73
259,  73,  69
260, 108, 110
261, 110, 150
262, 150, 151
263, 151, 248
264,  69,  74
265,  74,  75
266,  75, 111
267, 111, 108
268,  54,  55
269,  55,  62
270,  62,  63
271,  63,  64
272,  64,  65
273,  65,  66
274,  66,  67
275,  67,  68
276,  68,  76
277,  76,  69
278,  54,  56
279,  56,  57
280,  57,  50
281,  50,  51
282,  51,  39
283,  39,  40
284,  40,  43
285, 108, 112
286, 112, 142
287, 142, 143
288, 143, 223
289, 103, 104
290, 104,  41
291,  41,  42
292,  42,  43
293,  54,  58
294,  58,  59
295,  59, 105
296, 105, 103
297,  86,  89
298,  89, 121
299, 121, 122
300, 122, 159
301,  86,  90
302,  90, 127
303, 127, 128
304, 128, 223
305,  43,  34
306,  34,  35
307,  35,  26
308,  26,  27
309,  27,  20
310,  20,  21
311,  21,  16
312,   1,   5
313,   5,   6
314,   6,  77
315,  77,  78
316,  78, 117
317, 117, 118
318, 118, 159
319,   1,   7
320,   7,   8
321,   8,  82
322,  82,  81
323,  81,  83
324,  83, 125
325, 125, 126
326, 126, 195
327, 103, 106
328, 106, 131
329, 131, 132
330, 132, 195
331, 103, 107
332, 107, 144
333, 144, 145
334, 145, 248
335, 282, 283
336, 283, 244
337, 244, 245
338, 245, 248
339, 349, 350
340, 350, 351
341, 351, 284
342, 284, 282
343, 349, 352
344, 352, 357
345, 357, 358
346, 358, 359
347, 359, 360
348, 360, 361
349, 361, 362
350, 362, 363
351, 363, 365
352, 365, 364
353, 248, 252
354, 252, 253
355, 253, 294
356, 294, 295
357, 295, 366
358, 366, 367
359, 367, 364
360, 287, 288
361, 288, 254
362, 254, 255
363, 255, 248
364, 287, 289
365, 289, 228
366, 228, 229
367, 229, 223
368, 265, 266
369, 266, 191
370, 191, 192
371, 192, 223
372, 265, 267
373, 267, 162
374, 162, 163
375, 163, 159
376,  54,  60
377,  60,  61
378,  61, 113
379, 113, 114
380, 114, 146
381, 146, 147
382, 147, 248
383,  81,  84
384,  84,  30
385,  30,  31
386,  31,  43
387,  81,  85
388,  85, 119
389, 119, 120
390, 120, 159
391, 260, 261
392, 261, 155
393, 155, 156
394, 156, 159
395, 260, 262
396, 262, 323
397, 323, 324
398, 324, 337
399, 296, 297
400, 297, 298
401, 298, 319
402, 319, 320
403, 320, 325
404, 325, 326
405, 326, 337
406, 296, 299
407, 299, 300
408, 300, 256
409, 256, 257
410, 257, 157
411, 157, 158
412, 158, 159
413, 159, 123
414, 123, 124
415, 124,  79
416,  79,  80
417,  80,  22
418,  22,  23
419,  23,  16
420, 282, 285
421, 285, 199
422, 199, 200
423, 200, 195
424, 282, 286
425, 286, 333
426, 333, 334
427, 334, 337
428, 349, 353
429, 353, 354
430, 354, 292
431, 292, 293
432, 293, 246
433, 246, 247
434, 247, 248
435, 349, 355
436, 355, 356
437, 356, 345
438, 345, 346
439, 346, 335
440, 335, 336
441, 336, 337
442, 337, 327
443, 327, 328
444, 328, 321
445, 321, 322
446, 322, 312
447, 312, 313
448, 313, 311
449, 159, 164
450, 164, 165
451, 165, 258
452, 258, 259
453, 259, 314
454, 314, 315
455, 315, 311
456, 337, 341
457, 341, 342
458, 342, 347
459, 347, 348
460, 348, 368
461, 368, 369
462, 369, 364
463, 287, 290
464, 290, 343
465, 343, 344
466, 344, 337
467, 364, 370
468, 370, 371
469, 371, 291
470, 291, 287
471, 311, 316
472, 316, 317
473, 317, 268
474, 268, 265
475, 296, 301
476, 301, 304
477, 304, 305
478, 305, 306
479, 306, 307
480, 307, 308
481, 308, 309
482, 309, 310
483, 310, 318
484, 318, 311
485, 296, 302
486, 302, 303
487, 303, 263
488, 263, 260
489, 260, 264
490, 264, 180
491, 180, 181
492, 181, 195
493, 265, 269
494, 269, 329
495, 329, 330
496, 330, 337
*Elset, elset=_PickedSet3, internal, generate
   1,  216,    1
*Elset, elset=_PickedSet4, internal
 229, 230, 231, 232, 233, 234, 235, 236, 237, 238, 268, 269, 270, 271, 272, 273
 274, 275, 276, 277, 343, 344, 345, 346, 347, 348, 349, 350, 351, 352, 475, 476
 477, 478, 479, 480, 481, 482, 483, 484
*Elset, elset=_PickedSet5, internal
 239, 240, 241, 242, 243, 244, 245, 246, 247, 248, 249, 250, 251, 252, 253, 254
 255, 256, 257, 258, 259, 278, 279, 280, 281, 282, 283, 284, 305, 306, 307, 308
 309, 310, 311, 312, 313, 314, 315, 316, 317, 318, 353, 354, 355, 356, 357, 358
 359, 376, 377, 378, 379, 380, 381, 382, 399, 400, 401, 402, 403, 404, 405, 406
 407, 408, 409, 410, 411, 412, 413, 414, 415, 416, 417, 418, 419, 428, 429, 430
 431, 432, 433, 434, 435, 436, 437, 438, 439, 440, 441, 442, 443, 444, 445, 446
 447, 448, 449, 450, 451, 452, 453, 454, 455, 456, 457, 458, 459, 460, 461, 462
*Elset, elset=_PickedSet6, internal
 217, 218, 219, 220, 221, 222, 223, 224, 225, 226, 227, 228, 260, 261, 262, 263
 264, 265, 266, 267, 285, 286, 287, 288, 289, 290, 291, 292, 293, 294, 295, 296
 297, 298, 299, 300, 301, 302, 303, 304, 319, 320, 321, 322, 323, 324, 325, 326
 327, 328, 329, 330, 331, 332, 333, 334, 335, 336, 337, 338, 339, 340, 341, 342
 360, 361, 362, 363, 364, 365, 366, 367, 368, 369, 370, 371, 372, 373, 374, 375
 383, 384, 385, 386, 387, 388, 389, 390, 391, 392, 393, 394, 395, 396, 397, 398
 420, 421, 422, 423, 424, 425, 426, 427, 463, 464, 465, 466, 467, 468, 469, 470
 471, 472, 473, 474, 485, 486, 487, 488, 489, 490, 491, 492, 493, 494, 495, 496
** Section: Section-shell
*Shell Section, elset=_PickedSet3, material=Material-1
0.1, 5
** Section: Section-beam-inner  Profile: Profile-circle-inner
*Beam Section, elset=_PickedSet6, material=Material-1, temperature=GRADIENTS, section=CIRC
0.2
0.1,0.,-1.
** Section: Section-beam-edge  Profile: Profile-circle-edge
*Beam Section, elset=_PickedSet4, material=Material-1, temperature=GRADIENTS, section=CIRC
0.1
0.1,0.,-1.
** Section: Section-beam-face  Profile: Profile-circle-face
*Beam Section, elset=_PickedSet5, material=Material-1, temperature=GRADIENTS, section=CIRC
0.141421
0.1,0.,-1.
*End Part
**  
**
** ASSEMBLY
**
*Assembly, name=Assembly
**  
*Instance, name=lattice_hybrid-1, part=lattice_hybrid
*End Instance
**  
*End Assembly
** 
** MATERIALS
** 
*Material, name=Material-1
*Elastic
1., 0.3
** ----------------------------------------------------------------
** 
** STEP: Step-1
** 
*Step, name=Step-1, nlgeom=NO
*Static
1., 1., 1e-05, 1.
** 
** OUTPUT REQUESTS
** 
*Restart, write, frequency=0
** 
** FIELD OUTPUT: F-Output-1
** 
*Output, field
*Node Output
RF, RM, RT, U, UR, UT
*Element Output, directions=YES
E, S
** 
** HISTORY OUTPUT: H-Output-1
** 
*Output, history, variable=PRESELECT
*End Step
